80 80
146448912 848828148 610124170 509473861 716084012 540507597 418454540 861097710 312957763 773912046 599041139 544883306 466654107 89645666 24838552 693902546 106229602 958800351 754160388 673844206 224871319 865500525 965147156 286924793 240172356 391320664 311715123 971531356 15141256 865188469 611293677 241640562 785146396 505008241 773604283 955631219 403043512 978860343 949884272 190566835 806774025 56836486 985608183 813339307 182213489 928041169 772526770 999411265 385539250 555808714 10048286 566281016 2251192 682666388 734570863 5552866 985206481 885767889 130212686 45873897 588675804 943329745 810746074 589745398 507961156 41486766 22492674 158529496 811508473 307522769 138470797 254979798 513366714 561250521 996831504 555200234 790653535 684100390 264377552 6206801