93468 561875041
891556060 526815696 960758541 853772543 475596234 671744420 814900268 788655032 230008081 779220862 814620786 117916289 930104122 762595009 735978514 348180040 907491786 679743141 364809803 486257595 578604618 376077219 841234173 214738082 280171910 987681966 368574493 757653249 391227582 922055956 501483022 853161367 426885056 438042589 868148362 969924497 681720375 680340892 315533708 944419480 115698795 306749476 868839744 131530534 478838404 93251577 845651516 295889314 79957791 281483505 312811568 92005458 75879188 276288465 991561721 257417887 43440565 899606898 489114075 194306561 564962561 878327361 231138586 715291550 214262302 733329800 562632204 29012346 535041568 140531686 587854940 456715000 686582836 393041147 896574773 677037871 567310602 647276871 294238754 985627370 599768619 905729844 204417874 678534807 881581001 872117182 151722378 437485771 896147931 589090572 160448275 294175154 654576070 963264549 27463102 637115943 717884869 670104510 198805852 923787215 634275100 611027602 839168229 863108807 935450997 478538374 840609501 915259768 780698941 78072310 829177600 602576170 786480404 477533775 844051246 891448243 429506998 408642466 400630204 630506688 422361206 409750853 363688001 2615263 696182040 624216664 3224376 405418526 202111994 786592924 268622974 187145659 151939021 422489669 234411083 885718011 692283418 562812412 918491360 580014089 299510792 634658597 769504954 223243196 579715217 77501231 787928943 147258382 16498036 9751734 397548336 122600957 657461337 723249223 977827524 718630384 386239534 432512706 782642077 459025215 591951786 148868412 947417280 836264045 656745341 753323056 156555762 688527815 191087135 720604190 31658374 394799712 330343822 71026262 122625454 870640199 269461201 520838961 803489541 498744189 733367963 591501666 119031515 848252281 254711759 871598960 142070566 713499093 279453175 121833591 917685192 782636676 693929273 340210255 381127276 441185987 947398001 46497841 289835181 925244693 673166898 954360026 565361415 335708942 117401714 157595928 989711802 320445599 786831947 515182025 542550912 827998782 170462455 789501597 521249725 237584999 325761601 987023843 217023207 903728807 820693615 506635239 302466037 118838040 148844326 941315882 551254417 598533550 968882233 173157760 829517491 362240906 539506731 65139904 282366082 219462152 688467178 768136905 158772285 106886628 760081244 285492892 151515905 213088620 281267366 752623819 155712691 582867821 645841131 822847022 910343351 689577810 975297206 65338845 343072583 26892198 608308362 132131682 316496692 809982769 258489016 112743397 675452395 500993325 2518978 564460285 48380106 282696470 424643269 994160832 264023848 241207581 596279292 332915129 141375656 147502884 892362504 638827793 184254973 434574120 430541414 829613634 346574875 572010494 956827410 360648044 339087307 557502054 799233767 217350052 260278089 146500021 793638786 472381378 869886534 931549171 929140211 211576298 158972830 27276371 267366317 732776111 900698865 722955918 92518261 746116421 436707044 121415894 808687287 992238563 916655430 415900726 783817629 821568490 294154773 636157186 464691752 744258358 951218275 282115284 527638877 773672907 819091871 150553617 798458776 354001538 600350929 996649807 399225181 490715044 691454571 773022485 769658342 31745015 802263458 23955820 40127382 831219328 539747622 349184483 958850191 915842585 786797325 916039687 989343740 226270584 543408446 20717873 475104435 285921962 648739847 627061860 149382177 344949254 646578461 26321350 780438939 146103580 949994239 90768358 866387767 127111280 468257010 212962266 934011316 442950874 36012274 188418620 641318730 155766946 570944021 214787688 375849604 11588923 878801223 280853395 48533764 615351016 735853511 4399467 535338641 88464467 182784087 677339482 88984103 72974093 283656740 327546980 247452612 211341674 644345438 588959644 584187970 241150591 988601336 427926045 360050261 197801814 889498509 628646447 675943462 746658974 513116044 670358538 58554589 342785745 300704508 492473068 527668318 703594255 41932450 767016573 479437656 319542522 148876150 304437554 270551657 256174697 968491980 531789494 168191726 37006538 267302824 564079529 527377830 808199709 33398597 361861973 384346443 74584961 824214145 477897682 683711007 315113215 614419865 628142454 306924781 267615109 845886063 143945431 569302850 546375867 336606690 875500049 703727958 952301537 712555952 270328387 120675462 629982476 671969115 78090475 149247750 320319055 393503748 180886442 68929410 432830151 450912271 759987153 850018748 531697106 374789372 922023384 704730378 957992227 690588375 535468319 429292407 596130732 307897273 788177852 37946268 122149743 182388633 644594609 185890171 757465124 838392023 307850292 686917163 948003698 666247225 132546313 253552878 795078571 109594958 382528120 652891248 839007474 511220718 218420104 355239621 887035201 817569902 314916666 921494080 32647723 193736715 253420179 165941386 885776051 734000961 993454126 559282473 312316595 159472377 883375832 18578884 445852163 619393944 758119180 526061639 787618494 338507625 596665163 529108612 878566543 175209380 40082846 749147024 889252488 23956886 191775005 606282640 312524641 223214293 805061812 519889236 76265617 979893020 234162978 179005266 993304941 216475452 721418232 162960204 842238425 770277064 509491040 46004188 116770719 334759177 866319421 74216794 939063716 709684378 69289304 394765925 923642939 715454103 602073178 918008889 494785120 578650918 649679975 927392576 417674668 218129299 456686557 268660602 640977903 716641252 628744286 520734514 342041605 957802410 302896648 643892470 623344628 106487228 147332909 657027486 416100297 400698419 276990147 222229486 759199625 236731084 370955398 751050655 168399652 492204046 343214605 892357140 158847347 8775531 13105482 32261305 261044950 201566275 435508283 777705 72633235 888080718 636828370 888121721 980609796 653350811 317735039 53266930 334892823 712083388 1754996 935339815 789309430 951015887 902934588 282684198 177829958 48382743 820837584 558736993 230627036 982600135 698990394 228409189 208535878 26186470 249783264 552013225 110270559 982303707 675174960 128366427 949667684 583705792 579650102 529947897 750920204 988373415 826164463 689815500 37366882 746591233 124625454 59321716 33689185 636079168 66528934 561965922 733171601 953784169 461354622 683077466 527339475 969370428 791364834 356472527 582713466 385067302 362190178 930291195 369881776 228493203 115941578 720076762 149462269 174924272 214713921 471185815 399193813 925172204 986886728 496872553 912737584 758139886 433161043 151487377 855038926 640212922 588257580 481045902 643921608 558056891 615917566 240725638 556035884 832407398 267605484 590311970 923372326 424513777 115763401 330071933 50007348 82707646 180769880 475545275 681234552 662477069 312118988 831231556 375507444 637620339 658403350 718582987 890939385 906459843 533750236 850566826 500203320 311065550 704432915 615196797 274314201 140989989 964768098 825597539 453386920 295205202 872250770 665606948 941702957 429054285 835007279 203069422 767481370 369179607 38069206 910069432 645889474 380674929 407973244 918635533 939771014 910169000 970594355 71169895 120767248 153798560 652895388 753214875 451245602 899952688 699340482 699692003 371948684 476759673 605697711 382827484 989620320 9547464 755075512 306137722 100717594 417206651 781150597 842446555 76650278 283158759 382247580 840607755 802723213 664344461 999745644 584226196 663154129 580952045 909996330 860443169 46122351 260961180 941238481 8316186 338870059 927886965 604759714 869592689 837973785 288750776 986720504 389569370 450562047 187686359 810324012 252520696 268301599 228584911 584293997 843913254 185136449 740599951 52362812 865778391 670019413 620902629 549678480 705991844 913972177 306769938 936417102 608017128 583439844 65245204 729825894 582940863 371379186 34144621 496762888 646629184 189415646 361253207 90269401 555352711 273247010 866069472 838127857 900431228 802776015 995747552 168650981 450774850 288289348 396866637 623087680 927549877 982516523 492273046 633641812 148360599 684703164 770518958 297060968 779102418 884398754 128303318 545358412 589151322 639992532 781413467 725408810 586388892 68406293 529374374 820805286 975858021 886767307 76561404 752036944 805469680 485262597 567768437 455859748 770547663 205040938 719376169 581156544 302795093 647228550 945250477 57612123 815276886 957603884 781798453 764040848 831433463 78480158 750063087 477764206 212171905 661910309 361183625 976003778 159222642 647535521 218784587 762203515 841531665 395590974 919853254 678076744 61079213 643456974 716969000 50135088 545650394 254979167 195272181 275088776 68250301 453196405 365192561 777387781 579578852 168143333 909147307 578809841 829939564 266264880 154273228 478919918 269404531 203709989 17118406 132824660 465001269 185908144 130271134 681154796 16830660 265885692 274461482 299463407 787988 472457484 836597738 482494137 999435328 861443363 724385089 366904676 411773675 528838469 64530175 303819412 791256660 63004341 719825018 219341373 375069605 535570055 310773576 254094852 808320681 333417583 617199513 691392634 613722455 393074044 878316330 440366015 857986893 194518288 966770399 128653082 762592083 854608631 78700341 249706849 824994893 628421002 540298492 257498801 180741252 411474840 14333263 469354101 394065977 227631552 430984263 146897999 854696972 43414810 990791295 480057626 924182554 293018968 531673603 639528887 893541385 682352033 870290251 682367190 469503783 347156445 642190860 122703086 680406159 977047649 569865195 797739929 301901852 282179033 528292683 599142783 115745377 412957569 716205134 751286213 501918085 800865724 792500201 571273157 990293829 27346345 416573924 890480582 511666059 596411288 827323597 63601662 613425224 586110420 720532710 105996424 868376021 696706121 517452849 708752166 592402075 2739143 513887326 755495125 48346749 781631616 86252644 827436347 2007388 672120427 509197333 878286231 753686299 62534784 219961980 118181477 263739586 322931430 365393661 82754112 848094057 682103767 800489239 661604954 239824265 863924348 586663806 918637231 177195344 919279157 394190974 344200257 432899807 507301479 264779656 117270967 97744784 553508424 485470886 242856635 469915380 635839703 443444301 89874759 62194474 848524681 901484049 549504549 387787450 880026443 343088792 234167829 209253498 866073654 151555274 655493386 393309083 143343312 313905982 151912467 102238546 40477126 215704337 224746056 681745533 5572000 658046887 240159023 38145828 973258685 117247797 532550493 346632240 814113686 113723157 205058565 793512362 913725264 823759947 909319825 731527854 607873942 576137403 863452448 145744684 704070962 989020442 226672688 491373899 182306211 108936648 474916981 344417835 898326995 410182013 259659177 899273124 891581452 559807447 761859780 902431766 916094103 152087631 920369127 330127567 865735031 670072382 907435429 47053867 453402191 467912687 233829779 21226289 213368853 757375763 965857220 715743067 544842818 463074938 122174237 108439559 612480141 735597893 807227726 38343638 934660583 218577839 90354027 972343899 48965867 795292547 181828016 941249745 914882802 708674838 931558450 248948938 80914811 186094321 806980201 249067706 762078076 34265300 776441895 499073363 629272903 465407587 923291249 712295176 586704566 330489776 49044700 36483734 250729051 548304632 113689800 334686162 854245745 871901475 997274942 617344612 921039597 447464387 250605724 469056768 702710685 992256492 218445743 539602906 921818284 870861051 985324723 590172586 380230488 285346514 932491386 633762821 575611039 363373299 43763492 59070179 496979545 402694509 677478916 749895624 873041239 972443373 40365860 316528901 769750039 818143649 484525912 952933667 991021127 768489990 481214002 552473776 300078145 31816222 482823914 344462834 820163227 298579562 873183121 761378344 507451775 356866534 361301818 748864423 764773828 128847261 330417573 491490767 116968556 308142124 285984694 377820765 445477910 196851521 477635641 978315301 675089019 425902530 146552617 680959419 37072601 734827788 274759729 500458965 388141719 424554030 306488263 809613387 706891774 893297780 452810340 395821953 367977314 744891933 222648234 723353093 128601968 267928981 526620015 760426571 483373199 897567372 450262972 920850576 146565549 293172586 957208543 219159379 835397682 788822645 635287966 396633046 268598847 957625191 230626792 270038926 233470671 711583530 761123467 758233524 100309705 298492906 200188675 59675553 186116988 563748836 724072244 981880588 359849909 613639466 800000306 177568659 995898585 848081264 784624966 825155434 815080703 942212040 605319924 363349751 764406559 194086998 782267505 677238938 457975970 716404542 429839549 179971603 699329288 558209046 51353281 716240139 55709287 649499939 294637946 771109 65145179 323937919 997288076 388765861 828181789 685697175 829952047 418280595 823131817 202701584 852053384 985715015 511040297 898742123 670321752 258007746 623381576 705960799 368251411 537251600 154851293 168088096 821495231 954332692 321520085 972006050 876267087 404088813 87665888 762643223 312302454 237609103 511648857 372041845 576097198 506417753 819281001 512375357 486348868 650398101 440878104 811186289 326444333 417497988 847442408 630730634 381671387 726097331 467176723 377925334 781334495 955580107 910757846 67045199 510640671 345106144 158924069 851127592 147744916 906004863 427361153 629373882 465810497 319883819 858442315 979502111 596844209 628844740 617840672 771825245 319444583 201204926 119080185 294776208 762522519 450444467 582257640 220532556 371012890 523588717 322740505 46968369 765550294 90083912 499353530 177634549 469609040 944147030 985126760 263001383 254523621 517996745 811146432 890091427 304791200 541801909 919357684 55357294 186685178 825420587 598200040 424823204 652175637 193498544 966601289 479936213 186668703 664723754 140214092 780260728 401628225 769896794 374701865 209396886 70481830 709908674 600089168 935017619 922003333 192526874 741392103 661440213 7277198 626190032 793426846 861159183 204080313 140506882 348746515 625311539 253531570 12097887 634248947 292332659 339724796 332853003 973369169 936328808 386546639 514767215 920108385 327308753 240626022 56827412 79384787 234615258 676982418 468482528 330549247 544192747 965877859 310547362 23359136 866482154 28999731 985380488 12340760 484159076 744892212 263470322 301618626 409652469 491534341 389104440 333646358 79248770 924120245 939838005 22600419 853089686 45667481 846014628 155234909 512133719 310178421 732871157 568961829 795967881 695172632 492019983 942794915 91368087 818119816 7196556 743372069 442538049 371580279 599696323 425530727 525128877 816910892 675393384 977167264 438611119 976240270 44616384 255735445 748781670 138502332 819262773 893132866 968068791 783321694 199623835 509679528 299331239 531636130 692542656 969160580 144958597 584282397 99976680 92485722 438643205 320133509 260034896 195821081 362811328 692366692 711277901 502337133 388771832 735110595 442309376 682460525 507926411 233731762 142449069 688751582 2051686 457267412 23550316 539893680 509538930 520438025 984416346 310947939 580361968 367980343 717183647 892579158 672426558 468034876 983126060 186698718 902681422 230899006 430266967 967858302 160943929 820920592 215080110 572853460 230695213 714198283 533437809 388222999 856323019 273363430 42413848 207202357 196280128 124099303 493451153 172442017 380547518 184364891 240335273 466531911 95772698 469414528 585354050 889879118 17550970 926743045 45204404 364249810 77398120 418251261 378970753 850273513 406214577 857006534 707607757 565559733 890848285 815563028 942454260 445688324 642684152 907951739 532872472 85534208 594490315 361421401 490972034 559985091 688737818 10742039 638691426 93935932 308265019 365971773 373325364 812091971 161096447 30468481 773058599 186388800 886270074 35276420 39340223 450649993 585071114 442581128 957823363 263991088 309387021 414181796 343358233 59091754 70391016 562197083 114121808 447507398 541531399 140698824 732431339 37012951 960629066 230503554 575408523 122177583 553774820 190856003 825328244 307271285 464085193 488241905 526435894 328559765 201582670 901804477 513492028 633083067 982285080 520405250 396654124 348176271 128484469 278837242 301127340 697499261 538986026 6118073 299541593 791464063 775200355 957263672 654361066 813102354 110873015 303620633 297576338 435614577 493360744 126406557 951186340 792632792 442686593 503719226 929284857 465860116 188410121 412264878 144341561 906461399 389091285 895223654 579094115 14906552 779904513 310134134 179031329 205824525 132980295 253377269 828069606 27633687 97424453 231011146 435507318 87176792 597217975 4095001 411796303 530477547 604622132 804700671 37622711 137504005 474115643 342660908 626656298 657655298 612972865 392792269 966789409 470911222 632406978 996126196 509266511 627207188 882731314 802194479 523638934 200617387 54941340 952915546 726943534 868150918 64621553 990969388 872574593 358520881 642357729 104879779 832108979 390304650 421724896 493305598 254894157 342610186 636767212 403731519 699317541 741207570 664689252 984629395 506997501 755779068 801270921 805698899 393121896 293396323 318630273 717437456 419733549 432467517 954861635 752306167 623599797 406722229 746126904 619327646 820584729 15362256 292311264 63026652 167573530 838121056 829737969 93763530 763774106 192636898 957152392 684925193 295130966 167357321 908420582 882503478 858528012 276620137 962101669 19153462 393509516 267944653 737991337 737981282 439658765 74340139 831304192 850335553 44317883 346122862 72903475 796842640 842674115 653581793 505903559 948963902 916405397 651339973 905103742 388017054 265016663 104041384 934246233 899796380 854367943 827612155 120249556 166513840 340894107 713367652 90977743 818265735 106761213 592674687 232284716 643871646 325913142 884596192 404985447 968834051 422635086 515957477 12085779 1517077 431421709 902194526 956382966 80435576 406308412 245021640 780620252 847251316 179783863 778215209 524337550 178721965 718607983 811864718 334765930 566869521 709602575 253218443 473994280 322248 241167506 602425707 988546044 424874931 732394147 395323066 762522468 974458427 327812054 668330964 880750743 573245888 308337100 386950315 586074566 309901589 766265379 345272802 894115888 751777482 67168682 435972012 760774825 667388790 694124286 979216608 332736877 111240344 550934338 528295194 469618083 243733013 125792715 440624544 476107113 110547234 155420144 635903316 595357692 997984996 37948151 776576988 800066589 140176748 507728728 785607726 355943748 838919270 503880129 186883213 990440934 143149195 941849683 45572747 787807054 823624422 357899897 78337294 615627006 192077846 122844212 138603761 928596068 821190194 334244599 427849725 583382141 256417548 593851122 270341146 794549452 536692676 4784197 479317011 806335468 288064128 670145939 466045289 302205903 138450535 873074694 159644960 297483904 254121070 268059396 823659054 557624845 493727109 767709735 211106585 23057778 870995255 218079821 274896636 31985391 944262816 76688845 201463449 887260268 724580883 679775007 814427815 298161652 30561043 48242001 826203725 301765860 702613414 745295424 281890965 130610718 521116733 657934539 211166168 406696545 271013989 482733480 461144077 925742044 204191991 998096149 680301091 243923550 464453619 642994452 736223975 427881315 192103923 585367433 681814471 460681312 974960802 350963629 508981819 601675928 505722099 126426925 935197704 101085702 460579040 529712262 946370386 80761671 907834724 734024554 623464670 873702178 735615760 46445133 554643584 444321923 759816747 302078674 102776183 892918454 997617154 510086219 656552717 465055570 33582975 499137120 601356909 420282960 478977854 140621177 810657740 689371518 118616735 31900563 953405685 361275542 333119120 247671603 872276778 203860129 828836322 987323192 925309454 558459617 162127387 676073482 742400975 678861945 953317964 21594310 812634246 692193432 706900943 318995814 62737461 475271450 568568512 43308305 470840058 935435819 513329607 655884367 144237902 478161605 554198977 647303305 110680435 827058546 409483943 761755615 640712477 567437368 61072435 766835240 742518709 991464730 105212822 42856185 443063479 769703608 945306764 411729221 599025035 953126135 942195529 433427867 480841516 379221272 478148763 45444337 153753159 967697447 289414311 504988078 295868764 976337539 575545787 156019846 790962015 160946521 540643040 1000390 558129678 743022969 617868799 552401945 949985068 49625267 156873336 660498744 121170244 551427515 145270318 564421822 219222115 690613662 560269687 55320210 922791721 361415706 840789442 11500041 691211485 762405310 978392498 285915132 278005455 696691731 29664681 424536741 361936134 663238308 840718511 143248993 586506678 790857243 399664033 579186166 156034020 244735889 849010239 312689865 87035415 763900027 577473464 115412964 874946395 421454365 50909276 310558586 860972989 117314874 651036817 664933329 756980294 305394428 474014087 901217177 30908725 808274649 878839781 630152447 693144231 781155974 266267520 486232792 856665112 524400729 440847734 786651052 224759629 160949925 160241760 942001584 178857252 810487031 344183495 473345446 662215874 30707324 195849581 181490641 80363556 656115134 758384676 491268500 587670830 331819118 487520574 626108263 111831212 14970594 695133744 349688449 101738715 920333289 652652660 77465975 807504828 303347631 175480526 726017124 405656400 666351861 643522143 655231422 821014752 861913865 423827289 110064292 379130142 183579635 195979685 549288665 278551314 539128003 570991680 161855564 178658592 898966033 211402437 785481532 236793484 416881691 476895020 839868925 747112375 954492616 904972863 550819392 102331384 348769723 833206825 753435861 367929026 435502330 430308794 817092749 486054884 574558804 71013733 485451620 487898712 743811327 397180037 807165211 617728552 714240614 372004224 332866635 598702377 480253989 993877155 425503503 251830724 421392971 651549508 959350155 645810085 975206040 671707086 72992594 847042733 99190399 291432851 701953353 132922172 315395938 138828044 139548345 526595241 892092398 515254662 71545312 187494410 395228024 271659793 683421707 748251422 896023246 374474636 844511235 659954667 568427076 697910013 631879994 698928582 12884967 927876605 649097261 760968392 290285006 4333723 49890409 8728411 94781253 429302493 884707339 225868320 15603946 499881673 965933992 421472271 698250753 80664771 757694426 609172608 522113525 944242307 273052989 949814690 808080157 239749403 282335707 363193575 241546138 325002913 599890515 267472048 244369662 888748786 894742914 143484742 47836576 347531971 311032527 953073884 565469215 303975316 138909130 358133046 127437993 121161925 271539018 752405018 313909674 542510918 689358859 76371525 348069045 333832007 652262384 25785177 350962943 406031205 535872623 266105163 784313320 890622876 938663552 726115245 976841720 376320827 509311241 41580807 747710771 353862717 861495270 813998785 616409361 670342301 511853278 844673876 264014181 427400988 708839760 897149792 444867012 521425714 440714234 103352805 539072642 779941125 371428023 688483519 714917635 6746118 208676238 781212473 833266365 68580027 409935770 55139985 667503979 970780536 20772926 261577948 816083536 679098519 20676178 838970692 223955178 516601546 132736632 327107535 930144607 784005929 977510936 855941765 816830607 644939825 526060002 358934182 454378272 400873939 498740375 22616790 857327499 802682992 373862098 809041029 649464319 270567569 901402226 733839243 292034360 429087250 761715921 721675369 670226624 582194076 161772267 854469958 291296466 157165985 106727249 329827491 170370112 987568097 447011305 297543696 205909656 116332250 847902680 685528455 772048063 121023028 349586439 280022390 399886706 978241827 183346575 166635674 817488092 175983204 513094892 224706591 166126099 129763882 215931922 258756354 535970871 942815548 435727441 120251503 585130605 2077722 854464938 850186051 319598864 254817620 342215938 471890487 733091532 387290803 109244905 465494373 911551124 595024854 436605197 522345862 355345209 763509539 939044736 45472931 445305854 983598355 957149032 681411475 316923564 888194781 122437635 600374497 922734878 887756847 490855468 632549099 122686390 667839017 691165273 154980840 956387190 771538521 796288471 15327587 834932305 725171542 88155347 458177894 727268018 806438059 139167932 179475875 371908525 854308749 784925782 123622824 891691501 338989878 300476046 810070225 313688377 444708811 586368027 28741816 102541050 444762647 732512266 14064307 715547771 907269858 675898185 290463710 720867769 524951043 636040098 727991748 164846015 49719956 201180606 223395951 733342297 407191384 749849055 110352121 331199508 235847801 550842991 614454671 698261519 602855511 97855568 793322304 812088683 522502031 555755076 186997135 302567174 188035220 79996205 537106676 245184908 409553596 16725950 83348862 692464599 308709116 786348719 8055286 282885923 898871405 464909261 371295425 213649776 871102442 209733412 661833844 426174130 386737349 17946310 957137514 76052623 97415471 108916452 170038636 807598863 16787157 602761803 130430424 680434489 910559975 475853087 150925558 729103656 432439271 860842750 448966764 688364578 978697065 918586976 213810596 192104214 506276730 259976914 179484408 844825567 835965576 445330952 671696881 92130313 579589409 24030728 119930931 866432593 521581259 798528536 7747369 899774386 730806163 215920266 869283790 665450268 929769747 860093287 823496905 37490301 520014939 433515783 241228918 216036324 644337973 839758096 612116889 121223566 486255699 827234879 305068137 197383228 363423960 386528031 616403 262971806 540986890 981933558 750636349 916784120 824965951 561911534 804379970 135924667 305190298 701147348 224241264 979490985 648508180 628790842 601931056 962875986 850179016 607195069 363447169 420962610 561944306 384463509 938041387 345622829 444287959 473111959 588853741 302747664 748804351 787036651 896298500 125739959 878012051 668881682 498770474 478923210 97717032 997489592 761101154 664770674 42089272 959410944 79275895 743584102 513155546 359154706 67132762 398542586 354524759 320113855 259629609 586877487 65792659 368475844 829058988 621326581 836225193 567445706 368497942 81644002 88567010 292412714 236902979 574347197 848238378 805364389 843485382 652372729 470100008 934441058 826415390 134459620 503543265 37487372 826207956 634585448 57663658 347470589 781787488 130224387 797398265 469069377 225294628 593843611 284343666 203227021 131191619 214229813 81398822 47442122 306794083 292963368 766753025 182895936 950688587 844782719 589728574 770353559 617880024 688623308 782037171 624937252 58252755 153503657 225668287 3789140 336832474 259968959 813916618 712862794 848032386 427498876 316040959 480066284 147184110 231322795 791394123 91263877 436973823 671977575 247879933 42786170 532497462 855697041 881944529 813135050 446208672 549952741 777697609 500156505 501176180 679622567 544659176 681705212 180239176 894579650 629234088 718009753 557043902 943766684 470438625 604933297 524197775 103964161 326155800 394185028 586131401 664518002 562466363 348684307 462042770 192072727 200203549 145646685 545768110 952606699 153958340 370217910 645179601 368005712 662040395 377620049 819924593 524983788 352329667 358353801 200999598 489643228 493325147 894004301 531978453 423615989 604879910 211761039 984850058 877473561 438753279 691025701 207818657 693143283 775058658 65596019 2926444 570865444 908925099 563611257 534876393 824682272 904008113 459434677 15588850 305794330 477533236 558581147 130417623 151584192 529381805 502057006 548634955 553007326 925281784 480641528 293117732 383439281 333234043 885656481 621717357 783996126 417507484 614466796 470979722 525647454 7877980 354938497 241496070 138455647 48784040 869731605 964141150 282007126 593296695 447376018 464623950 951072104 655670801 914029889 67754238 947488539 237341784 843438474 913772221 506647484 984522668 124366003 396635624 395547631 503364873 990307301 168002024 584433017 748967363 221737727 303189280 955195570 843963279 381339290 969068923 772563814 894676158 450897139 40498717 531600150 309282513 78704736 604929528 428339295 375398765 709504650 313981158 180632250 657384872 951028692 30180174 118271969 480810902 591851174 205980563 740991387 174703315 243009899 892272426 833345749 986904960 599719160 397231124 890940197 340604932 466677930 434618149 430779623 693300707 29916297 136674926 324570465 35689958 985447874 625093694 695772558 137659545 20468668 979261375 126499562 377000114 717449132 953163112 382914784 531711607 472835058 815919270 696999822 433847864 120450376 186740769 705142064 912719829 668091208 174174268 208655124 372465497 759116547 776513728 453551142 542899209 181491571 284239404 504415025 425264321 287823961 713413627 439598342 778067833 80394159 892540757 626899597 285721919 541346464 1826090 365125112 93398963 321015463 428872759 227167110 644563169 218730939 369647865 669992128 656975086 86223982 943591617 40947793 940421149 487472229 402730747 627666056 78565005 939272043 612284025 260447685 247013527 896648986 598226257 784176601 57178897 994713517 807538697 344816543 127481442 310149915 988414201 712566267 494821350 134258071 672982458 844527508 700724778 104841079 114388137 284539773 191815835 335745989 82330586 347834758 936219077 380135518 41838493 142767430 831500263 476299537 959101616 427985757 477539778 757534795 505377663 247922537 896958868 474809742 310103959 796263984 879028070 52343992 522292856 967813925 857333875 604539211 667476013 126842856 978125146 260247594 93809422 409178085 962105665 125883192 615237521 699495815 275617962 391159102 336392163 198368594 41033606 353438076 738012599 20118980 890874336 607598451 581041060 259551562 961558733 472209052 422818870 109008003 87935209 705205853 796013465 574038731 314193866 77334572 545393789 609431464 555353563 582666861 868619043 985322851 934773998 955860463 71634951 117797545 987719198 610894324 993054331 946297974 822397583 939779328 613579714 6466227 910642475 449931891 673085321 620337683 663733328 26240519 542182103 468268130 758116494 356066370 643472613 37852643 814531311 225007603 263318439 390953328 742843228 892618725 934308058 521697153 354190738 76991377 753271161 883965181 210440052 840383356 654693813 297678321 229040191 720651960 757354210 537328268 648677619 489097494 434339023 7548757 544882928 795839819 470755063 130860169 512760894 369813276 331147152 861572713 298998869 801589344 836854393 811681278 532436384 750008659 74647757 336203590 626568209 86653345 775876694 30645758 913512434 610773067 257902371 36748343 386948053 305359760 507085260 39424055 776708644 20058947 752430563 798956095 470000420 981841493 69838214 451186161 695457051 352997993 63743558 608711436 6824626 183991742 247937855 623314156 782970385 550703227 392353493 722135239 695082175 757449305 826446671 858381791 106685020 822582674 604329207 57861660 327958460 190177294 240860731 716324664 838866974 317574873 342303506 594368232 809992934 564097045 774889076 943841212 163298348 867654596 448749459 269037580 682559461 629497054 275421100 641977881 617328778 705761462 433958847 338249125 354633934 95997260 472161428 941412936 554434709 330360962 236603884 17205077 253579248 581856456 462471471 696525944 609909405 65683291 801999053 491984129 469083880 672592898 281078663 353358860 859885597 722716435 445973821 111103591 98717054 738490748 841957838 547238253 475711793 273426784 225937431 925125837 649729195 84806099 730007083 640178804 174628066 347541366 325028324 33446215 910888725 86335026 171388059 43382421 690459752 617015756 931748019 595246349 737674580 724371815 977457959 924345342 463386573 906722629 95261939 568721049 455125007 91556213 179853286 348517685 156025187 372538444 860920198 768170870 658337869 504378343 841528882 715902972 253777847 966372506 33506104 33464811 461782695 430917727 180671691 147017464 149108000 547231983 97226933 970997598 691488907 43714076 647916451 141175484 960440189 708818725 339035056 709319660 936327156 111728029 236767936 333713403 943903120 750090276 229886953 306464269 982660684 913234273 465358700 560343534 161407861 949147840 289965782 23602256 505916376 746714314 182287633 328412422 683075753 432260875 459342893 562585567 10328765 352208345 387418490 48226048 736411433 95935850 233402981 240205601 861785724 324269356 835120367 768965868 130285520 755328082 458081733 845144860 389850678 778441786 541263068 792635651 758389036 746527902 938368771 621809405 674920444 751166947 900832160 732810570 827389510 263662875 692162790 362379234 326053080 515179393 763690861 409390566 214855597 420841368 745128607 376692204 52732931 412899362 189674171 939116714 711219614 54090249 219499086 769859382 912654315 397265401 150883110 55169856 660331834 463595506 766711806 436117403 837960927 78934910 925238741 147241680 517295726 448796282 317010696 568144037 895873651 233589964 792846062 218482964 847664587 106458753 529498893 112121258 398122495 401673283 249790073 810988765 986501817 332431890 498554878 629662458 193682149 380269060 967767627 983008805 705153643 350996787 798800299 542584365 701335658 171348452 423318147 496027000 611768394 408135297 328750685 293742757 821420966 798873256 637159716 786153625 172414323 15240649 285349838 114899629 839229027 451478581 100961547 101572828 409276025 3238158 494882460 791767196 764406474 821838972 601333783 928530518 38389903 423708765 369833747 320703359 705943836 635407859 596659288 780471751 153193107 561580523 413286101 165696521 99945991 535216585 937776592 534242065 808967744 155436618 759519925 386735276 172987611 15633193 556758050 851396769 222396366 631413135 235235751 429738422 799865994 63046943 579466839 529329972 717508113 266127729 347226446 187845979 790897827 802820374 312399621 79134894 195676178 202220493 307577403 643559763 756452012 564572128 685428214 557993861 884009994 669621905 827277315 902593269 445915945 412330956 201992323 232608918 258911799 900652033 346107345 245220019 837684086 638804339 783809172 315997847 750165195 760624768 704983395 143391606 844886301 245053402 925286117 436061873 635465059 540203608 515381596 343092825 678802386 439572075 832980590 696174491 172765786 660014074 9134562 523368732 958378632 92504047 641172482 102148470 471970052 333093699 606385574 857504511 207841599 321661201 448249422 326920804 391712575 150849498 802653075 653201506 361606535 40465669 422009291 318241102 991637700 146511670 299246120 134723363 388388931 382210403 186228680 214333067 826831036 723754167 907443830 195710911 485508049 276740647 969346734 466748299 716648895 126677663 382993185 407208233 537548730 886387006 786867882 37258108 435158026 499553487 445681088 47977849 22973659 524304478 965049853 296504175 563110785 392144490 219105958 709625738 694576230 490614261 365358453 687941717 215427115 128076258 572391652 215719315 698476162 52274520 378535709 598265931 254509662 191198617 571665144 989877587 159705365 797484233 314080652 930601062 507791237 680726621 112127098 304487252 34269438 241660350 48519564 995425119 482017610 279956114 548648079 971996890 923551339 526822390 769173753 327239133 89764095 506551461 666169786 125917155 858378569 705414203 778856499 932556725 331644279 160812235 18007515 293372446 93423612 881961325 672481898 849740049 622856271 111316617 559535816 499613898 613688125 65392876 657644649 197647850 978718288 965246031 57983161 927457222 207579994 17656022 684509941 720790107 181839527 404125626 64030963 701785451 95807906 665872239 258507118 922189148 834519111 91026394 90468977 246597354 513452911 692128679 266117499 384775386 573815823 318102253 785400469 767750870 845463692 196665673 539813375 747331161 162063082 268286626 457126792 358791499 863251442 491929638 71976770 872158585 175559992 569916511 624081090 864479090 743245814 164291057 942037328 391318667 966550425 269999399 549918482 941213815 980487557 854398130 95460947 362843448 17712821 233056060 528235685 64213372 12708821 576280460 447984722 196354691 43883611 890319227 241528855 701594896 867202392 530608779 208545266 278010675 413203496 578400892 590979214 353095483 326169412 926796452 900832088 746268035 865291722 68059434 236026496 981836221 863896418 311946808 259703784 124327043 689232089 867988428 601153041 691446797 918103500 31121052 925866665 465161088 760989603 349980605 949505215 235079155 981105494 161027045 152361423 261199562 707975510 644947736 217968089 168991369 728077980 741632042 32909859 704745875 780356399 469145299 279335514 847204001 511524179 81079895 862073209 223362872 795212504 234363686 74753465 299809913 876898456 321473355 842730941 748854606 534626414 425525371 758701769 529187307 388039942 106094076 239758931 431056879 67810480 79979538 180995501 820377253 154043266 930945544 416229273 729576232 686885125 30038994 165527218 60777183 7577952 425148724 405227211 856076567 237830286 449036921 261134150 470413989 685511505 830930555 159205643 3540332 435608877 212075798 691694591 537499457 781473932 789403166 299978727 727633767 583475004 711375609 210053093 95801262 397497231 40561114 144330558 571726386 41610796 57804699 338506419 772553043 335067244 253480751 669449397 10663785 287177825 677033282 42859667 747984819 14208461 977838840 336811119 745465858 57695732 971178764 450159690 636327861 758483652 353779663 544637079 872131507 325406184 771579585 215478028 985559267 140421759 707056866 570497519 629689476 58609616 574454640 487259792 747177947 193127973 565799026 351293640 689668537 380898387 660280811 975325255 125473600 411469365 518219703 835618622 339165409 196113445 592752264 727853521 649842206 217037974 906016404 837312155 522637141 297983374 226080900 725765761 412587286 462431048 927501764 193269794 741070413 136248199 759316052 778152248 585129404 567759893 932008606 243151111 267914236 665605885 515454516 204392730 344090762 603693145 635661332 613811307 634864570 293022278 786339672 102654932 984379205 826975725 821658298 585471618 983382165 119870060 19257758 391564980 821418773 233094850 682321027 154671315 710784213 320523590 982059075 216707933 427484134 266540432 370519275 797946224 582072907 199815835 307810421 453671858 886854006 986912218 885677210 807739346 285895169 748370622 980334753 473694495 980889902 42277446 984375662 848735711 132816358 745391844 958458098 815798907 770451942 320464013 633367124 265431480 167982479 290646923 884268645 209163885 252444626 44400456 354391020 268544657 231732567 472500159 735286182 757519685 416612845 405269031 732775977 980435247 348997049 622802382 704045404 545893704 101564239 165490998 147249672 701230856 459207599 654286199 55149977 824210917 349808863 631352987 578271389 424827299 416694539 239883743 482648319 751889963 567393375 301272263 472710945 130239158 929046111 201628281 373606155 880242504 866067793 625225650 951988500 234389180 518035421 555988670 923120638 523762624 520002863 834081254 97690981 376530949 267252369 302950453 828687530 14933079 509682428 543595518 682216891 249005171 750055648 430660542 419719869 440501493 69456854 791784880 355764325 787474910 296899937 113336817 405245894 408371979 985535217 737550186 761169596 102241524 771934711 851462409 756727307 812728027 76792679 301274111 227762512 623809495 499123226 755044977 636451010 869339077 945561632 134767421 218139936 711017010 677623158 192550967 810433385 655561866 937973578 414220441 669250625 361755838 440277481 63734814 704808895 200665905 180746082 273588514 223381143 160295700 578661080 678407768 234024582 833023611 884116493 930057279 54397999 223247647 820459771 50492041 315573531 828547012 236626704 939378612 95139428 330070880 708558655 980164149 785588121 468328228 878053094 539422407 377911171 42694578 19975345 147052143 156999424 733235298 815840594 672484266 574069644 86073117 893782512 298442357 128945529 741547798 637404979 901520799 868066367 215246918 108685009 25727533 571806393 415488147 310704830 422759003 5128292 84282804 142674712 53922146 248158137 616597239 242053439 622663468 57133838 443583212 959583077 420188946 449102410 120114807 437709524 62665630 504546369 186142805 839787138 818382070 638905880 33530234 863171077 848692722 157044961 902780986 629425778 566629424 630026268 492208152 355653008 356264778 948295044 4133055 577107586 756648508 253062134 24370471 227186320 329003838 281673836 942803131 921946259 113180827 484601701 218384320 74358413 617598140 287702903 891261913 121018854 895964583 579431954 57163806 368728225 347025825 546107641 461044554 895272519 183494025 275921583 274649067 834106039 197707766 40844853 612313619 660921978 801884711 943772738 791206011 338893213 769974643 51522091 606210568 552505823 432067615 453238508 39192455 233576478 508610072 234777737 485329246 131875888 296047356 290567818 379003727 817429906 574112563 479062394 417584844 211081342 913351088 332367720 700650268 7981372 956307293 877546767 753520399 382099691 623465010 122085016 59585142 977040297 556057407 359626367 137089259 206799568 677460851 346610404 305081875 847148791 909154241 727492224 727841393 583890023 841815437 680073123 441740718 316037734 703842085 505164506 308097145 954544085 987338093 483432717 706690757 355176077 786568603 78451631 712735877 606868498 489510145 720690807 78185861 76857019 532069399 422927621 540255477 391343076 977084408 131838699 743557133 691309326 182117611 929439634 919625858 471382583 866964864 823633187 175478243 219203401 234510542 560648628 341008921 771710869 506284057 241337601 779017822 345956679 470084688 256494420 722656889 906710981 314347688 501713324 262013769 606640160 607718667 406687446 679089568 344130044 722168671 179732185 133704463 180056617 550808792 868578232 478586682 431821424 584432746 509506273 977410388 570330163 583439405 665668420 659569055 806188934 655333928 325248571 599581792 506495629 380770912 434854498 741082411 183798974 168352149 626856542 129132790 714582011 441100155 880222889 226168853 813305202 284844377 602583330 606622281 655583538 837144441 227091859 411716853 80197156 430327630 312650532 945769023 852530368 291187338 347637884 102175661 72650090 99187044 974596725 271127386 722823112 353416360 325686242 576377014 706177874 137222968 824944986 546987442 841818316 44334045 401520285 920023239 647154058 173495960 887297277 727150100 578297918 778950429 442456848 763101072 883912122 641886733 899481226 154381 406050726 368570047 828192080 571604530 385590921 180987331 956475544 132657437 688941466 671874845 285527354 223276406 744655729 16346188 66254893 149268014 74924581 753362906 400391843 747625919 733961200 169036203 363648806 913733000 539399979 685370265 709896619 187935538 893248827 241922483 884521281 778011193 468286557 335136530 823833831 743297687 813976609 317657891 606692134 45321885 466844878 850748186 78640856 692637487 286663477 138472470 392138190 259119453 684041931 249142801 407783646 129548183 940362900 271537827 194521459 851720143 743831031 492410690 230043997 209786409 253014997 86253100 507764411 136679643 348192761 282526687 77885616 985347205 336575194 511513177 767120681 32924840 584569804 732771694 49982603 223397475 721480798 409652541 596717988 309294696 783866122 968896138 598765480 533354278 318780446 235887691 574999582 468345765 158899229 866964368 502253020 631913273 486890157 452608511 812871524 259438141 894026603 604360910 505029532 644596114 652918885 23838872 125798374 781042477 960849026 598688132 207732229 943346145 549689056 943170073 454275396 604894352 880825246 969520157 807638718 315809195 491997117 26337772 159107107 476445037 324246647 498118389 585019068 218232695 545997081 379838795 874211713 855118735 109376618 635109612 940128478 196474216 892421933 927939513 291385186 255134116 258860625 106976629 501346715 86033824 156218520 617682577 502006635 718508475 696151288 233884034 84933958 124631052 630844402 455330548 336295516 319834385 180798632 685618823 881497124 124286399 438156797 213554721 226828981 599568604 743524925 922956753 499120241 814782187 695023011 720852436 383367128 205573531 339806189 874069224 239108116 690249569 603547381 279987544 613473709 815558922 629935586 606399952 656650143 36161778 61041375 296210052 591017424 571061434 789847716 181036131 919325116 464254609 526448506 872585572 371370160 133768345 122151978 741546827 486642592 40224884 188786434 649649632 172625720 511471755 377846099 358380750 157989729 635980172 661753008 35982053 610315020 996267835 223517616 596171321 872989690 947777040 604310119 889836469 871531026 56142843 543989143 496003907 223758745 208750937 629532534 608746086 136159610 958076162 162902516 475899 111996708 403554625 233931440 64263855 895902945 908992146 479811452 945329730 809563062 941031825 296292413 229424231 565895178 479118152 182666635 126178716 800569984 834073652 320807759 755915615 506088381 484163103 347724355 908998803 71998839 326472645 27047704 32002876 333415426 108629424 477575516 931914414 601806019 223914991 385705647 60488892 400668889 611214727 834906445 617424298 810560228 708602707 98978587 97280729 136199771 311128995 243932943 249425217 839309582 483589165 307365137 63429231 746737171 808527708 999310548 869504948 687654068 5564839 531788681 34890298 647594652 183719346 121468176 153484291 618529274 376954234 726850803 20450852 343471402 752248875 182638854 319810457 370955315 871635369 499747552 840552667 112476607 968840976 42324108 325212023 209503903 36648898 635617268 831546139 917711916 869912098 731536958 378045748 256234528 804264527 85465009 140689519 844527986 45703001 511828347 735905520 781574628 455871335 784963403 135332990 216100492 332109510 968142233 5323994 437012845 510044036 82777214 886738203 436141187 298987545 312196984 489541974 38195016 274081924 65692216 158723329 418011346 258201732 657050125 596919988 436447762 86119196 44536044 865202358 850148850 896451372 329006477 636950167 268913503 270771516 785539178 75824394 178584555 90122387 821295150 763096178 627875406 315238245 197549302 274092931 672292357 924604650 298521931 753590149 392312251 236159864 332522818 810395806 181795641 172481810 998920669 285488749 444843455 66807880 279372220 259600563 666887160 48829171 347324835 904726250 58513185 619687614 390687004 293201851 76765471 216524055 116328985 731087283 64609385 340949926 786344735 899017228 52672250 697726555 966998669 63366150 209337532 902484552 121852311 508376201 96350075 43589052 572468321 566988846 525589876 114274027 892674671 390051186 328770678 832035298 105420176 329511430 222692359 543258875 777530707 726260500 210920873 323353004 342032567 752252746 422667531 921564041 822168492 530177343 909482946 973846627 264240432 371306054 776607251 261601620 598016090 924274974 149350222 552515084 135649973 646221321 761470749 820641310 15520727 869214023 401676105 885493314 51080096 45741197 361996530 315620803 961246499 230893395 392212236 728988327 561444305 890982743 738140001 411671486 494210385 271984503 180836511 957697605 646864894 238914996 905569991 284497911 813680814 143627760 44251744 806903906 771920126 931634089 61805968 230296787 283462531 831594924 973697350 311237920 973765104 905919935 1137246 5878466 412352668 423260922 699396736 230720830 340871398 855979014 733954116 938958478 742567777 964152458 837488427 61255094 833763350 823829125 361873802 630962015 677363148 469948236 720001231 870031481 922194381 126721696 307081854 630498947 817246722 471063239 851623683 354567191 21839829 470266367 703275822 337260462 192949223 609963657 657737898 897382149 615733661 7316177 666465617 352208674 644662353 121545704 647703780 429631135 802579706 287979651 518519166 866413487 390259788 427893956 619753630 955235107 932577378 66874241 99714478 221963772 914256971 401503218 636628733 588556635 550863946 16336600 754183554 990991417 585463449 947403095 515480116 740526104 801582152 270614319 187679270 426337440 668015159 697640763 492923871 821030963 407737377 727291643 98224210 199935472 849925995 580987920 503644205 242533293 464376745 747942203 414671355 756562638 673559132 954930768 975928250 315605276 888836102 85258885 252524038 408154012 434288016 977535658 137257503 436416722 264829308 446105096 15475493 385093834 653283285 146785921 628557828 596558724 358682496 561269136 654431939 591376616 28211017 746700001 386274146 525237249 495800683 669411204 241793477 291286110 680895581 900388888 601760359 333566522 28619465 947951073 770930732 598946272 924292658 134416388 665185165 573010310 408825742 483009274 625708788 78254636 751197379 235704038 94584152 42164679 218080966 678072096 175434084 490860817 404101734 334077180 108619475 971030348 497240376 802204206 373458380 105909838 410282582 485180761 287633632 998336323 13748923 952208146 967267044 559140894 93322012 185887814 390517105 834801706 479417784 292343020 710950195 280903366 575528770 814387491 488606262 586115998 708657682 867184500 301295546 607536705 58397835 379477181 803578605 739648429 146958361 424067356 670643212 847644045 391723692 260068008 351800567 967891443 40906830 349037163 692010599 357909315 412159906 524099513 577139690 919195883 926345078 973810445 229721129 735470211 120143303 906092110 831615341 361321861 383235381 385865962 715695393 446917491 633280050 133673360 700374662 632488259 566915726 478845995 602899877 280588034 798039238 569993184 320291954 719728653 698834160 995286321 992698533 915956598 13064022 837553432 343497361 631073792 778828468 804948532 518919429 206224557 452725412 912675049 545273450 495830498 931944025 835389896 864836363 648725249 162817761 3131398 440460768 260266619 962272599 783652697 862145604 787803937 959196307 119864430 452626005 145105130 239489162 195803491 300253803 91196281 433246779 12716821 445406265 938868176 834204105 614105802 229341371 719439717 923042189 701637560 140014118 7362450 853252553 536792080 916377157 652404843 482298285 967618103 457637414 278002876 479985434 420624352 786758313 241771414 726545602 975248335 904464324 601887570 465000371 321457207 893104862 313437236 278928174 166039595 437018325 121239623 734664677 460140687 63746885 325569639 533464303 123889324 949317712 968733634 598885812 240755622 66358767 697574147 162819386 238813336 124860417 966869432 545775311 532913691 90649908 739981001 976209239 328055638 303759760 375488811 833532321 702894882 76882750 689770654 766643406 649638567 83464962 328799101 164386719 755230587 168823049 861627561 86233675 624820055 286083039 527994652 397342818 911090935 212713201 282490193 773520708 739420931 964126206 460628055 887760151 609311435 645357581 260375604 65201877 390341739 244798024 955288676 650396567 921413797 515378202 984928129 923650275 97743352 526155166 755305649 291116713 971611259 316781821 107785435 333363522 425631105 484618205 982405310 233727744 85182593 166031068 670641072 431285148 536940680 230466636 408080893 949498959 761591835 157146420 898345805 167476009 920002744 225039045 129774337 459247189 384855213 107987795 593010306 948299406 774418287 157768283 172554885 940962549 924020047 974800609 710267590 542627095 328144676 505889095 406404049 569256789 73059160 243411991 963688602 223397685 180474206 836859226 64640754 607853839 894656365 41180734 309501176 295082391 482792780 558421821 203099745 294416125 478711576 10958453 7522369 842778727 964946660 442521597 433334035 155093528 81837945 109275045 760906803 147999125 248589001 656107225 375421085 671621786 614767458 122003205 424646020 130221484 161233607 217306393 353966263 554205663 381021509 777160896 12771465 889382281 466148338 92516125 862680305 400491719 237536189 399393811 98964210 121978201 177451462 970232184 271254051 193689384 698181371 64071008 65807639 100669599 904588140 245331458 948735182 106976812 473598414 668481869 35151675 71485430 714267337 426290695 509819623 110786678 678703228 387038487 269214817 834578007 17155602 364548342 959653013 452717610 825583731 295826763 334659671 722771652 756337635 38082684 640543319 640518308 503269153 205712960 575580756 320730183 731229668 501939503 308659175 453484364 140476985 563153206 587529663 688221719 272391709 52752568 787288347 996476371 865420689 514614255 478370897 226707719 56392821 414098164 36555347 551289599 559606633 501337784 499168509 238723984 930474183 195026972 617914789 15120649 427415002 936677873 739688299 488025312 568833684 243634521 365429130 907741061 458143786 919704881 407852765 936298413 272349933 599142928 952250182 395286827 604592266 716392614 50469758 663249870 698097847 721040300 729421688 664016125 211014762 815245789 235244500 894259869 251226747 833488380 787580520 95419567 125895997 338594547 863045663 271749534 263835013 673126809 822263109 296093262 388979116 238690211 661629259 902101358 180558096 952183419 446604287 118723168 855750907 964560882 329760599 766015526 490309212 124027522 915299085 958076174 885213916 517025371 480779633 761570922 801612062 725646986 792635466 919477701 417274079 37841341 703580295 386178496 808722631 521972359 717538494 517579101 752122326 347363957 453395225 245756752 293317233 352101861 834747961 810490326 669445372 400275208 150570244 889697371 8897428 24650025 529756263 134900464 633450982 515696857 616407152 12967115 68358202 305825802 64593459 350339095 995345324 252888474 616696963 248461356 264249326 920489255 481964439 393535065 74314819 338225548 407571621 362346377 666007591 171665240 10482221 119643479 187759793 694683425 650194571 796015891 962464784 5777278 5965530 780443935 971427754 42230093 531296369 337063838 730325949 892365695 670985878 783866087 782424219 7841804 525568520 118607499 236941813 39484000 547509647 318919972 299084419 932430824 649374798 18874793 172404928 402588777 306582038 167988031 599944642 223384940 31546162 526532274 175477969 10714194 606549791 610057360 520403605 588627916 492410022 103561958 880984388 774759621 108802966 370273011 359336602 599001000 80287681 450735889 382966716 970519125 207243291 24905722 256040261 67732420 722521810 917084731 831040190 250941263 879413648 233508107 351828377 362842093 457731749 174196603 416706114 635409592 238982635 458660061 550751937 438801306 549830717 942969656 74981248 333827744 111302891 771499798 940216170 539831684 929352384 399274640 36760265 651010976 39692754 128692383 265064569 109086233 74550654 922140470 341711908 267551578 494035495 114885954 40058649 263251532 974841221 319687082 754498847 814756749 261418506 38765365 226024455 677322771 263140530 13196190 366851142 355543559 181500434 486706307 738527187 589591740 560190304 129793596 984839473 993343669 164758468 846554759 358892774 45389605 842784592 585356354 165989185 520481545 522356964 663223709 267123497 235423141 173818685 618318219 321829856 551261172 113462785 719351818 810424466 839983673 374591361 635824223 464640655 831775972 966510986 210286908 542364822 517496900 833758564 160040639 804847992 629768854 640604980 499034727 679047609 592590877 594748833 442343505 444750570 206818597 703787489 742659253 781422357 253554185 475490324 890583894 511968675 914421854 549636159 903232769 431674177 556083614 318256225 759483313 576215794 43451012 429388744 948642300 502631490 806250999 301230548 322986842 497074941 410720879 919235905 353424131 204399884 817095803 751237983 141490026 598578716 31622150 313261296 469418193 799693727 103687898 935792642 347264968 402036742 919124896 661399377 842036746 485049912 956246570 224066940 626276760 732640637 179946438 641328405 15606799 677109483 276909809 251273548 292169859 905980676 768301791 506472017 47141068 76428786 679181360 758242882 187620757 384541541 407878742 147533285 581814681 885179054 840380171 44205641 406702260 989663588 443938132 304549402 102529277 875165846 702186150 772887937 144370869 519631475 26197406 849949023 576410035 452951522 289670024 242404536 602532759 455804351 311719391 299851608 112227457 90110479 575739232 840017332 633151588 670647617 418208816 25548125 174628580 85055554 702419230 955234229 510014249 508619382 692004021 340020210 423110232 770194206 476942449 700076571 452424946 122094290 60423805 472933211 259187287 603344692 276461582 904598106 988759843 895707424 334062412 478524032 325708750 303206395 69718670 652567390 685948276 604410765 738944952 60341172 237414132 21553651 462546851 428770710 570292543 923193997 763669006 324995330 856559240 272906163 859758012 793323614 802203154 90302159 258006214 271528198 176757245 955218028 474925966 252895961 595670691 803027794 89184414 591152051 373200553 617613580 924394181 139945927 670426897 633239196 402627569 917504777 228660495 791084475 413933300 132308317 28962105 829892593 157053660 572583921 474114663 783758955 721922262 570677435 545185181 992845932 581209722 537580845 100605442 673378234 414331003 814597992 730292369 733186831 216385526 16131219 550329232 345833569 118574620 104739587 264887571 413965914 465493391 813385847 772603492 64099851 95427885 357025703 761905386 559582870 789623237 354495066 184553554 975254358 898958221 754905506 144648872 520475429 158802171 703188362 851485713 516817235 240666103 307625543 244434112 912479102 315789518 945913369 567551469 798915298 126901596 197986464 436974331 816956764 843414247 893698809 580254447 306818271 240231300 918239211 601508068 217428584 418389443 14163517 79086006 62296413 593652442 770257978 487431609 955155461 917385741 941018661 829481925 250302301 316011673 535045908 255019957 317395562 671235839 439827939 318557814 516715946 661249307 886185928 405896610 518304878 175059469 902415272 720341719 983401995 419894092 583474052 552687066 568264804 900198589 8981758 779321560 622232929 861008244 977509593 517827678 370482780 684328815 495451233 426635102 864675625 320769311 839204021 462578514 371611139 379694462 41628585 990759107 333177896 972256601 956257878 177138955 325929457 600808853 901140743 412616557 908404652 882498205 150371759 591049023 152706455 134640994 709183609 328102072 184270154 548687684 44709781 401497280 560574922 718397345 227771223 634162824 868516712 121552519 641255152 484906284 659095881 38618081 166616524 144571785 124319863 460217319 6436096 228385239 973910691 269600227 516582403 966543056 884056790 309335329 447880153 141911922 242517212 57565028 832677671 316035342 269667732 530115598 518835202 333774358 336930999 620816418 23436790 827947994 382414550 59473760 876285152 511091066 228934554 584863851 962324934 781809055 149699612 389043398 935804379 595945283 207530775 612237781 49749967 532056597 302975304 42909505 353933701 439567396 597150599 755193719 95643100 178940705 146304502 451576886 511157113 981281792 581258464 208921565 638806034 326600461 510949710 465525689 114014677 136253713 881303062 586833910 929267057 962744607 412737450 102701621 5141713 747329912 691695846 475319624 214823198 735807805 689171899 104986110 721157196 122895989 317377236 465379203 583380789 596798133 159559611 139823154 383346609 731375437 117701900 556205790 482908747 904061295 748471667 550739119 844660530 531611075 987924910 379246080 263484060 730539653 885449302 332289652 510840193 73649386 537999430 349907175 917132702 763152771 557500705 418515610 303800695 834772254 665241735 545439612 100469594 179637929 46184244 541361125 451885098 191021909 977540778 299032425 803518411 173423325 492294060 680041719 332889705 1247122 937072777 330841705 781105936 870190187 713126444 980957048 29848123 179065720 854248128 246446107 877048748 482052372 121703042 949479035 765936974 184261630 328420540 88075167 128699460 415382399 573440383 404416033 986375849 935340236 580810149 141000558 800240349 649480517 614981018 576061969 282517900 640350935 659096809 174509698 480313532 464392347 433939553 441184536 568451535 500144977 979988438 692546226 38806076 192074294 742757355 489312222 564178588 53808883 413243379 208393438 98510263 338853563 497047071 350202845 899938825 92754689 466914000 49385665 845525791 249619362 723763111 133909807 104663064 408368303 958723698 199646234 628039347 856884580 766146575 915965038 97344141 621644208 781109209 91590807 58716428 690583382 102863168 42291734 891467761 44356397 787672525 687862363 891222334 660559664 679868927 918722675 319897877 924576592 608247235 342321511 803666974 121369460 828085619 745841227 481919542 501862102 677120793 566664359 176601004 611618430 273574659 910962684 954586348 306618186 284741651 781532649 37836060 893793044 875561032 122876641 23793110 48739791 842960089 451007000 622068326 125877616 613643367 498323122 229883661 415411152 873941377 962017243 499281258 359665132 482022074 422039708 950455959 28672594 708747378 275734161 862167161 825948504 56943077 58027729 678085950 766465663 213864147 705814905 178200274 740569137 694980856 690761792 698259107 665241528 76651909 820575956 417326390 966136702 210923579 188080911 116535375 276012666 300119679 332443977 932679536 79618627 271037529 943098141 857579860 21476705 952038206 329986955 668236854 647285062 827447115 301733667 227118898 346513860 998700420 501027391 670707217 862660245 705326768 106199081 208062842 583109006 811609248 91271904 309195780 903928028 855491096 607711205 963311312 536650112 593966346 326184161 384250465 457027787 808562568 32850248 254312339 577160701 799982432 582354540 886471533 588995454 361142221 585756233 773892841 114897750 406870077 284029205 844454154 986815828 452590375 914008292 549277891 820934346 74690075 280592957 16949367 824202099 712525040 659311554 672685307 746511681 197699104 154107084 186889195 121348294 137672675 893712597 164317700 325924737 417003921 275230257 258233445 742688687 102760497 343517166 856169721 46559409 600113897 774594601 626054101 896227998 210396092 150798957 429628499 903335707 909391914 896557372 503464534 4919950 494652485 33887066 730893392 377558903 844302695 256351563 568413979 215126546 210643138 411109419 94235624 354368594 704756377 250456808 297244928 887371473 379624301 374478313 976792788 497134167 758547679 158888587 471523724 967900029 388367671 715227599 852138440 355137484 87754728 109008380 788432563 259938544 941027684 77456898 789777698 276554996 210615497 664471466 479612586 437286629 814525728 134474608 572518624 939700811 140906287 351399359 949275300 150054823 210399772 328614084 373191447 506131675 411130721 466110073 508262237 745334108 205458926 933109495 125626228 77408681 726766821 896460926 309833928 901768193 6131471 685553441 153851098 638400352 763132839 674471839 905458188 300483617 814546543 791177335 776809795 353889721 776438404 881966121 854908019 537241711 536391408 556693924 160753965 13622977 707851823 232607986 573582599 750759010 533790250 750919805 97211849 24321178 809247265 247840650 584167990 834890235 266440115 727970353 405720366 302005726 695171675 955270812 560360005 305823947 796912151 615764738 744480847 346084944 662661481 306426381 555884483 937205280 59891498 915147699 45005476 689793847 453957388 880859129 490191113 585954876 945518331 784217242 951131973 315279230 968583261 929383396 684851088 282772381 559636753 408573450 142902616 952000094 480095756 295199412 5166146 677993480 521601561 324544633 488536934 411660900 442558289 670570321 79381531 592824719 946091442 267161898 700680569 292946809 757186570 699256828 699751289 251943879 947756078 594172842 244479585 925501672 163930908 64063543 612010069 328458670 650379840 200947476 312877542 996136006 359636031 908198836 831305814 163181228 889853203 631611234 151613601 331522157 999306366 216452969 4520088 834035540 954905164 904517367 387554795 830598029 711468927 293679261 166335008 709612293 590187622 171034784 266210508 383537466 136142513 511794639 682595925 431733351 75574364 770676164 665362245 197886573 794331659 824181643 480475085 842278243 90962005 728044782 359738439 972715797 317369871 843144934 345605441 348483141 154765976 826279813 516266201 433966082 965394134 88259846 447926433 663177253 159599643 374097677 724267062 524972157 541497641 530586165 21354627 109404061 412129992 874450290 296644590 89078701 705995945 415775293 51916182 372363440 140504795 903935074 156184617 134744774 971429727 441251849 120025491 626722040 894582599 262833756 799800078 4221913 132485323 466695564 874529342 700585155 323089184 652929945 276571813 407664770 102565807 128220688 43179607 324547569 166835879 144683092 482913793 820120305 180615660 64531891 64498323 261336557 604441215 189221743 420064072 874428717 863611044 669100657 721989002 283719857 941877614 873340552 112863692 869291872 231976830 778982465 274724312 276532702 592016737 314403797 987894509 438547274 860665023 969912056 875873907 667906710 637799045 311002760 248783817 311313126 732891662 953494537 771507839 774591670 496003454 894796714 841707414 262277247 790686762 888337194 982779943 107764501 307265484 990842062 545001323 650399403 273141709 150136912 190102348 702818906 393179063 890075957 262226233 928230559 293411540 722834445 589449965 956817619 925983228 398155497 190505054 114084156 534406090 676712355 743116720 520612418 378098267 505506554 515429258 175425253 667660329 924961457 365525055 409646172 560239691 822489682 902021748 938741219 568610315 612893291 327269114 958212856 707663074 374210394 402606220 583803614 220570063 570388962 536310182 478752042 193742045 354963195 635979332 741418312 795335263 408361018 451808654 259950665 590668329 55791693 372258998 608425165 15152597 836774170 931162893 35181835 141167864 399512129 946267547 211993877 877301701 425299899 38391396 621246033 661114107 25915329 109297157 906271591 729402144 134651706 700306510 741278948 167859545 988455874 181593411 329640071 194931547 435711055 995996994 136667367 276307695 28023883 499538363 826578388 146302036 344612165 209936647 669262246 575817054 994166518 903579932 384542980 119643046 410120093 484542827 507828323 59217723 321451167 972891795 228963085 509625615 685774787 262921227 926264488 542616904 274089608 181566833 617879253 86161087 874789573 107840846 542551264 115748688 120168801 736017154 454781347 308557881 854735946 232403139 774752083 48587216 473253777 777731792 597289476 478621792 279728851 671301284 604027627 839912150 621867229 89912892 678898815 133838027 716575381 558222637 886980693 906233872 236182931 753127190 627248517 321721543 856205547 679495740 153721858 481444535 74107515 471105622 347382363 576005204 20622485 306617981 405069080 996633941 26615542 77647612 604359915 316470725 953050177 246401474 991575217 686712569 317159006 954591820 325317259 976205089 27176285 977891603 924470747 643298626 307194193 539131824 717153775 880828833 735322479 756535466 779438151 506710788 905191033 472164563 503684392 75721041 502187360 934137274 954991701 351400789 103391351 71517982 185524518 793857694 267625584 957855465 354591450 595932472 522952764 87826252 742510886 792485894 879191112 796734102 280261344 938726075 270861241 617898891 880952941 516291341 384806042 432684688 340888879 282881151 227310112 632505084 796276861 986057051 959102625 898299646 733259904 225546990 65148093 726976516 422152148 326437087 329875141 915550486 824706354 773580614 322549154 36679859 860858077 323125663 464797026 759559723 10854693 211831392 365337213 874913008 40979678 216330771 372433282 35674624 755979942 791580765 468534196 660560888 227248482 447121668 936248239 341392770 728936234 419293655 183121214 149269063 514566043 88953900 97525441 609066730 1338669 408035133 242487590 324542903 276193548 544024620 354900854 574052255 102137499 542727133 620446075 886005355 446732932 484267011 991550232 158437538 846433725 930514923 755329225 405703066 919698143 693891754 927990182 29474483 793428113 208604513 530546150 199951276 156451395 77802861 842175531 363770381 786322346 436107597 843293153 535510909 196091262 220847431 469053178 837959050 478858020 642339993 265396931 604908759 612394195 53733431 206026928 646990752 294939387 497709351 743529377 68877889 250060 968662610 803743490 907231586 109588895 610720208 974649097 455339083 508288367 598145219 461225128 868275797 291549575 617835046 297249098 28927078 337243109 194244362 541485842 489022610 677553694 363605537 467143301 89616336 100472537 530295078 660614873 767856464 786052143 109934910 971187888 123510874 878307333 25562904 775176244 73132990 792513900 677408067 671505446 468915152 600391494 51757086 546209336 840796602 362155931 244025301 679124868 533795 285566166 112255522 387083531 659345202 836582560 784767383 168935362 295833202 994230040 662228596 67712950 122351578 259013727 362111655 598867559 166629840 305083142 182344864 587018859 73930140 937534991 174247564 769205282 395230596 899049481 135028095 285671467 875468483 486044968 495499280 182796165 790801629 252461120 948289908 526309532 990056143 257635649 279186049 235596881 182190217 125097169 411512010 848058213 58088056 229249150 925507988 610403634 356286282 988864841 147304483 437070887 148465643 419380110 581246564 592757062 42700833 562330340 937784340 555411086 603044896 49933633 966111200 762348528 805481929 811442783 317517502 979801566 938201387 305167782 985777979 920973573 108894693 453864909 883274747 867417006 628562306 322801105 839511742 353123782 455790529 435287603 150808471 670149738 857360949 601486322 327873941 246231245 848714940 567426598 945736371 947723988 796286115 397589562 321475095 589009390 858990829 273144275 266921789 94169673 673503516 729308586 625188520 600605112 780134822 77735231 216363591 29825947 463643038 89432648 337944391 415557205 821389813 234251943 763341936 441835533 579782983 625731377 987103193 444708264 824241263 647389491 957126607 396341236 61861131 87099572 595061820 284433174 668943599 715607240 954126174 72287859 471443716 213339921 775840839 85212346 724393263 281346734 177596563 242172135 69385598 470037667 350109321 273422405 8472678 15259557 872886960 817039107 721848236 640272106 880338498 250864245 406634216 52120973 136353115 782520715 361059014 520346247 627658566 344988128 454237065 588098263 760727664 975967935 777611725 317618000 87309869 51881973 10499238 125712306 43340624 67179633 666176767 962073802 699061527 632763203 131972 415093050 788987520 520121355 378631862 114511783 334035939 800743537 895289460 472707817 747182255 489923259 45651433 729749338 694086104 483717754 186271275 992391804 56354851 3103151 525925577 280586414 353085954 483971983 528564114 656776342 642267891 11156992 542293519 966990538 680565946 810332467 653420736 605915690 953623024 732103307 508565610 533932086 241455138 47704139 57033962 313343726 247806105 235969359 256567819 613447885 24182856 251853053 357447853 838852782 981112302 399421989 686716933 382135386 871899956 300469079 52535468 613522381 250764123 321072896 526626151 437493350 360949223 330137425 919525372 372576754 920221233 855925553 189480776 466371405 751740213 418393295 396457417 483128942 348044174 35470915 319260570 75332694 477330406 949112451 268974345 984885099 603352169 133345044 579792777 917560618 403483224 432274395 168911905 152886484 961414427 651433297 48772336 532220747 872560715 320213387 437045303 775148172 355057751 740162338 145865535 639165862 543928233 616374632 317897833 982671324 590543560 903582101 689621806 951973629 724386153 704985519 849547967 347596400 836131863 280698440 494033290 471297050 174503198 237447228 536138747 844745245 537241429 672376611 587704749 686433511 961945823 120182515 901382554 118150588 688704010 394138335 515191830 184303719 410412516 270487840 300471679 153365800 621605753 640290160 719568788 426411699 330445379 300400911 28704278 592199382 682276504 419461321 869548178 132763940 353656570 782076796 562448319 335810113 79968328 994797438 803256631 340526960 53262974 45329633 165024961 329262419 175581253 214364340 18215891 867072692 424755820 788939527 371033573 819154771 967616407 908436850 727485370 321582041 422141196 737593974 897692180 88648454 489356703 494501925 924612387 994000708 360912623 22072282 121250494 403502896 912381347 441500754 645068361 269240818 15758867 29581400 240074762 78956154 711425405 216394390 304340020 379074775 646219331 851033214 653752555 563507590 634649249 853589130 310897037 532297771 569109290 836256703 883837089 831630655 700298017 575001751 907250323 122364533 742745071 109271624 865555539 620180534 599611962 707386603 783306727 789216315 617344908 829562964 920845233 7003294 354842358 222237485 736808437 554077829 474646169 858256346 812713509 653720611 830496420 862540293 190834085 585726865 472312942 757804809 863126545 264193982 972885308 639855970 938073682 996987175 85235936 60593060 201281720 460035149 974201468 107999240 201234254 721116846 476330902 806926331 810421560 478466248 662434506 233153051 735185734 228570829 327629904 203179242 809826577 597705912 203768396 465445355 41877235 208747455 216966262 730429230 1244002 161449860 232269329 844645351 524774879 873618582 867110163 897048414 4380372 609801114 280207829 202884021 746320711 25735545 467081419 189763460 168804993 90249929 441357170 564633044 777574283 72326572 681863447 877696574 563033416 263451980 239191248 212513989 191127277 141713849 574222417 890390836 785119150 470241112 504242779 128281650 816901875 825424412 919034453 565007366 662527741 183096616 575719546 975813916 289162471 779713449 101413581 163829016 167277688 171964078 455353422 461475593 52816662 905384717 205331525 344180251 664137332 50679554 148972777 205054666 587339927 289590147 69240227 808605758 211737952 632394941 898492040 113611203 735196195 225930261 280004798 220456771 141282226 790244986 86667345 178141088 943419347 798117398 614118598 798113665 935058777 837597805 117602683 805749468 318486991 794109603 976651850 315841324 252592618 190875766 921827302 660642875 61845867 889860386 906551545 895479958 856960219 654342519 311361094 62968045 219005157 691538330 745174606 426139076 539007590 55105689 222777976 440491631 104424220 308861797 511318719 183421746 749444146 185559113 153169941 865686673 786075127 470251526 619997843 490089808 768912471 790436519 37097115 434778618 388960263 957791904 103349592 109290942 139163371 190222899 353015513 646212314 696730142 132446116 918200300 153321323 63684721 347207325 406106598 352364030 635140089 919189804 393555054 457295360 201425064 652882203 901559863 251069270 99167296 752754282 677066563 452080074 765628650 206058440 520821204 296429187 332213711 81649764 725851094 532177034 349113842 320744097 892220865 974383020 138109848 76033377 906085645 673601893 546783276 393111194 369412139 106524986 515144768 450160033 994767604 777771644 438708839 996147067 247129331 629357671 393486367 290545460 178748579 975523483 138036883 541019812 457216704 660961058 438851528 149496056 165315623 971299499 488802231 403088935 105392018 485247831 675083640 651019666 564108268 531602790 976954099 253513229 828110335 668968237 143204484 935795800 344766620 596064180 671296114 763177633 811607293 42032344 698866438 217260797 733839211 988354813 61450703 445801457 578028379 85956624 670965401 309493281 234906554 54225921 16572059 206468001 899075426 328127457 282102480 889290812 747890947 226030455 419884142 609057269 910060989 217438516 29252823 161468186 653611745 710763847 274612646 938714272 463907446 83076731 611520233 722647973 449785330 349862508 76961564 277310588 204087261 593766110 906601303 530342472 285434955 575873814 393099115 423481287 712027452 380638711 493025076 486754893 254132357 279295658 341764786 774115742 554526124 912552326 181476776 466435558 239287948 494723702 494834407 144311698 184551276 868379559 311179805 389878864 580483766 954555768 987586384 573247712 69123816 78208617 439743313 377317221 588948856 348306190 902117537 609835430 821124306 268820042 67429225 861635639 505204131 490959791 92970485 377019167 89732922 956489572 297465364 794329454 23035445 728021278 771972186 482395031 232309087 370413980 876825059 161899441 523766240 978339778 374574323 624951623 932324091 35551155 822496279 120525432 476316451 269942661 635192454 758528692 586442455 459323852 759232677 289661850 231753604 620716182 308330987 447632643 763390083 723416517 505625877 82163515 675607756 435324191 826535540 374848615 460117022 645605148 261797169 894650966 550638642 733887793 278987260 878100934 34403603 368303761 826702828 817972803 331103355 684695234 886810539 127624713 553811368 305561182 617857084 511897943 179661223 369288141 245528295 444922762 701614784 266639803 396254615 912501950 214623241 227973922 464888104 328220060 299085759 412263680 795687344 625117532 676303532 407829260 363309469 212517241 535845067 578136545 537212018 68011243 742689375 399537148 383884165 311031839 871683698 855989041 690002870 334778411 858317978 247079455 826158448 839837378 67589547 95639676 757195685 963288277 588120445 149009094 760002473 200234718 406604226 816513972 503843022 155390274 723199817 819952747 877451815 824643010 730575906 864547769 979111470 685131855 548086744 948151748 365747826 156502474 290559436 439882313 365956832 722424231 832381397 670299570 758116620 538530895 193960186 964951065 128324557 592157501 129054426 626461748 861899287 390123776 40449600 77438617 651226089 95850727 654628432 713281430 913800856 85945493 193309766 318013941 570260083 574453818 492939552 863880908 462725804 193454420 94270740 587215303 907251039 473229323 621212016 857792983 844045770 898365350 303514171 386508788 368524556 782810457 803639973 793531179 155572733 534322621 450021593 933126550 948166565 439121691 21051175 128696149 556017327 315246513 767889036 684118940 101210302 524900443 768915694 353972640 313111428 139116338 688498894 304556681 17634726 42485177 160722828 206231194 493893251 158272334 707005253 176140529 488161735 848644098 844018445 856043936 996545309 942328275 664988416 851785158 402712138 154874197 537253306 323437492 698284522 1723332 70882782 331648516 452801049 90594056 12061654 198624541 281387685 767191380 274159502 586258158 614365459 916521014 854450558 127331223 659711875 954578006 528509010 637226292 73182935 545031660 945617298 958853826 497614517 199471820 344778648 990154927 676141597 69551191 841809418 53183649 253212882 235289786 767921982 629588595 522197232 419712426 86601570 530983500 432735111 258766033 472454378 560853411 527611808 229521192 845373396 960017898 745653443 660310125 315229279 672945084 144286976 250822122 55858944 224202985 655125316 121710674 301281509 274243870 63108598 475544390 877045536 9931041 37920296 81268860 420019609 103791644 900396859 603376373 734182794 440556091 26589656 569614877 593010838 699584968 273725216 797266522 619349916 26641302 450752243 676453909 756871033 828673327 186814685 253752847 883740513 672346293 771950120 810157196 191039466 969327808 797318733 332170315 543272673 48341944 59805316 248943665 372848671 646418675 84758861 222714809 690600370 528935764 523899118 873062305 346855047 19958051 404172543 564001879 33122575 37626784 749006803 626871956 160124271 739381267 55578900 2765926 282283337 773462942 291462775 649145565 717932509 425510834 935921951 972520573 963090583 221871988 662130918 320770974 860661883 900799374 256647345 337050182 935044228 9860691 544691205 727551806 8220739 138411655 348475368 934207457 813856545 485013390 923373147 866348290 361619595 202557785 765974373 499028993 131040315 899012285 755884042 502898109 174085183 630108711 115244250 398444939 639789338 656584828 251843518 740969405 314840455 597402182 663451213 282841869 722963093 963496787 565795566 518053281 569848142 323582810 600362877 411289814 848281941 855433151 64097690 25971648 159269654 204148195 49479904 827255067 200391598 132761936 106636455 921575130 185058440 641975242 135013881 866203418 789927638 739587629 569375272 54116123 920338864 497756313 401038483 755436731 386107215 297321627 387434289 266839980 340305829 686700789 963097680 33398573 820427257 489517306 652811417 991310383 983424044 379113837 473721037 684709134 286834736 734948087 69001749 181323030 923538910 438664084 839132398 891267171 329770458 166227512 711649154 887677974 434166423 625438404 115641788 106435748 568238236 378332679 906222803 387013473 728059991 323806557 157181745 254140530 955143154 528897771 684483468 390916612 892673534 617051406 368361551 860349576 389579 676675527 315553038 191973887 773602478 47800176 425088646 723245590 917318472 913550559 584811659 428207046 6411428 169513840 983562900 928350083 398153825 665903504 829244784 668947004 789257254 642219039 179048521 660547550 883815659 882528820 302118004 332693527 148466496 764344450 170315022 632372590 747291966 790579094 245686675 714859575 41042139 267256288 718751823 325015047 757751739 526086427 685370675 106950374 834898284 826602017 250434603 659141988 440537560 969397206 210707056 766184939 643274297 185836008 28352097 905142252 359263144 951952791 512494130 36480546 606462734 811758399 264933689 954174727 677243390 994871291 749215025 971307469 19727110 196308447 984701548 307465481 648229952 65888146 95736516 951366676 145534697 702034974 651562078 712109004 546965854 343940014 158247217 565801177 5941909 737425842 815989912 137170241 616095414 591077110 674756431 626282736 128569443 259950360 258708110 740563429 311664957 283561562 845314499 789685415 475607550 988729115 52541174 729736943 118676740 577122221 312102024 387013169 285225291 830441756 783117856 274300942 75483132 27099566 462275980 159353191 313556889 676456721 784637513 814536989 145384343 825408340 267673001 501459259 697175535 796291086 77133399 122113205 389304317 629364719 380828277 618216966 278256238 649459635 124361043 217658077 904894816 30069716 785074832 812380836 332499193 781441276 134851119 971968105 448735956 952565746 405743677 399816639 384091608 780802433 797082990 618617282 142757511 903744479 521863826 38984389 282094747 156426948 569280299 566434333 524185326 776714313 418597173 844020841 352573071 596085703 943250844 324147500 97567528 380904921 382334887 485856865 581691841 645520318 950991691 597669926 785143447 155390640 120847258 34775199 989431091 533360856 334817951 499446811 117214533 859729815 866708028 557276625 79959556 453875187 941877928 586620450 792469931 706013192 48756094 766899212 28427957 73569701 687518560 941754923 755943242 598831053 564681596 846696698 121859311 120420254 691777395 501372927 339721392 218024849 833053169 528306297 893477385 657043687 531292628 235241548 202887464 797849050 832876035 469294771 335389623 905193634 103387778 705946249 962552052 758080444 196668779 195651068 270200616 365031285 646327539 858235381 508531645 63118077 22804968 366797626 268308112 276236398 874486446 401961899 741409210 715066286 675205000 63186389 396024639 119345516 564328985 133827209 325869501 199722492 236755900 556207170 175018881 836058335 625765571 78512581 761028545 186810034 502482135 961594187 238079087 695832210 803804247 465235012 496531367 891874847 296853663 165128945 66992691 696861040 858585129 914033153 173222596 120966296 54860330 845190047 990854589 275972233 213974203 896226596 985065370 105705246 941611298 669454250 692615985 949233260 533300177 555676130 184350510 84154398 960839324 819011942 297220060 657025095 754207819 283887422 436511921 839043976 494825807 781412787 30146476 833442922 836645203 955640407 411015619 927388589 476385047 89833547 375649824 824314456 167132225 25316534 174783974 397028144 289437763 483575686 197726210 556797155 195056546 994230274 979853920 660232095 756211808 514848663 513147101 847145705 713166531 1341882 725450783 438701139 43947514 140751702 946910846 805268455 568378559 906023773 48769104 652404542 893018068 844451 803535002 227706636 806518734 741332852 63607973 271236100 56566414 855619403 323196058 742564814 242108753 913992151 236218855 335990909 597049263 235589328 611743869 654363134 935196832 778993778 654490402 495133352 505276071 902010117 505277457 234101563 950216654 530566655 788356633 566057488 293247755 915576854 637687572 513946074 133034809 529343961 631653576 202721019 56312427 427133715 493201638 225207088 806779025 334184155 639234726 655555256 603346743 222441676 819709979 128060441 172521817 511706378 720277753 88824635 572611486 498347642 960298853 168579968 89101447 431010979 953990590 12758543 256159650 540302676 136074899 665930860 913222439 407486032 253781534 428533494 446352388 267533305 789721401 167970047 496717679 835916445 561834895 556017725 240554990 356206795 921524385 413190256 304678025 934030220 969703761 715076695 444127788 404823344 827371563 42673399 916414338 621967192 227448451 408582013 64134768 640032153 218148173 228794828 43823439 608800980 972204584 601709613 746100422 217048206 617369264 161841453 922698703 946469831 476741296 2142524 502996166 519875587 130442047 187778456 795282632 50540133 553123157 748273747 543408803 885378682 902760663 966748617 984896808 650517922 669265719 798160402 297785622 578242771 922057212 992044463 974420037 450211198 720089530 647258799 60349348 90133052 916604328 39930981 694036345 210484600 160841991 149208408 528408083 868796464 911572209 763044031 60428063 192572214 508416917 946094886 377541251 95407032 373118457 990121834 97473268 731196913 54236100 395431018 436288263 308648075 849638405 57885918 508061871 211446673 606191351 580271597 374338044 731241866 696160147 340598201 712157511 558096859 616864523 292473266 85816503 152505790 425276088 548483019 32928823 627934760 906883952 758306078 716581427 530092025 327137631 888210956 699114754 16641540 189369431 627525530 308477201 120616819 181474192 387826658 203220709 178894399 70795743 724361166 980128734 792975257 400850304 15397109 119944514 229529479 434510905 815900463 67191808 714311163 722835121 938989623 67802991 578365275 922440051 180669651 425230882 281297951 439948130 977463199 207465389 342694671 15405135 361346939 788667168 324997163 703159554 656749918 410448742 203521194 515258642 105991524 769898364 108423549 817591633 718742173 172656849 53446760 259418787 173578694 203164910 323625191 804043965 407503467 80235676 5452462 616655728 46220866 88491079 789005585 183323187 332501404 411550756 828735261 892427413 300154618 898609902 864265179 861479452 47490406 784010835 790559843 862239950 630323805 105437016 298764746 682665812 267300012 238528713 141142573 526681031 329980427 79760005 756195333 218374683 144594695 688534509 830867872 838224150 709887985 328034688 606939406 709414573 468019667 49575775 181641056 920640248 779899914 104417128 385516227 468753877 121739457 310701342 524072345 601480862 304377019 721759232 75014071 86609639 192801573 135609489 89705209 994222570 179961896 15223747 749422274 619587654 948240502 339565159 653817814 964820912 65987077 557246282 705688867 490728674 426176108 581015207 326356840 41585599 393995753 325963964 86646852 855041559 876864914 748312048 621714494 158580188 582795926 766333796 519050536 67781765 748415582 151428479 681405980 506692272 838518726 864933301 868622392 305888089 343722456 781975347 223574941 996068957 170457444 147595675 470329031 43528084 569654851 288443158 350104007 319502605 444268994 921000199 135414447 356306052 474742797 2128081 949529675 363125079 968897361 538974539 863209267 265546098 641963915 487408934 942566514 691290887 736303933 149996706 969245925 605765390 698565808 315139490 591592522 748068951 943346225 680751305 358442952 873982828 241288347 563086532 316672336 513791816 379591254 927946567 373989567 685861823 576552663 422069743 565142239 402083126 108453516 312555896 713473233 65669305 435368065 510338981 612203830 369717475 244961090 740851968 272596007 263135151 69005684 274662126 734398224 583240139 416875404 287701917 976649293 483671564 21723965 474881737 332635904 390665731 761433215 566969811 280018190 574299833 612993968 830073865 357854913 938992854 724650939 81405304 829395111 846083854 76584581 126414463 950287680 435747862 43590667 407247513 284317086 627617006 857142309 175412613 270966773 332146545 946156421 490303865 530495753 485598565 733250260 382158058 312461312 705687549 727742540 664403773 737000776 918946336 372007746 836129853 68936420 63773396 760015572 639152870 243281012 942635004 131833377 113129006 922258266 613289962 816321929 14235222 815714715 373271714 125172263 70992932 729173795 283307475 860005098 292394367 596271867 490001012 535875054 524560236 14014851 80119404 246009992 227170807 63889017 165253815 643093546 813932844 886147145 506797619 652143977 424993219 939126557 168204020 287743672 168439484 68482516 356882844 628445769 612288095 902210323 218309020 491591433 406210289 826121113 26132780 986730425 739878406 355737442 867242297 124788140 107589880 77595758 907278574 100803739 172787023 39454602 123737147 191260393 866674197 918320441 751367630 452293717 145238718 512486522 308770454 847632391 739191379 621226750 820934457 476947283 346156044 798826282 982371034 478827109 947476968 304874534 571568202 662215189 308182829 575898114 910822750 612473923 448282478 271904674 104459607 470779557 743465074 609942184 184813500 277693907 182945049 212441780 491320398 349502058 806203127 806745297 26702962 423735613 30400266 420821753 401714654 277738123 253525722 295592039 620354956 105624262 103337038 622137155 696668084 232108871 504661609 579993632 244969760 958212263 712787316 250144867 225559967 299319881 217952766 488835077 482366820 814532073 497142875 716368371 56801629 665219685 316042288 105350720 354475743 232554590 429224303 794778421 83190320 608249338 594593076 612464096 327903964 44425699 974607667 918091413 76055625 230254588 411901167 930990655 69149851 85131309 458047534 282504271 758776441 555238209 458197651 744728412 742578793 483885640 350494581 535333303 143267670 664085150 686600513 500230429 547925212 661197645 799629685 76972005 172654880 481223007 124044580 543462047 581130111 358747023 610341236 810012431 937660025 663685160 467161462 867662351 222169471 976880727 693571573 636363040 809561067 803955989 317346442 825734235 370352720 513925796 332036699 887518449 202034151 903078816 70167750 268901614 998565863 208423619 473582599 896393466 741953912 486000370 485547764 351274147 467855183 841513007 851553349 216847513 762676051 594523565 21692561 173565057 971241382 143842817 40805623 158486888 71172095 948514319 138946259 326674400 222381697 306959410 355972039 719482869 493813704 801887549 485349610 812286190 245284340 481979190 969185558 352541948 898965203 194308899 674962636 848434882 713881208 852416293 747964920 845448153 20333213 200876256 108574868 946845011 999568181 685177373 710943958 923240136 984887536 875878232 99071015 842695933 784078631 648913909 314958242 953511458 333940952 369023943 292362907 743617913 316938383 706566811 976184503 890547776 243377067 972557016 904550389 621223537 28188299 449105602 161404534 293264847 778034595 64963543 951744833 509808168 296952195 260988862 92828494 966124151 894559179 912686803 224542933 238771131 114476398 150379437 383010155 760064648 349284102 870127828 287683321 257269395 496909733 685292076 893024475 826474596 302014349 475382524 993278353 208076149 922904236 838515694 834534113 235552364 415209625 769226740 221259531 942623715 403413766 128022197 23630445 894310277 469816014 737873931 892932888 615791806 932090978 629741008 605018220 902893630 732390978 169144645 201146035 146254726 163700858 705086857 357368427 896002672 895967635 179000554 939949328 188622804 287996593 411919097 678537123 363326707 213918672 55519225 159492294 521874092 239997975 978600890 575037467 277277445 825576903 641211326 309829102 466208858 307196153 33071087 218173142 10971611 179817430 622505188 604202374 924794566 48729035 151973991 433009375 188721103 429730063 333632265 573043751 910849376 767193699 453607783 523477721 800112322 285604256 900472606 57294948 67124939 780415236 779352781 944120747 446631411 791187709 679079005 454266067 86244248 675715274 641105741 446346325 585767743 696851536 586942867 557204323 494465432 666268126 447860163 680231014 110690414 779246307 98780151 515311629 832446141 640558391 294649144 305198082 792783179 394757562 552844485 460284658 194782895 787521929 191244527 754214792 903408303 663634809 420551646 127121627 15586133 753091939 843171199 682192277 59259991 176128499 834835834 980824360 649480135 12115474 98462907 794181549 398047524 601691211 957392544 112695817 579941100 351983660 849288123 847519908 899722104 754513257 101999708 48754359 718669695 604590500 957996875 844391801 771382450 660316150 920251111 18539429 907083857 335811153 589778503 622015539 729868917 220740070 603842615 982665301 510037301 72988404 888913637 903276040 135238062 19349739 883578499 94223240 91354753 220409325 389343630 758834245 942451584 363750233 630362846 252862077 619640001 805431046 208341933 271338402 306687465 303873339 140794752 965579874 185911387 678925930 638653023 301554190 99656755 223799794 624537339 613961189 945636146 725427899 632293065 284204050 343226117 458036086 982208000 175919075 544069658 331841879 171308661 631679689 774925373 198283368 367238660 899424813 251343709 408022807 942391654 332070584 189602993 830959148 950434629 569067804 153790182 389523260 538805155 534065375 300359053 456319019 84509120 720202946 183153429 480672891 397604172 396569130 33268614 961031574 909841646 759802814 72017432 1792304 250731581 426198993 417595461 671915942 196378611 812315581 114120497 740307624 764919129 279052218 71943276 275409379 846980107 325676917 705539474 561401450 784275034 46365424 323169889 751038645 423862408 178321757 903350262 934832232 422679347 965743073 945646341 33077170 77443558 767375763 252179242 209340986 220854652 827728394 932331293 250199291 169373431 511898762 456545259 19822462 493658216 136574580 28073161 371808930 859607552 823740416 440659072 978942478 449304697 410652863 132084709 168204030 927986204 150390656 324549392 348949512 345733070 900058330 278351878 793684839 418322315 695281864 480234028 769420764 244750902 375231644 773635437 471045994 311662631 394441394 302416572 604451986 327212015 852866101 636671511 575241179 540580839 357173686 922812386 637293162 557582484 232312331 860776567 429805482 539532238 11625552 893550216 61529557 140945947 7491031 568406737 753933153 25961974 12884331 780941937 425716331 558790758 704391728 727127811 944789641 242079600 540148517 456976550 991271982 33909485 658584702 212517072 748770058 798868632 467211914 683428930 981748671 129317659 779143238 85277462 951617279 44797769 245642399 774447556 143462825 92934606 974700767 757790352 288535252 463906381 496297507 132266409 366127308 299571278 735158124 612994269 724662724 143929448 11840278 747518910 261597759 463311338 480674201 820018134 19557120 539124868 84923842 653914930 568125576 987659146 684987253 241774662 805272610 621714420 609775528 355764786 235457131 18560487 910717463 992310362 878328976 425202477 638857095 599517371 558558272 335362557 535451846 748025756 72046994 65599250 93871718 385151941 494573217 434343893 372294369 16355448 525347554 38064275 233289909 251467515 460738548 197580417 115414194 749895711 423921266 476769799 799195360 530244579 738864040 120909318 586512682 473739502 975809077 700396149 785475186 802013259 767327562 946676877 877954837 442434699 50300941 192252415 179729567 605748643 343115634 903005911 506982725 87929238 429481277 983986229 868836400 169324596 360589229 131603072 422494425 854175054 646341852 269804569 444248908 255443618 933444687 367236686 871031666 495062219 145459376 80988420 771243079 625767330 8139913 471445161 795948265 45149405 966260748 993764105 808994304 292234689 456677373 737550617 965507022 327300125 636568544 834487668 326269813 714119151 714147220 502387849 406815431 616879367 686662305 431741993 839974900 650681460 512894421 961279033 737820994 558659340 981817646 388559117 490053473 695260405 684607044 69207313 20567074 114151044 761364962 831933624 699616094 527382508 431537365 459498709 37535879 473142050 72055050 368526671 716626296 192451144 207692116 400915523 389136616 408889996 865183829 519751459 717993781 790340628 720051261 12694539 914609871 325995086 297744085 341523903 133882750 890689104 619385077 495401503 622189544 853707336 86843869 320099906 520655489 683936120 71877224 959356725 759438125 312968059 808269858 817148756 464948382 570165942 302873791 947864339 50932286 942754188 252247250 652696836 456114218 65466687 656895198 762475261 54112007 43338637 935910545 23159541 830357801 13363068 682516827 697797805 238565647 986207324 596014410 960191891 920610543 835518384 527965708 10762808 415291205 62593039 684891097 249172108 861511645 62125576 329900869 631705409 690730851 346438574 137894941 127056838 496972386 253414443 778489181 131154393 41614147 10149315 557376210 606788153 782232488 214537990 850022888 691218046 556598572 550627634 703991765 541416159 57731917 864331314 547451214 244471385 466367080 388740058 681235417 770078306 399133270 429245368 799910702 690646525 159837714 347505155 989689184 560933384 945861153 377601889 67787506 489819843 998201732 583440560 598531845 510259381 734497786 215085240 813050222 339067961 838634481 903089240 505855590 82931552 277123879 558352322 972094617 703193851 536944129 107553724 554012158 256429906 510121309 616390007 644147194 243466625 535539585 223188917 949071826 723937232 17763536 844986797 184513205 831224565 405600397 946192139 411476804 107200270 812524845 264418356 236149312 892691182 475914694 110472474 277076013 645522758 785601729 977300596 801551428 523652920 692630206 859661805 190833141 927821296 785492010 305787576 490106139 463389877 922180723 87053883 712603065 864005429 249327503 901749637 138176833 157144233 906568205 507650233 679998298 810711902 158471716 473624643 864308117 229476006 485572545 506413812 230025274 775026837 33739287 552973477 147904010 421003492 265803496 533733259 284983271 926686440 956115815 248110737 856721837 966619516 29826865 535308440 646451996 30280516 263875559 697662124 943350220 213561101 184508929 153432205 789104510 79897144 550554094 778225918 97259380 209725415 321025057 823987574 461485530 585677665 694229096 153944629 658235108 273389009 102432983 461119452 388551934 890234628 912248498 140682046 598211205 590542303 120411161 2550315 464103971 53786264 473202168 607291754 761746404 320244842 467269094 516807979 657732539 660643250 463194963 959332926 420797703 122880124 865252756 702930315 224618895 642556735 123493243 78950128 979294619 939502634 770121016 182152042 456001 762307204 5777975 3827799 673542346 75203627 89761550 600246423 521390132 711304946 338265350 616085404 747343760 389296113 859829907 144518698 169742325 623279606 947306624 207681850 668230821 628289024 868104436 812483224 527315696 263949544 304761775 649421680 1361995 520427014 340979264 93160230 829705068 823544075 397309668 957750101 451713483 656247318 794998273 812202584 857177497 330684804 298552388 178644517 163777563 971434356 727126854 112757298 150205340 404542944 739410074 228482734 227554856 123559753 738967023 732912539 114959230 522039537 567531745 461959660 329039447 75780043 592592340 423911887 65838172 460629982 427809209 359568297 245346098 915102376 218937874 631224988 318158584 204194884 590128316 879117132 549667863 616413951 616906307 182006426 369880387 567661296 795869194 161335552 388301201 750307911 536716292 98173737 572563380 882431747 589098094 305722605 15466501 964733262 109985536 444463289 251953888 479431875 762550331 72910054 436844592 57530139 592708158 111832954 23426222 366373674 527034460 709550643 131952320 919836825 38650966 73068090 166130763 467146734 366338578 249310150 940741678 310593806 563327048 61167968 472519013 987005530 993358021 63810423 750717689 608644890 554430740 844065041 469379794 684160750 748961683 325737844 818385886 786329252 541324174 852791845 68933716 588499548 643200352 478188313 37150895 98511834 256717882 271575777 965919946 515111132 198728641 69117971 418519496 219604995 312320426 35407852 571303899 790733724 63649417 310504735 698228970 978446547 721796883 594557716 800296264 670526509 363566607 376656346 349639093 334724344 455515467 456771028 240864611 567500539 77447983 260050124 85850970 236413499 663760923 342352274 460508184 668685701 790961232 487148282 753440673 627791258 949851778 51962074 231294509 897677584 557248683 581228041 841424510 870910587 142800376 427788692 904181107 692020532 644643425 319754744 196036987 769447589 985520975 540280095 302683651 483624029 657147734 986440668 844066485 427591727 204001827 159148413 560571001 975670131 979250347 130005272 521308582 631155363 358343882 159025661 733806707 743715284 490947944 488411513 803812964 239754311 689589192 659180921 654212245 577181788 483614208 138006350 329423532 131402160 873479328 470720522 973760925 157282050 972052231 826183234 392881105 732219145 213165765 950694525 265413680 441260135 968168186 627372305 607199126 524886073 533409516 16741741 80870458 386620237 163910192 702672851 304065268 281523400 332882787 840520377 538293761 164710092 310577135 278759534 29872031 787912027 196425732 378495488 163154407 901996212 823175300 261654884 827246630 428147693 188637510 517838829 710343138 980453103 3694672 581074582 162878280 328442728 385265738 582908190 514711450 297307367 703099221 338811972 362530795 680863740 390202740 398059246 463636994 545723363 420659778 655938227 971378196 1017858 115566760 920890032 548313230 970016893 785016497 668283358 349653657 406154782 604022963 886076742 993638185 500631313 874067588 864443938 610320252 470808824 526934636 897260658 503275966 519121078 291200535 862859103 253007479 710988185 444776818 792925416 418703839 203026398 210554568 890894264 60052954 739654770 446337137 955475309 930999253 276065818 332279583 719309456 865287664 617551059 591809224 971777894 191575649 627869189 678561559 354476535 479374287 683242656 736963508 224611217 238766669 598094479 469293540 399102501 595444122 860256098 360745947 631810303 931135095 883226122 589771967 328937401 64997983 299800927 458123518 571158452 549804224 361432537 178246018 917495886 602990923 572751322 687400734 378558983 49319787 697713691 189190888 29951081 216200129 619560398 499396796 106658470 372024532 130573339 634861456 180641935 968282070 363249852 860159340 498774780 597989667 676499069 199723969 105010314 401936337 487319968 629157084 507992700 350779182 976058672 570745326 978184586 548089929 221878189 902148958 261020299 164086476 917820111 926539352 957543646 771906944 276511342 21503863 838205905 443288403 114947817 840088279 164414873 297531969 937451967 836998654 61233981 760576807 411091230 70868546 974400133 343613514 660483292 55448618 314215181 742081982 759992317 729186414 976358813 30919697 651899387 388700344 539349794 122320199 866908499 996133292 419505909 570734680 390906619 781209831 394544180 409880567 824953744 171909744 602473195 435266321 472619693 897891368 591286939 537727456 660095969 158809058 42727891 589451880 369470690 485209436 772647858 164136439 372192330 478875529 520502342 260215215 318210714 759470732 427400474 1997587 548558397 291315740 665365212 729444274 124098809 519175367 280541024 255617136 741403480 486489232 805322618 481759345 382178818 127613837 806907286 469424042 455703412 520007188 604798616 745442570 984032579 200788718 815409799 740640312 179924473 764631238 658757084 81139873 531499256 821350694 459318432 324302372 414691568 553126071 347439796 919813199 711335124 660126636 816838335 385878847 25421447 431981205 543713287 880193528 583113744 440821938 662121296 242467750 409404540 455095527 593113896 572491454 435083448 110034696 385533488 88835950 607526749 889705506 369586180 94138060 482067511 558878935 923773541 957608878 118212806 975840113 862870907 925473789 70069490 883366732 532009853 222685337 462370244 533184308 892947703 103807112 214605485 514045814 582413097 647180418 792914484 996471281 252222698 194522843 789339796 475900530 848122392 716041777 802275033 625300335 74761385 962479948 835285978 333141604 586615222 537067665 912190923 377223713 668732536 501065459 173908326 375671327 594981573 885979343 503239501 428496029 42042475 949591411 9179731 664693345 634927181 917108120 923742342 141497335 913025136 856024875 109500954 76254177 185918404 462063854 216503101 810190649 89433082 462084100 502676300 424233303 534230328 739868073 535008853 352602095 839708976 657322036 600911471 975088799 900897837 793509838 626672579 306861067 106352652 747980987 380914810 539772590 947542651 198015190 646255004 496402727 907954427 123094597 963268022 958582549 185330807 667210877 868814420 931976649 370708628 677237230 511792528 880089725 438755247 902282932 361475074 904030604 92359172 567514785 870047643 131624066 136644559 755004670 20500869 75689159 665677182 409807314 21635770 108050597 599225916 544197037 885274598 807143315 605759860 280638797 946436015 413963599 671893905 982634406 781476793 341527686 972948207 390791530 108505914 286695120 190776105 822499450 435726745 881990095 585553514 264302783 93751120 646016358 526210953 291271281 146216142 964278691 713210440 612206825 314401014 14332623 721378632 596492062 260973177 772426383 9031158 977701178 118075666 680119665 48054526 220104831 734458731 752552101 165856956 339374235 400901873 280818533 369168167 419307778 413500750 652631509 569636544 990614476 963925130 398932896 473210544 257181118 970648175 840066737 316018946 259256385 395255839 727187616 460697383 147378476 32022463 90986032 132358754 373142787 438428280 608301940 896485811 605325686 217727257 730878267 844042214 638483626 86030247 970318622 886222395 232114861 651794696 715744766 778721496 660060054 613384848 183313121 400409060 100899228 117213091 738158011 519093250 504044377 276202054 59640233 223858472 494502806 131191430 890009929 516486242 88888618 865400619 614236826 197521747 782997121 784723186 609735048 826368697 55139684 810991946 361623269 993547838 500085512 658613242 210522391 93113537 333899679 295796232 688432398 942769822 471694746 874889174 414868541 361581140 468976195 808187651 870415035 961236687 918098708 141891132 286429618 985441142 158103555 34780502 667599813 126208257 386568985 396620722 875795515 463562888 905475162 621924943 398337768 34011540 302929145 290845292 802120857 682829965 73239370 323975591 866684231 755846604 977008308 858008729 470991951 864553352 351240166 381466250 348252739 806153516 742700725 552110115 287687442 543526108 667356167 280701826 744635076 812856656 730197970 677597836 777035098 454881605 786820588 87074409 366813870 789494991 214717501 3013702 314687518 987652221 6146844 931510518 114615660 651350731 725324048 109833925 590396157 561960861 605038467 954933969 530482653 447427542 134276614 32923674 106587937 351906546 500089765 40864812 807906535 405085773 572795014 514602934 953759204 472224280 517491598 875879334 5262968 981005595 116752971 324894617 506504178 780590082 755958225 999224609 707109847 602923875 748221229 431510770 416452570 341684137 227001568 548993713 89059929 845079481 452497106 588867436 816375198 570930407 237802680 222791385 107026567 565135824 977872302 728782738 365553399 659824412 162543953 238616772 292744629 365410974 955190887 33326678 829262009 476662608 389466309 49723190 781337190 131433420 34604073 40295847 206231281 659356260 726045946 343805582 769944373 67252242 74303165 677967128 818639119 56221668 14896403 740302219 566139616 811849114 587380324 280686448 576414980 405391854 492366352 158426676 460720552 787766617 759260420 10986928 694503351 295998893 85893177 745627788 219404191 195414569 540053748 502018229 620981234 392679509 31965757 876723744 670852350 238995914 816055854 407207273 425434329 95624257 720825745 692587171 555730087 30815859 234765543 275560910 585701192 577933156 5742309 685150867 724207786 644665261 477254332 308568692 894245416 329808876 485912264 912941211 54540821 411452736 832642748 50905108 287308561 232337637 871996221 86270638 545355017 68004381 310096294 283604297 822327072 536389249 943896685 905386491 741192877 466862158 846998040 497330572 330479969 917088883 507772912 743572645 120935261 532900558 549000663 930614542 852114841 892478223 886540459 782041655 131170704 247956328 621597150 453773961 810295384 672496395 684644204 973615875 496557612 958217444 436634275 833192938 596336446 610798353 397715932 524395855 435315852 494104297 858449594 741498023 705996411 145180472 539009805 64261951 241612669 76384947 765155048 939897792 938337147 187558078 751133112 298292351 242423851 141493670 231147521 320538923 861780569 520724658 437910229 65051298 548502292 45449240 983977364 986190266 38217675 145947784 131817723 321402411 766691285 217263963 245186702 610649228 507072465 771052654 69685538 79741489 406241344 803764658 101098146 744827445 519952085 874909886 91755647 664005301 557869457 251698748 451891871 573798003 70358924 920329885 705712891 530010106 789426303 250919266 994678112 405608485 625033753 934050128 497697491 271834495 818669902 619324351 213332460 742529035 206909286 260618852 763958398 684268352 781860042 782520560 10967120 830215041 668590794 772489498 170069204 350886036 579055672 374794309 44815020 988010208 229754751 970093988 101916148 187435896 125753196 591395304 789662724 99572339 342564105 630448789 278787445 541726462 23500649 749247428 813829058 66985829 319612696 941909244 170571615 141569352 913472384 664875804 114794181 969931164 656311263 94468572 12107254 681058883 137443331 149931393 515806525 471992185 700537774 647082272 150366518 518177737 396880946 893848919 834286589 931876948 992299301 704243141 666468838 633342857 562605236 942398822 912816746 787380415 442959673 937378762 430325194 27835470 600013491 700628593 983773867 48931079 303238751 447531043 312465353 345670759 623818869 348017995 346233753 855734188 346599379 543086725 664503310 479489285 902879182 356341580 222675917 835571732 268045337 480846347 729076862 106600174 208745083 335182696 472639906 994222145 39653735 703188203 269823153 715662081 795397989 309159613 234621863 914050136 162740272 483913244 181221440 971289882 562446216 507519051 293745066 421426267 628662081 70655767 578008261 809392341 239375471 665259910 371288179 870975029 999008100 428854579 462262491 966310094 331703502 643058176 382594007 854534218 756208492 86637668 744162461 420975848 611500365 344061238 95821806 614388550 109929805 9385095 544176288 793534202 231963752 923119064 675481248 780505882 33492700 404612816 438807939 261960004 521089578 557171074 206132393 158902916 863891805 1471677 175214651 950030066 366823579 154952992 402467625 163386615 277545476 813126843 931668130 407439551 633848746 34731264 416176111 826515678 408125408 163853621 350456094 880057558 861591609 23414735 81815411 406043514 856836698 65853182 29190166 581830834 920827699 272098096 740267640 639670140 966138414 429906786 702287280 517282201 258361758 270344559 45309961 104220305 353551562 79425438 390859211 756088986 735141649 489199852 626998113 300192403 13114816 223388168 251477474 771436635 292718307 366485762 742913056 664373276 441903967 332652799 206044925 879634365 618153414 277070604 345561022 810334029 710121929 614585125 799850074 417882731 168887158 879884103 339695986 907834969 524765470 401361762 935465751 945167814 899165081 562452449 142655759 154128404 955811422 798194426 42205314 91157006 28229365 918755073 521892781 892205991 805890152 178851727 936228681 811583657 903925202 617017555 448310426 606752859 144292759 191294749 778766656 845205074 940810070 908521045 647582916 861931558 970194948 708253747 729738438 72144320 932419464 960315185 96285640 516975321 449091569 749860332 681581042 465417837 62016663 606620111 107770583 199539627 789122904 898359327 522591784 453824042 350115453 849628084 201838470 372063200 317593977 759089167 165827093 76545093 49272549 2769001 328910379 66920529 953127308 193693670 36222511 65836694 45975506 715021678 309884584 686954874 956362736 139615032 161899321 501249148 755353088 953864905 157384390 797066992 647566711 796480930 130700330 772391220 394835997 19346247 562678849 360681383 441649291 530723623 723825516 68905243 643030360 459394954 455603188 671773228 813841203 6814348 157776256 970786940 917587330 398943230 382204384 566550669 560492698 844366870 503226682 831039477 850958288 245842431 81013561 903379141 572581397 783859237 553897538 417393171 347251717 265549993 91334998 706944847 534634440 300839453 192447799 730794911 283752138 756293675 721933274 544795610 442198815 880269533 495008282 598396996 104383884 921057225 240485631 184553494 13708638 907799493 896230344 168531291 777490349 581482469 475030842 989223197 764570802 713952502 718559836 417593727 3884225 515098783 625857964 11625075 581635324 436710606 958850452 482844887 736020314 517567299 660189673 432916464 199227690 755049656 576507345 711151499 193752333 96050598 968970896 851179403 428110847 54198660 672454293 81225500 389509720 525136013 616647290 215829965 794647189 592666572 573060625 746234451 797601650 165581340 344893594 447593717 711519504 533144339 338320298 282269620 67698875 979521026 156953627 981152827 557432532 174812419 19245571 514171385 78950557 809643802 620087816 796488963 182453077 189979245 766134759 526987027 952440430 709873947 87050152 784493140 858827184 838505168 110399875 644361263 419630887 435120357 31767343 433274141 38251125 734046833 16720797 290828595 899687581 422736921 324084064 215366025 614441197 249750521 290322665 714892752 207319595 748314724 707661029 235528863 381835580 923580591 598190832 522683009 369620465 363568496 466269839 905694591 588755863 856860567 179612889 887038315 564228506 422352953 881088288 691479438 221713835 799750816 279853592 137785751 784136012 916608016 622496917 850466688 625925995 380672352 573127663 87687944 836292614 802407287 232951292 610190852 50401369 916388580 980630295 297044664 91686917 260250451 787693610 517133011 368293308 572740583 512151652 985526678 445400940 367730901 641719108 948041667 979490182 211456009 996525628 135296948 743075071 139570864 28927056 577379629 107538083 407934510 172179812 776346081 341906712 309756773 318625172 456832087 976345727 344997691 937522773 120909444 705883427 82896812 634469133 434056292 122199986 908219739 245011444 238503618 307580062 15293490 690549750 146570219 984356601 367080041 571855677 147909623 67278855 721657542 84352013 966165191 980986601 868201882 164726896 613619593 150624095 142435009 922812757 565439994 504689178 822498502 349529170 719185401 264660152 9288833 694730855 644025805 399326189 927543138 416015203 573001968 933135351 260262453 300686855 851098393 726903753 561297712 760072749 529289215 724568619 222610491 248191381 952356833 392729395 444869224 380650046 169651463 680608979 971961439 165657502 362866203 205579792 851679938 55513168 731351606 509422327 475242543 620037490 421728688 714383423 276285452 760697825 747051603 711807914 510821721 91349501 998240703 604572278 322140249 214507224 433249323 161141088 869484652 325276964 482139560 536806440 908770792 512270619 628314747 491312344 2178880 159488114 797457242 751201428 977995278 716845207 281033839 885298076 102599720 376233232 300452892 501725925 921014407 215170871 614359985 584443714 940998817 597615022 134916878 582873234 515659806 755878581 115501878 993834651 842428070 677846092 957667122 468497184 883933376 547588729 119014986 471172381 937446619 941807979 40372720 917386689 215120132 748749897 148051887 896738648 891372765 424942266 122240810 285225965 329517099 961829054 729945738 796755656 447395192 987702338 370958559 329008157 988287839 9865590 689339557 452769774 284893112 713112630 626687685 813438033 142331624 370959675 647110550 554838144 243485556 911141767 337368610 115228023 39681268 253243003 919815501 14453670 682335466 179329059 7452276 335144280 439688857 7195391 890960323 308089648 713245064 718394228 660085523 141481994 640194831 186225373 400585687 349136285 168610748 118216509 146637379 170781882 90401154 391326280 865419500 816794559 923844962 681379911 336002866 175454645 339524492 200186459 126628029 203347701 86540464 83759521 259384521 720517968 620121536 220054223 227903229 739938116 950472696 994469133 296466034 151210998 911031825 484924426 882050674 188222002 599488827 853553000 64270776 811609097 98880477 841072791 162039519 346328198 379144629 299550144 368662660 91620808 466523896 703784362 719560552 785870236 566939302 257530238 232541108 570168014 136239366 145389237 179276868 296723685 373277372 358006587 557483698 367926856 954485645 816091573 409950991 51887330 242195684 377704952 881978135 652636620 438221802 863453311 116810585 229817503 209628418 753642781 209079672 892084019 306924011 56021692 397738078 266098536 273019959 288732282 265265461 478196378 630553902 511239631 836414918 996285189 448984004 677982903 354899365 364070308 944315451 358766216 332282016 506405315 817816689 122678445 954473843 537027758 473461335 593032507 984497261 213073059 996035665 909768388 866092970 943587545 754460014 416177476 813995251 447002380 903933985 361867117 67578638 319730910 447871094 754936903 780010431 565272573 90445256 670409661 361344631 50214281 444107191 440310623 70399865 422341487 37171372 458658819 273976927 154445673 143174324 822776470 432993867 720871874 187895228 403545309 267397327 122954506 121327659 936167024 878024553 581452969 258126152 204402729 622616742 665446544 563823019 84610799 178039976 779217655 963094803 928236075 530615223 829462219 275450122 422806077 662437063 811028939 639799407 775964835 533027520 364203874 778250048 828152040 29171419 347733914 215708953 537528216 494599885 68482443 672065622 75196808 178629741 927957694 71950172 654287207 440433694 134555397 245360016 82882284 61483082 289348999 889177033 93314607 900494822 624946812 465024178 477260492 522044454 72278999 14406584 192469572 832567845 99718372 307386390 927226118 496531601 28164827 136944980 133696378 704481653 392699673 667256907 864891278 415456624 444547059 962936483 440304719 41121215 23517318 36886904 165943415 182939074 877893224 911158125 496651104 902712414 595560978 534173090 91562037 742204161 346796580 476255599 236995633 328968592 981988143 875616067 226433615 957374024 450764970 271091980 629626316 914589583 215266985 444589395 924772738 467726674 653812837 432491388 571024130 946504355 117326154 527202972 215977016 44016971 826026208 725695338 646144986 953540715 568364070 358401444 997790561 222809833 182868962 253987379 629276557 528732740 170475674 313802202 850691554 77197690 875088091 683341219 234864809 497962199 4144573 515373783 805886305 532086051 560045582 224578891 961499908 477332090 905045292 684889253 989310303 510463918 913415668 949174915 876800642 476320449 90782218 959725350 576688914 935140539 37677743 126312649 873806093 747160037 411424562 216323597 308414103 758384404 825173653 79156270 821705447 970111507 265723054 15657365 619738115 913482635 133590188 498530717 977757223 322118136 844501808 382666903 217472998 290338466 424726079 554683851 302433469 342534006 371781820 372429851 176800832 751682324 408047850 418455468 490738854 60314884 725157005 796900416 935045416 772005176 524228691 155313268 969339387 886153574 128629426 576260177 598485905 202876306 159427177 450591404 951862164 516768618 280330614 180342811 784467323 598768062 677666280 633543603 314067623 173143635 649037713 496731379 294456691 257679678 428358510 746359279 264348876 495944594 739093888 282674115 68450549 85892775 210010816 320441387 966534571 238301734 810157186 315810173 307129843 633491803 293160449 364974756 332451814 721813376 894999252 746005512 807379441 643204217 430116136 552868023 291395925 989905429 384097653 845082172 409400089 72140038 679013138 96518529 928401249 376461865 823137555 337035634 720950679 177343017 872699995 2099057 524229061 298630762 106642474 328808540 958525083 852710775 678517290 593706182 865148175 654396799 61827108 812886732 903009532 968146270 680586471 170906995 977611849 961090937 871660023 850631780 525955224 44118252 848189411 822359624 29908969 247188020 936699943 203690432 370620554 273148880 514217288 398092938 511976513 996890354 915537494 9149725 295110761 987160278 605241368 857148600 254365989 994471689 372210095 687600111 75601903 383206488 477081257 306860161 678221114 227117085 543851949 643379621 628417123 83484024 907735853 965667000 436348609 553258181 717290275 478676423 158161930 229981401 62958437 143814007 864610840 409027621 939315400 443507157 210303906 869518438 822280505 878624016 403546697 593828057 614821804 347405559 670704452 66459564 546402147 478024064 486505770 768797012 361205056 528298966 849878015 736900850 496192163 265966508 313363989 929929994 674335305 363089706 44752178 880928438 886154909 507236864 501054720 673602454 91850125 211179580 331261606 647973335 755104221 417819230 805734365 622449182 856666859 125323091 287593164 371428443 760139814 297759241 189641667 147641303 256489072 806547515 260405836 654426834 760841711 912523885 840199172 562801979 503020122 848443592 340304699 984156725 745447175 76876326 602311746 681090330 687667363 250800468 847877981 574945036 816336069 955101415 386916027 249488276 88258843 727574613 455114677 894841665 674064703 350799313 945916371 405130242 568538953 113680835 832325952 743503012 137560653 152057356 566097415 793064204 359950881 20011702 750109435 357025459 958710934 806918826 569753854 261562073 86279993 70347191 96103881 167653497 22556615 702116271 144318273 270146860 986693094 528847419 49114696 360578660 196381196 623562437 558391981 128989463 855647846 486156777 535506418 613544761 194341632 448950307 63825983 145661581 128534259 635001778 647902102 558003949 390669781 709355525 429331741 768028175 405075425 2152419 276817606 380683512 110392491 811553957 226974568 40470132 846217604 374707369 474169810 592332872 343953148 672499237 78347227 703406778 617807298 734412566 895967920 961971607 455078025 389765388 396430653 114635881 171078720 799714567 48499132 269300029 906618155 879191330 685191516 460842613 174430791 839286326 749181772 952188706 87544863 648035827 8374133 50349415 326845218 59546807 691588573 807729504 56129794 580969956 908485679 875645866 657095197 937001029 226450361 833718510 626513081 445301473 288717692 969523368 875677327 317931733 836353517 491638976 350357050 174094527 73313908 402056179 566966684 337286003 339093825 4064426 12134470 793939796 172915671 25596823 51681918 479690409 639144663 107700936 12952569 559215379 835557400 273922516 331190920 930845019 236318819 371604552 486009849 296830558 464856430 786026226 859401826 122719780 791264969 902802820 536137353 537913124 250641244 754369493 496731510 966576955 754950687 527484962 843077210 972637389 940978796 15030075 245063312 874784824 484195952 963192247 878798963 403737276 515012212 642613936 458283760 40163052 901748848 697298137 6015936 729817623 788903359 790595113 128449983 405471034 74942606 22348511 869420601 301150714 268379433 214724520 165704139 419150555 264936656 443629204 589104192 316183294 506950610 357699883 424404763 509067336 549702306 295248890 506786017 252747252 780466056 755394716 803270479 746493830 770377615 743974472 772965786 548112800 91778860 985029615 46397196 230127304 324610306 681072209 578412664 875783780 310719812 149498090 157844100 871558485 763436196 861325140 547582627 785369234 561499401 450476696 75609208 285674633 222713932 736215493 81155160 433952430 6482293 619389675 19069361 546723092 862888063 561894302 656233141 848695793 57430846 415270450 238370481 477021085 241483786 204767901 707125298 859210232 345934623 284653566 345068963 612414462 406756441 468195735 692331828 859845085 84342896 460204701 518226256 742196536 300332402 739706552 630320090 288396031 683232376 245637231 391806576 955777563 49354692 419886847 201325964 534907833 18490901 33403852 987352529 647437231 586098118 539910144 392866299 835757509 472546503 342102397 465054005 708324299 338029809 149944154 583900513 653037852 691950165 74142510 345778105 29131444 213538948 359298993 143436255 891130083 813190893 514711367 503633142 720289594 59305277 356745229 166592219 55037929 860435993 402624618 107261241 97822204 986585892 815569825 837336263 128012644 172020792 434552354 819355206 896155970 628273048 132382462 236288186 870163107 927082965 989318855 64120196 7593370 987057539 611820989 320975846 361286829 173974487 109563343 605815342 908329071 322558361 144554109 155541572 365488424 383611513 851269938 768105021 76959298 479647645 880809471 166753184 460252398 374304990 26170905 623094733 790773266 310880595 837192199 760987173 950862500 69559111 259602813 808377659 703898746 564143735 587596479 592971536 665475004 147516399 717454475 716302561 679251314 245513596 192048267 665600650 407328420 449556380 697336285 425421109 683755879 33554872 472596640 632680338 982574611 126145237 413306357 885019804 805187682 995211633 926613308 923975588 243094353 321398563 992970573 884039462 716426062 155464150 190294829 37579504 45520341 160577699 494113616 82384088 65292153 172679502 104125855 536950149 203089016 816832215 76765226 11866120 138905712 923751511 48315415 874653097 244719232 423718222 685603651 240087626 237381327 698053598 402306112 817841766 267539416 142772620 267320507 723769493 812002005 396132807 3000285 668988990 987599712 320842291 395501645 302997435 770390087 799320380 384551958 936346250 556215775 841591130 781177530 289515042 224785048 171519491 55928925 990298364 807602120 868184978 678975985 855570090 850768260 835846553 862448081 661423555 65760151 300340038 708825746 589830579 118110305 284198688 326490794 982593128 710254049 570993408 330348872 892563153 126557758 659878739 267597477 888608060 787318794 169219827 874050215 454897112 549957822 591092473 484836373 354792373 821408773 976345170 580278628 457103807 412909778 729023980 302262582 145429721 930074925 900303048 42095858 439970344 439783037 295636293 37782539 481940836 138599663 861063032 565118081 885322020 983508104 676948248 792699910 53817985 754851817 231703454 787603939 719236576 36034420 860845537 845374151 863544289 263489756 407622755 878609529 610826145 653065194 512495945 747530932 830652866 257151951 930022187 585203887 749924238 227252252 232014084 647977123 621209525 368758845 933205657 626963475 731397904 866344604 422115939 947079020 349933769 70388154 135044542 524943642 838573970 149844598 860294005 800378961 243406487 358963076 578989567 542210660 705273924 545112380 665638217 933353327 359652391 192114735 740317199 405300047 20696201 667646703 357405940 604350055 692007948 638125412 803931209 155861219 564243880 175114853 628236885 356634049 23888251 705074446 792352533 746823890 26083232 184209265 449900981 41682822 978510636 988819799 128204078 39898277 755362491 861866972 123543326 271975137 7118801 576428867 309072543 40733089 19902181 636264563 86106906 398271690 44043805 186140037 996205960 89439121 359977211 630332787 108382180 178326099 299746184 731533424 275992991 867572004 700060099 360751672 705421171 188804091 428309756 271961430 597571969 950235878 93207329 634551850 170065843 288877008 425816785 176819996 53486582 290615076 619426182 340235662 466861844 281342259 529458918 270961029 897047165 302528045 576550090 964520664 464680471 473222103 140517367 815038407 634083789 327706330 625886234 910333327 941256779 850069840 96123669 829615228 768873047 52187129 333280465 795735020 954242631 172003346 162359819 503126869 660559633 641373404 664708310 734040743 734210548 918533777 230079855 5178305 945901487 207320488 444109563 616421905 181006160 192195833 373331112 835488664 290808720 943313983 703792806 859449562 982430639 555717940 983056375 113305767 369803509 371212118 534491162 749684448 228645795 252401457 834947669 339419154 409452124 66209722 95187187 460825383 752873538 30010717 789296589 104561554 435392738 366995519 142836912 618839943 795766471 793180303 720864100 111593070 708988633 843840887 82332685 355990336 727694658 597135527 326840562 375002428 500731323 506438600 27003138 412374288 906164454 779106394 643190773 143725266 71481423 422074043 203867189 422627727 168969472 443045418 820780782 296396869 877434896 161299703 191423111 947276632 241293464 902877260 178850744 508258032 74932568 818356771 867435003 874232395 435741626 850138099 827866499 446998177 372446671 7819067 301941362 277597442 794912016 892765217 239354966 137827513 204699272 614755794 375346296 960290489 813352057 388345900 71670609 613899354 426096358 941185795 788096624 270262503 82896290 964135544 658086092 175108632 502337359 503303517 325063442 50670029 83893848 409421800 253942192 170332299 865932148 935405188 159818494 159349430 231560460 100775510 104178007 597129072 45728194 419498826 297107045 126461105 374691277 679961677 590295216 264852855 708429753 508947906 5742911 376959952 618999057 713910812 301998918 448665076 869839410 827688332 49241114 256233535 960347691 125567296 199455584 576194210 190009135 961626190 654478714 203920821 251946832 63145494 310680270 576446567 904827517 267644295 996570554 200505853 155866748 938629871 524074062 468166349 112599170 412086611 821188843 566002326 156994934 191082177 647936063 265896636 227593348 639429335 739800561 715052942 644122413 713198638 153481598 742429184 958643329 327888583 450027176 514834072 659304334 367633748 448742447 973586904 584305271 432421370 841592374 844744529 618354977 844743154 74192187 964310687 282260796 833679590 751535663 317187827 425824440 941533523 257999571 673825466 868638897 449852086 773706141 520657588 852251209 402112329 374011268 299819867 993983422 603234938 713717844 194625726 658133095 119258140 963457316 450858069 718156966 380740060 738265300 248368151 44593726 70033367 330570515 978131457 12421530 324767843 437765574 758047976 328193811 613885567 49077106 229808920 828941990 945942479 528833237 987808571 862061579 68444777 783671118 770443331 353384594 33628729 172852957 394913189 471883142 129996059 725196376 154975443 335606859 97248762 578916429 869896798 655786776 635158996 933374518 967479827 969088399 451790613 295224119 755911734 680408530 224967285 649012792 727659297 985663006 427048891 431219962 496665438 388599994 344934195 522205901 870993779 544643631 818986319 500632029 981206175 514223326 466382142 257172699 630735790 786785835 36599371 179789517 560166566 496287378 336005952 788982040 903933031 331031268 700922677 229826648 40387932 901161873 336707158 859798640 661572045 384173509 437805702 225529398 484044256 515482707 456588165 958243495 334757304 219699400 402002249 340923059 72584635 272380816 569675074 683448794 321426702 35387205 650752204 166493152 21478676 722406391 318643876 448718108 117417446 394734155 460443503 507590049 680038950 271875094 194073675 164705667 233475859 974475062 129160502 97788360 764299899 764559012 921623266 58853030 657922726 918395809 659667963 820067868 10796151 835009738 881487295 613428574 968931012 240881668 978567119 148943617 868148293 26577146 816026790 103032826 550716208 759405948 4832183 479403527 456133084 470596856 543136451 166716335 861915764 418152179 122005852 941466318 528436495 120867435 147626277 574344791 315731856 45817733 435721261 129675338 595332617 519820887 279022652 98007884 352969751 711587016 109819912 381497268 470005639 551072497 165826074 627184759 567614472 801858398 482559928 144675471 371054913 392550600 626312126 722794441 39414078 853738464 675465913 256433876 557565515 311851917 998444285 693747382 349748905 759529749 944145226 128539507 480895322 669567833 88932086 346160084 30595444 996400457 792634646 393817388 120146307 383089270 803752357 172682028 328163262 524294790 19584555 918894008 744635720 379824998 423449352 682459711 182246352 267481551 936405967 506307280 997208976 363397485 700362090 708323996 56464998 99286302 901953986 448839356 344911015 384791976 301534987 373133322 767956913 831451656 827824712 785254191 155641399 219695428 379385247 459047318 610605300 254622165 906048894 762008486 24880547 437582412 986953979 655669271 549668130 301547539 553554591 395741585 250147217 137696136 49325690 179497105 437674770 761342035 862059132 631906249 666046325 859630968 999508791 977223444 136119645 153618034 236314653 267569385 732999607 463255323 892121017 117013888 600765315 616836232 112048211 373486157 778199804 682663624 689481315 455362469 489677662 666326780 451559861 184639104 277485090 312684789 878130422 459482421 570210010 14870778 578131581 197233537 50525437 395976884 62757653 802078551 635928011 83568797 220006418 990957222 281517642 35731230 69502084 12219591 253773688 769822347 461534986 147462104 879773689 437035006 799643354 241487631 400356900 579191376 319794229 650683601 426318998 436229271 760414071 338299643 789654829 230622025 391776924 336726915 185941377 172340188 642274537 321990537 940599196 704061709 369297746 225639501 307598585 90121422 822363467 729396148 417322484 832717476 978137331 121546019 421329128 146474320 270015843 169469593 147045237 751533709 961962768 305071673 495250863 212306958 682086775 124818142 468844027 329754510 893834865 50984427 462330163 149539761 102965761 413096277 153413384 49110309 96778481 208736279 786676707 66296383 86392986 690960296 256412960 817546948 558058892 131205545 366798576 149274154 824243985 768836760 69151882 548468334 322175118 126293013 994196336 682895492 879338382 423483145 851020743 287828074 170900996 937372944 724577794 859117341 890439451 935721953 327373798 957233658 9183703 497603195 597877273 681916663 857438932 180755794 997054205 748153578 76572487 289035336 102454281 610393318 377368866 605625146 590581068 124618113 471069179 112313821 497913223 276539917 178443520 742158860 478088330 516875105 830313716 414118035 529420059 875716136 958882389 559944972 166050184 201641012 956106878 681053364 360154114 780051737 752190920 320937612 550683514 744255071 831552890 419418310 176898132 362286850 370000631 943917213 755087673 747303903 919465786 118046230 849813655 87474707 240722392 204721851 324593355 555541893 574403444 460679128 331226591 949637732 328117991 938503376 621249177 761652929 55605744 38891465 31165899 49906184 375747863 883256267 419375958 623424835 153936156 107660382 290388923 355174971 854874471 557181914 378138853 1661547 116680110 650491292 24024356 494487174 422290992 625407527 113449311 940865878 370840740 806685689 749079724 125899492 55905674 426532823 87149216 749083389 409955092 321120220 448357361 342295942 816478621 690557142 778738257 158496401 75974641 346636108 109312639 263834734 987156626 782142555 881528035 801637282 197269524 210525062 961947686 825901428 513581178 48397526 557889489 853967859 738516260 308946069 869082916 760794442 937570579 464463426 540260038 434178938 423614150 230523816 15637131 555626781 888138474 736441209 945727318 240894994 986000101 666708203 105621809 658739943 812135758 660507515 410036956 256849912 33303745 436849512 243721423 974172165 185261172 419296455 559900134 102650668 425544379 152076886 625997907 876640913 57071528 194847487 107827683 828236050 458733765 70374142 760928451 776815610 802538832 254690151 62529166 593417531 683854037 635364701 848234221 115744051 722507201 494880283 690090861 630486180 977619237 463107463 628083227 233508008 1837572 635451061 2500111 347418141 497320582 772496191 316572895 534454296 463136818 919792932 977292806 26182121 781120309 459778920 692921355 247513414 135019593 28313549 975759039 93773620 272914352 34464870 569019671 929487877 336325851 542964630 584542071 857417858 265544067 105146316 363299159 411390174 99050674 76478391 303351414 691450135 49234001 871293035 71690619 151365710 984697500 55974066 363626007 67519885 130179113 900236037 432866607 582464835 334034518 958822764 22895843 191103032 167574766 123486123 720551321 686888380 17961601 305839300 436049627 413566246 470774642 241880082 431485226 919523948 836317627 667185226 325155204 767342157 770727033 614456584 487877345 553095951 968119810 307716144 30622128 973339564 383960818 7983259 634493828 257768300 527324381 91326675 541264889 687792575 510711347 292885711 201666144 430911118 924640786 836301796 704500430 263121199 339519673 181715625 538422940 705113027 474706972 140939646 828476073 568081754 712489667 33177837 411107483 118652728 486450188 766084454 97420305 334601731 857841869 293196229 442993768 136604479 735337294 303603573 830839262 273448717 209320339 280294358 866416017 42903030 149311056 362073297 700126324 741829968 731608939 418392399 926267998 972678748 871801560 912006238 581200918 192011913 33410894 675755785 591524413 619368269 976166271 220201246 992538098 412445522 637013910 773111702 497189375 215194037 149520789 545220559 992616199 707987252 307124036 339751890 741988176 887283540 254807821 167896860 510892346 989624953 80345698 708832653 147620247 558509943 585197702 681757188 166105682 506591894 608828508 800706783 535082907 716742530 434317539 491490445 829924889 286918737 112824582 721005287 687043448 202360186 501503517 429523433 501284017 196815478 309220334 97112919 500156257 52213685 892910334 708745282 837418518 6333335 812243660 947419639 612277583 634223407 655555831 709631442 433125780 888690815 481457662 704701529 534879301 988690146 109879601 924855805 680084188 18386049 570303214 916790251 428263044 109934134 328330544 484779517 220755994 867648922 634973618 118452371 256753599 472820667 114565745 442349237 853998441 41600614 315024856 330703824 988609802 373921898 359949728 508899798 918496274 509877425 903150050 180194549 391597678 137958983 578109336 13616163 899410388 974885500 458745580 817929400 815079145 470780054 411785039 927639682 882884480 569983494 763544696 66241340 128977921 89922740 912746023 908869557 341237217 600501939 314964502 924004044 622456581 948753093 798152604 592948237 527958235 180833300 434208474 686346389 567875607 839619671 191957092 680809733 712284676 236144440 977426385 60816040 420303370 488464202 195301457 682944460 199823586 866060953 610951026 694187181 871267049 433395911 525025958 763193649 106718150 357963448 764381768 186854954 796789093 769669564 304149874 368837523 372222010 988389515 957372315 479357676 97661903 528058569 62292120 639505031 497437482 849423306 742105028 973492123 912337895 655163152 220461211 543482642 159328041 209050601 929187319 638433388 191783841 229738577 930845457 573504372 896901550 467718698 586288560 1700808 267819781 178042913 952684577 726196706 976079076 502391726 403185894 339199207 787794165 736569722 914944758 175454707 345252422 183940917 19933960 416563881 248276702 307925704 942470063 156794207 384259662 921030418 109189736 714401024 221657795 405096152 182363815 106431612 454869921 99869264 84742895 246012650 686754523 611864966 893887182 723145035 698605472 369433381 898136103 191896092 489009575 733813401 632419318 514820693 927500357 630851907 578777917 314080406 468518693 803641045 619347982 164299822 59821277 161210337 773313957 496918335 731652085 158629259 993435811 422583020 979052480 709808005 226938115 323161887 758435937 689851970 731182653 61009244 626807084 654568938 729871035 974140277 355838886 774795025 306908952 30540775 426415990 945300856 874293767 339737634 924107073 362861644 940951053 540886345 457674388 787200378 933830730 565605029 841826587 470645271 728368643 201170986 859963224 303857486 576557669 557533193 166173146 785526688 534300786 566097913 302937174 901856549 936930993 523987735 853105842 942444398 314409262 434228934 84287041 153459622 811430144 194171352 921194069 94670287 104342372 183517475 549533868 528864290 906666162 68912066 594307101 469433721 598357246 838088417 348263279 942491656 784447615 564458202 516657524 345399219 664948780 566987650 937119704 990450618 423350722 65105473 555784571 843296437 299032946 466437809 996350459 151263482 622310705 286155414 928446394 264677546 474198050 495707595 559278709 975448698 276318340 142970489 800271121 816266929 178932591 65397406 507820621 331071517 407852987 856769770 88467810 819712817 322080930 100705480 526368615 231472367 240386866 851712349 377744554 778829948 737054286 179454424 133523446 716701016 592897381 681371610 801121519 227071056 440302142 446957857 238006343 501223776 336848674 508251138 425743999 809233592 489776966 848798504 111805364 132782330 240026092 434147209 503543403 88075430 409926389 432254905 659186450 113775241 886063696 668934136 368875630 623714198 683706206 239786928 968046450 524912237 585030988 55004062 866397317 71213023 691222415 605051479 512823751 65514751 267117648 464891605 601699980 482572084 501911322 835004944 154788121 159735584 55617743 321238463 484850149 393218277 659860076 439194369 544037038 782381826 29849503 769310604 414870291 633021209 532422792 607383795 872266886 884093833 856430909 580602148 868044657 644170001 16973040 677137492 462414022 784580335 506318923 555794355 768878744 22012422 711854995 551716960 24720130 658332073 20970929 395251823 642497149 65802441 452644271 371903233 407687534 322731903 116831787 646991746 101933071 24411924 846060794 700930504 998989076 439365292 802561018 12231318 104679860 122462404 188676127 321213288 787764664 563548539 320429720 323760233 761643420 314529311 230949047 248280068 425311586 442796569 833477383 78397849 573431813 101955269 752239099 200386370 262997813 59534638 326288741 832982217 704666219 595568718 423937163 434313943 678463885 280284794 848714584 485776226 909698409 302403933 400224762 293013649 180458592 517953585 585527460 838182837 944139442 37867020 480810388 7959959 686462685 974540540 839294824 374334374 231169076 426702334 496134515 765661175 23771248 571872283 258596380 500606293 633686977 681696726 821002050 361410445 166873077 575906977 364343058 895861099 905563566 106293759 831289601 562588791 90235449 72012757 789594056 299850871 405675937 825941957 644665048 424139951 948458952 457931456 576071895 677190402 483877020 121010873 627100508 676900064 102845114 265240224 429642276 790514689 57267760 56912112 59967626 485347837 924328246 894501628 118592419 767341220 143772580 111515497 111048226 568309121 123168926 626905928 287220609 581680552 910032717 546009338 463543961 151069857 298680189 926990400 799184195 532888246 409535689 125837895 98962416 622467198 461784994 360360267 444705152 378522852 502055393 326252520 168975506 184916518 570780788 710186427 395498321 392148304 379282406 861899050 912663935 354933605 935565024 909989267 435357066 934090454 106829781 140904486 888343373 439159226 470133828 968573102 626091112 358803639 662071821 481043975 775328201 204600172 96325677 692525049 601823507 901096567 26415202 585583186 666821466 493370989 948060992 903896395 237811816 824004111 334496265 799096865 730756154 101503103 906698370 226522155 187301865 591374655 35775612 232385408 667212778 103722967 853952258 876661248 421207993 269216887 532315215 406832845 973421762 480215726 240027105 27842398 738206867 870884743 701658719 471190516 277102276 958608525 578453183 164498195 293157042 334947609 272696202 676645001 166467446 507261794 890471266 893994363 101126258 901371715 577430937 482895707 22934801 178460212 325665947 422027281 847682192 924174724 656493396 697634549 852715264 617710475 679674445 277967940 796633658 580192827 629401659 725386102 552959183 931890457 86465773 61945565 9473040 325704332 476088545 27732951 104779894 655548886 81651662 678833094 88761864 394763958 995148211 153661881 985621205 453502517 534043744 946072501 733845389 570466990 753159084 203460231 28280025 828812407 586948813 67142302 812839247 534595332 570599336 315545115 942607537 76885745 946041842 580024044 85870093 340847466 120415238 877861573 936278313 618746372 549306506 912588827 407163376 97557198 883829714 26434466 652726422 657442604 85900076 321900401 525068773 965188891 814547618 881384262 759532830 320951299 198708129 247507177 87239212 907397520 422890547 289099984 888254315 724367276 986581807 362223348 731517154 698238569 325531855 503563465 519661221 133407373 122457028 161569555 461857841 498538760 20431321 783724326 371912458 486541101 636747147 37011546 822884366 650727724 480642702 349671024 156504413 638075841 313425312 807801489 455642915 415754629 706218228 311999806 305025303 358313413 880496466 434158147 290966856 230816299 485583007 654271677 840003424 822589131 355633567 263679187 83301660 429111260 170530085 672290854 365590651 47567972 112878116 613108944 322561770 575392954 337908395 34067313 331411762 242163602 12913046 251048953 653188301 770684698 367083897 224002244 670370174 595914145 166665710 949232129 289984268 258201157 224676743 126291951 575158930 429719286 361481033 981496103 607674498 5321082 947692812 330893282 920280920 689644339 827351399 523044897 851392951 197491215 849540607 823031589 366565697 128774563 673656704 396433618 863675262 471328800 738403401 977078147 443850051 508133810 638679396 19097845 544260331 977793538 454488576 497384763 757461284 295227294 933786789 88655008 904969689 286144790 43541283 275443571 969480991 908634892 806992540 413978594 538884092 681176097 49075587 588327908 262440914 177698826 761334122 11003879 996432627 751748708 398627384 689575918 129749626 187236315 306504460 312602411 418033759 411882295 571291985 160217537 418674350 291271942 953809607 866367006 930720579 364129653 404991022 322964942 523486628 128792555 806048180 58947655 279330843 60693799 933266192 332706830 202900464 36126281 543864057 682648779 539943087 724431528 503055069 32750611 643732981 795853313 832022032 589520882 719372831 2483643 258522085 992169946 265229996 959004044 101128560 255484611 545205829 911785597 163527767 550882912 310207169 724126723 548811969 104663139 858806604 154188561 869287959 126011858 250159136 172179031 206356344 54025064 342663679 564515248 163048499 176417147 566605807 80715392 99342394 479584615 562272663 71922780 263846890 723309431 54514951 494070627 324545937 851617022 557501133 860137306 162885487 4967948 540611474 751935278 638847122 743214179 439364953 306927387 754899991 557204940 760000962 829124705 796558258 217157774 100428626 583547062 89898175 515901611 925306339 173282713 521662170 4730566 178761488 74209672 394920142 538924198 437520066 314428983 786693670 168097175 448489304 480540856 384233685 225790330 855936824 552257734 139069350 336428519 110193265 155136520 185471997 798097906 157129687 189456731 297532145 35552318 46070370 537556105 267003646 533645673 830437215 27087314 491160119 956155849 658819391 395507251 943426456 352343360 500632819 791645600 242904017 814605280 887963984 987811903 676026718 299998026 984594519 705277479 856451214 583759268 966866145 172077572 531751264 447670057 883111205 68399956 131359283 647265728 769469371 797328488 772713105 150963647 109596587 903459682 260805156 586120436 239708986 572732406 409577758 145993418 887635595 538357942 50196077 762972233 910701100 200644788 279104191 507413661 73197153 464149979 976386817 422810406 109026464 278022159 354651075 841981274 600818199 374097636 495058969 699627103 209638016 450658267 890161977 292299548 213478146 382942841 183536837 517639193 470182697 472928446 39266927 545114234 175897339 706178647 382053510 307145852 696619531 165904752 885012881 307312587 996391988 460814181 609203581 771191573 587483430 606138543 575049898 543315620 126757147 378579388 89159364 932359832 890200070 346567949 760797711 932711441 824458271 484167740 382371410 34552968 530089938 243100330 797157537 938624919 655540146 412217058 995303842 865877263 916022675 629247190 660424717 881478407 224630813 303006955 510018309 631290407 194691413 398601896 783655544 358379292 159977839 703242356 503639895 884564343 205817500 647429204 98588698 319117087 15517204 655830327 664635080 988487313 635865208 455120653 457187103 492284994 570226722 838929391 953955083 610131901 761546016 731623790 725394382 611716523 352632931 43189588 270094054 596072357 650432708 764812470 273857656 461209243 702962747 229571920 866361076 60019818 803040864 361073912 914077721 737683929 850555893 343261111 956486359 969375808 70329045 700143974 87685935 58200516 950487261 366056564 308182939 736983020 213151860 214451757 32897970 146309557 5761679 522879648 624032065 258394635 267089944 461105588 564159996 536864931 443086183 832986685 236796325 922093661 85592913 798616658 335222814 372366375 899753544 499184163 176808579 181119924 516918482 540505604 15835053 798689766 180805709 649524430 412469386 882429827 300589823 354945030 153039961 314388480 945375726 632450349 892828636 750558093 138486675 263787185 692326258 203312296 295713889 307053727 298010318 5602421 807033782 544923966 724213351 811942570 850788508 829565282 651061599 437483637 592596002 588543529 48987565 330791063 517273523 634736348 616801474 209970766 92209306 1387813 278698651 228178850 894293518 167150687 770573580 603247450 942522199 581794320 517376938 34152155 547391046 203437123 866194076 98836637 47600289 432326584 239986709 510721312 938882361 70615510 402012091 549631287 942919206 75304060 7380142 745148525 792378505 61395120 756154660 997405676 918360958 418921202 416900518 855104969 200872551 445011080 374681709 605929246 326198756 321209156 648721560 728894758 327158528 633519600 967324868 623930970 985008479 668603121 871406554 613027373 434271028 889635247 841217334 458518728 149088485 990226626 818741016 902481021 248719939 280930813 40037712 379778569 173080181 876506088 926909146 203648861 38170712 553063066 914204894 604011602 205429880 125654100 84136982 79691992 150922513 426221558 144312885 117309000 214180340 459765950 6829015 219200856 459834713 473256736 402488373 661920478 464616875 778128100 133558789 795848750 456231964 289176249 275057445 749065620 367055653 788520936 71262766 635208498 827976976 641746619 65119983 357394069 876975228 479647132 429375963 2500261 848259020 706578996 511238715 622737393 955953577 443241359 37715726 448686848 47778193 649871458 442857598 970630587 857011354 293244775 760912891 701964242 695892114 382412330 898000193 357211568 352738129 621553505 521693887 762902747 892877623 285357233 224105466 325752152 701559079 486676371 462918042 761982919 640378791 801646449 390383151 939615092 193822112 187259526 940989953 254789954 12577935 884510887 722486796 524052705 918566992 484445202 451103034 932725450 653885968 782600640 119608493 285420707 741872599 610518232 629491078 97903672 675926200 645214506 318550901 317306892 11619528 470460726 104336006 995777622 930172802 301331470 389383124 608413358 189396317 151892184 50657339 433778890 38597936 433592378 501070583 863864594 391199169 709910350 754903542 421866622 347925381 265516035 836093113 487042818 658353497 525431802 21317419 339932229 809080615 789230878 923365906 799456316 903057110 445526749 306389646 223943134 528946758 808845512 178641592 224493750 28485702 929158287 713801706 721601513 27585336 538869183 98834522 199991240 854597921 218762710 72845078 180784223 18705021 184699207 951931719 835439076 901026416 158908470 293540263 680810177 294015150 355667819 174259464 633661412 918060079 546315404 876368418 279188371 66068176 807124948 414893479 165460027 724604523 730794888 916100337 962860936 929975505 358812915 283137962 826514615 457888845 302617350 542958744 441943996 980928059 843336434 70384024 921379114 182366261 619684637 670396160 621250436 478351786 484083440 322259026 268407863 846739149 653955185 420581439 40324624 780713758 912040365 389800179 757043277 928124362 543136597 188943670 634110783 360161148 444613864 880543273 140520494 828902937 65045864 956844568 880091679 439370899 340482023 878614990 442869757 254893101 999076984 358073322 37217961 152351529 755626306 676812656 556468234 647292142 528700748 387428898 149631354 872161290 868129336 963213922 367778046 593723257 854408409 807036763 866047166 758448983 716134193 752987686 868602482 93261392 783937993 482586244 148356947 951387090 15945507 746220522 541194285 350790345 906045212 576587229 471630706 269460664 874188335 451522378 917356589 731982418 257040970 469689823 904479239 602117104 901268149 300373539 32380217 631809093 664776479 75061149 800949459 753862790 488795977 752143304 435443049 667519030 301630562 928927792 141707391 654855525 401112525 669318837 325461367 291220439 616128040 196571141 156499902 310946095 600447660 358355506 231636073 789234903 423360196 707014086 561861652 575619962 455153526 148338639 513229540 26445388 576873296 495443757 50395648 256356566 412636653 841786365 618287492 402443600 475736268 753100933 602666826 946549635 531310166 433668269 67847652 490156877 95252079 864827109 328248806 166443161 62800145 444892642 758330226 925848365 382573178 73465239 729373880 386484252 401306233 45951597 502305034 875340664 203476827 709026609 271679367 932206065 533694776 44372911 534211342 780366110 209099051 681289394 261448052 850534694 80771165 573573568 551422463 87795501 377885802 211057149 736722890 695768331 495079926 670705470 105379089 451143823 132298657 670310716 319194837 219963902 507934242 529108677 909989641 832601752 265791550 157968298 810383387 236863376 273613853 354782813 190825183 205344484 408138465 362811909 35009349 481375678 12139600 622250751 345623293 557662989 722502471 909929608 902823387 855244800 42540222 495940532 937128584 653970948 579881817 379372568 169224206 367517024 885840599 300758655 586530361 503861045 618978201 748200413 809050679 774627230 659193866 974171426 283448567 797759597 920552844 903354890 675977826 646937537 857736102 502036099 267833073 760175754 326897960 364941322 83127308 439694039 922093243 361479199 83536690 669368771 786256453 260822294 744978369 840485616 545051656 330803606 3418960 6893660 583931229 410590805 253973422 820692335 571983986 934228080 694004280 462326995 765929833 876559399 534511420 101024266 811402263 482034785 352124876 273939504 162544867 456572951 436898292 380410163 673451342 476562599 836830420 112593771 805705607 419033573 808702117 957473497 926074707 421822000 129449509 973635267 300980130 866538185 556354785 561110504 813064232 336065416 578896355 670179938 806986253 636683425 918069246 291952920 441699422 415349759 263002860 436959014 416417728 145097119 872432240 62329074 578800210 607847773 419348762 761308207 117123135 138927181 657329052 625546991 822592920 894182402 781084038 146174473 608777641 419890993 911375033 696624397 806439233 961913018 874635088 149096120 148968016 749018734 727997933 222326678 518741602 265425700 801585152 662760124 694115492 286709978 390496558 960090982 386215533 363654195 721222804 630727093 938499396 314956705 168203673 120360823 170580489 930906683 366969134 380762296 602275427 915816574 376618664 810432948 152969384 39199541 174795359 146365127 834059487 128314005 652417163 785397665 189455629 634344141 229726419 765787991 448053418 379425233 60508253 452165325 119059306 57427571 215154510 308459369 588383591 50585380 187479181 649997733 760036068 501899258 696132608 465401756 659688603 228598037 817933197 81268668 464107371 30124174 971488170 343987554 623883129 232954959 944137996 817477434 200166243 122873030 1390667 585158081 337626735 419939820 856009441 58377737 641026589 962477646 11568838 222681367 831668927 910207979 967984541 311758034 80066303 730268194 176275203 485053364 152327850 919386499 650239650 456529436 343763948 240349448 307974959 71311633 279507558 660914475 253196527 907083979 140230651 913530599 606908033 869959902 461736053 604391865 637613595 424466346 621541664 432375370 450375840 577638872 450921406 640644050 283377390 905807000 65317096 478689137 244063229 333545787 193471286 802885899 301075033 529984169 27346205 629532203 666516853 483540655 439567772 658632419 42910030 400556472 340238518 329195187 634767587 289763959 564399373 42697241 405179846 914210385 740744184 484776348 729670866 645719373 668602168 62628409 523019487 9422943 482606789 960845587 43903172 776421816 279623157 490588454 309117978 29286080 554389634 339013014 96475223 611083512 481090285 92803949 50639991 820693783 698700595 578474823 342815133 631113043 452820193 80348123 202741963 993870559 463506274 355646644 536550660 457023534 748059749 669336589 168033183 567758876 772234035 920878979 24342815 181065144 721250649 209492251 643221843 689736353 990912256 179363241 727763871 606340397 8703481 414425227 454195081 800107606 22330093 941349756 930860156 609036821 914408900 443670958 655834005 375836869 45048978 120710874 195907730 813113953 732942619 29431413 305667790 688802116 313834598 304513154 648449768 598674620 437541266 339430865 850713088 497763188 270842290 469642524 136121650 94883304 890005047 629231415 478456869 282049918 50499848 205218569 859130401 444986098 992269024 706156846 351242335 615849280 645173142 320374264 759950129 14359245 199635102 611686160 93371338 402561875 482581051 260718883 264372904 789636591 925242026 617633460 804374885 603450329 575479838 123370628 521996772 555826782 798599624 266290986 577459822 912999597 402984471 66924540 230374416 992474587 321989453 514671266 963691272 111618666 543379720 590122031 696020591 327086110 506767276 550398914 546251328 382063917 434141927 691092514 741644064 123177241 100535449 428660003 21080544 721467970 651261096 943127929 514183644 558872660 82400450 586347263 397750132 180887531 869032807 809008351 723215416 725383304 48930284 144523672 811453449 902803197 296530277 77332057 213405424 680073053 412331560 1386109 6090776 971486797 841030179 411017646 92127018 795705581 948102906 264078522 343799826 209127302 230496099 401867674 703447821 795053249 573563105 633679329 878850284 608763982 42773768 984537657 383011472 25922572 615588427 349011586 911639615 142158070 372348268 30293183 97177537 649488534 302769990 138163389 823721626 875505119 250614192 817632011 862604474 959079922 732101016 822425853 970605846 628859697 838954677 642984586 880574118 815758060 441429400 679205467 592664603 812796972 648379608 644410826 265496572 770866275 151275663 233886058 591278403 337294712 195916241 279742574 245798053 675976285 406540363 289169750 401197452 892988076 472076489 53010662 136861967 595457893 810641804 965278979 265486880 700478831 622219822 611132780 41395454 364779320 283083843 540013551 215848078 547846298 290289429 629254935 336833151 381842997 357534070 917210097 260811525 660488248 458803256 784453731 264569683 753906789 578594690 478190125 985487772 333970809 813565782 739724454 830173105 584300665 439505963 721596347 838028220 685577688 27191371 117286336 16998535 829148512 596031739 937149863 780702099 949458660 484435712 632224633 523902814 766063468 978746416 894643622 676460099 392009224 499858036 64089264 769879565 912956378 399055249 556663729 479246403 268448065 31326744 621572030 669839290 231096150 219000704 700683813 747327653 120584329 401024172 200122077 98588207 232144865 414481525 716289967 748940340 746954235 971885092 791243928 708870888 646889973 448549600 85723803 875445923 395987583 618644746 975068240 775119044 708400129 37647401 103020071 760972167 688806324 131417575 908128904 158567272 985449091 992441717 358865349 530338453 606944911 236232515 775408539 414739985 416325087 240557520 898335648 680719908 150064601 353447297 924290244 398538861 41794153 111971089 650371201 629491397 410610423 125252492 371222345 605579291 357076374 131705255 631631037 941655192 782894697 806683844 698625002 855875893 210163488 223338520 467434237 244021479 423044589 748325597 597974476 128599074 387444133 329315520 781113288 144845555 893370289 236718821 409597847 173652340 179800907 126013268 363822167 791949512 373203045 556177086 63129803 580982220 396518674 344575448 435999944 591369453 611904039 674800661 985943797 151561835 787132830 629916487 832449201 827869809 796676425 424679244 619724501 100911866 198523066 619563869 791581172 960438578 511883770 700166675 187415268 773861092 706121438 620566061 741532803 909959822 635321295 57498076 832976359 494044125 150522453 93251483 147880024 648962945 669668008 200614402 737366436 836892563 325901170 591883620 336337283 431672933 480234155 88593248 558241124 528094091 45795118 102045857 90408708 493247668 779187002 105074137 93231069 104966302 344069771 392651699 369530135 476558082 895877323 483090611 639644038 646364406 460857302 429814457 61796362 824099035 884251790 513670724 773473068 780409754 294371319 102838835 999316367 890358029 336176626 164530537 691872729 240367932 292687105 932656446 408053822 384538251 993117762 579404946 217956235 409727950 904184997 151184818 189252601 530258906 510436282 289683852 662169300 442002555 894138469 334926347 663506019 840728806 648900157 555674935 463028157 911122854 873246597 239899691 732767054 200366138 551141569 678151059 483581586 970696785 587656893 507796740 132652579 865123227 853164679 985495414 467760550 356763455 561180373 319014676 474941101 106242528 547674315 237016375 849999222 698898447 961511557 316833947 593895455 745785567 834242601 716616680 487084855 737733692 790072772 898983558 784094808 696076614 775354564 286352756 537239236 702338318 285830185 484344230 98526539 737045790 917706150 301889432 387059858 664101056 632224712 437723105 185406767 504887204 963211328 950454474 564092461 123935589 928760201 999618045 785112877 923740040 65785644 464103891 367224186 851842674 665421942 73062346 595688695 636074000 247133989 396603220 361477082 584818584 375293329 801110970 843869697 412272765 215051449 770380285 516214327 52850967 697720550 691829124 518780758 592834872 556351903 31370548 462784313 73212030 387963701 790272106 829985274 490343103 655978000 643927566 545228768 643735526 995511189 458572543 694126378 734170036 186881299 788862276 517683009 391861409 427728697 566888448 991096200 581316187 940124645 501800321 501180696 694908320 261213219 536509665 793042119 781349639 738239563 614323271 616266248 462698068 909552401 407521934 301527061 368034692 944808657 442000891 352641393 429944293 457385171 295178813 347022838 276951810 113321188 994279099 465033153 153165276 299433814 703942757 234939692 436167417 688520520 451470762 346468873 78884891 480169211 99906679 832000089 834852011 982450708 366335933 718582361 220108968 218914753 476937197 677273622 673312921 112423583 518491153 578158537 429757085 707120516 699834594 344689420 118777590 870091432 637195938 197130427 718211253 741708732 415000280 454746640 178586750 708568324 507394149 522338755 318174594 16801361 499357219 119613561 937726592 792122705 543138807 880435653 197864415 821897000 256158046 371208263 752172365 103061138 794235140 182914698 814810594 344965848 114123136 137851858 667367688 954876616 578546792 98788139 278745182 773966472 921945542 283313960 725470351 660892661 730204778 467978066 617268559 376664649 33094497 381152485 887288977 970793484 726928468 12862170 714605195 823194202 374821165 957423552 486296953 931774892 769112425 618464077 479334157 95516880 648254508 496457712 415586573 585894886 234163154 486385854 56450558 496395260 523401607 317865230 918600841 808591482 731701182 780757815 228721262 877582551 246105656 440960053 104957529 598886670 564831809 172690641 636352883 161258494 816930373 595529382 867902363 398149063 212288410 887959628 758010432 897640474 37488337 498244050 482851550 94594001 366283206 495108340 821471773 675909140 842513144 92472017 923606331 694865722 744548155 151934469 995031170 840252554 907863204 535213721 575676025 885665146 463020622 345308812 449014861 241906455 97829992 802965309 303874831 624420766 687591605 344870337 679828197 536081154 220172789 550181537 920743823 132176398 368821830 41080946 888459334 278819297 629313572 220990676 285018667 503440559 904206040 828768562 5215525 82503710 121103502 497649085 370510640 654480782 445818828 845276508 452639613 259081904 59665043 54616057 47527949 460078307 840599305 396075650 562926340 707928834 769189980 957882553 494803165 87070300 791387615 538216804 250125673 564933667 941167983 358818421 562592997 825615621 810396985 461978579 983342362 749107417 642408061 319184959 315871059 503157108 502258389 944558236 530024458 693697262 346026135 23514233 700076080 340769977 939049608 136956274 153640648 486507389 708709484 572431723 919770197 224851467 537915309 731718389 474140023 264523976 304241885 879949177 398643012 398438651 559607357 848630401 957415014 622450332 117827067 113567450 659252496 300813642 638355155 188865411 971785683 578112225 768297467 670364807 219420548 468231274 94355507 303451346 22174736 740998711 296428333 270017288 429283201 710818471 190827119 848287275 445494111 894065229 558311161 213428559 129480322 91597926 297068628 765544969 578672955 723015857 672910538 787922383 342209966 23824818 4486016 273955462 743239899 710587575 614557526 301398079 930027602 207597097 256006118 713981397 894778678 806888409 555272562 173907177 446966367 719809129 961948805 288539702 203178969 932221378 765190762 824327177 89746668 985231865 156954204 603782779 266319077 585137128 271524599 204223294 511240715 65929768 747658199 562864543 321506425 51191645 376264887 185591012 481869782 771012049 871018865 776287204 620494342 654330823 505904591 101403042 340486807 228842755 726126457 620621057 165645340 578924246 291287752 200812347 800456738 836814072 750390337 446904787 11111600 564160183 557980872 949756451 892519656 347581185 486005230 10326918 86383060 637391214 874307724 719814950 910955529 11420179 685987369 50169652 755909627 783465848 41399641 964796857 259782037 130900053 701642620 516852440 592703182 437680488 471933087 827600272 865777039 420497657 673113586 680238584 491372207 779926749 130257850 198564420 833719180 80895306 6287870 192437719 855491150 556738202 834774310 845054345 201591988 584158949 964288072 269594744 796222647 389803406 361155701 749707277 548155207 144802124 552475314 241815936 341301445 226963969 701468154 621249968 840824409 11844920 942568097 47744743 815622285 451081674 494144187 922671320 743350943 894606610 489210958 214924642 416055505 981161226 314610051 125699741 699860413 353829571 357735538 318744132 270451722 514917025 756485839 94436044 39314563 734610965 785514085 537027629 334727191 306464390 724534305 960009020 447652823 619729804 702290506 268115884 678110658 182908109 947766468 534282155 542265823 685830828 612156733 479576280 96871372 829417319 550129663 237561435 4873741 757936842 955667898 825530722 391715682 516790719 815821625 959704356 794599909 943298430 365220748 388399629 80781905 27259444 715584379 584455523 169516996 82437357 41937090 953191978 219923444 749830476 677728183 38915119 122475617 976128981 401779511 475024654 324299162 553726176 552852703 604306523 427919036 243643876 166797929 306015443 21380954 12948269 332977739 557104587 135820015 802672194 728087970 97624843 107343690 455938761 388938589 28210996 249065065 98580299 720676873 468982984 453140059 817922568 699453985 576018504 162151209 600600686 785005117 170612629 348032460 545663002 656826530 257451218 250352230 476127986 537867583 93357389 610471463 787382736 264889157 216917899 9277688 800421393 744187321 971831267 760699144 713751733 952491227 208581310 469369199 167988954 646393090 673925227 182072038 776239582 224400416 119491999 967565413 645163495 166018195 19905690 809558804 49934109 799751014 971671408 555856463 213462419 456394280 192671778 374546343 484277632 982646541 370066693 546267561 887616723 976500093 814850546 586806815 920899715 287791603 607487051 424826899 879341888 337379116 661544284 885910319 506498948 517970882 884556853 468832943 463080475 157863081 980729516 487690529 669076216 282352961 599788197 25078899 775652600 675568492 388078835 185866072 819329628 606375143 842841716 358442956 30821656 145762358 823035484 187106553 240881654 176707857 297938404 824469301 675171006 861600726 331231463 493830170 740048276 572379963 14338457 314298187 155955565 477729423 935974234 507021969 287700300 278774455 736595777 178462661 995693908 736172679 942380061 195031206 930619901 641618549 906001906 952116399 315381407 852466465 309106403 555593891 220964719 154610126 981555217 91389747 210646107 511794921 913224156 148026777 763458846 731178331 965910653 724736537 355782258 362578334 468351714 397821967 481795507 645965057 603645716 865872834 468976378 96650912 708101350 816022293 493840678 968813877 515416830 372497622 721576299 155932736 395188039 473628679 713952499 943793844 444157028 817466116 19580259 797626961 384213721 531010601 83172020 916230034 330708898 78390470 427433102 468523334 893905732 75921591 847135467 403389625 674605749 771479351 20821399 398425663 815982029 334866910 95121344 481374143 542012012 852148207 355126604 293731218 926771956 456915212 560674264 973764762 579262236 267848473 607143586 66223052 924526482 54361834 457597578 277721334 454109678 326249941 499426515 983891212 692431072 56479970 5049217 494648357 321824207 967647766 108861277 659461842 961743029 207182084 81482100 355858732 382853827 56631186 8961540 944923804 649840427 156122592 987831324 158844886 514999752 305020823 971747379 983698964 376684795 318149748 832283025 463976430 271342512 507787894 990322151 595830984 656249651 597147758 967996895 982983022 434627551 105321312 564653094 874585838 564122515 499804839 608136601 166781336 780840655 935177279 797090440 424318136 892911164 820414096 872084085 232476946 125672956 419160122 500411696 387297551 272021307 809286209 129436881 109102420 46858854 675596192 250215162 180741752 810056273 621274338 224949641 428337162 575504578 7875024 915758253 81394035 121759986 659148472 57975903 929340766 609879030 770695569 526568566 237906415 499173297 363058793 307524266 153511645 208888068 68999139 915208979 603648866 798472775 480040451 289814678 673056493 344438337 170087237 220023675 747769737 716830518 26989637 504076017 620324756 456420137 551026023 521989339 469610715 991305368 329963758 106054452 719225610 28675427 112711021 669379114 227324626 224687420 131876481 736650418 387931235 214212041 185323209 885848355 973654439 236327480 192762974 198635850 213287996 952038988 359657797 149601836 302052907 352278239 451144242 794181393 393924708 452006109 486169017 329738499 578507992 603204622 748696364 938493792 359541102 218068639 793074868 658860912 761318583 570241606 557923536 755549668 747609134 489778700 742732607 894483282 48072876 376283208 943871184 626735540 489371061 148819472 57513447 90379846 32412540 602638743 531165594 624445828 61185334 896193724 884938309 209946585 541137595 473125974 171368892 682867786 669920069 161237058 206702334 727854310 134242674 529060378 909623326 857871542 243923106 701429399 301213358 554684349 810941084 957237057 1203740 489556199 972707093 117571364 93730030 115041054 49626857 724773000 430597738 864703085 716078266 529031603 649212745 179319704 580892442 693321910 874831189 428239050 641757932 147326574 116822453 811541937 337197751 635715206 383160366 937741520 891589172 860469863 867346929 715215774 244333214 208314845 553079229 207646864 31752244 55919269 618948799 488145866 898737236 605257539 851613072 648367032 235299682 454014382 425496573 920755166 856308816 610729410 659353125 679336736 419809439 837018716 715349734 701702018 8522918 165084006 640541430 1522542 215647657 162808994 975206506 506664006 16957359 806018213 602203718 762305555 736188378 215441571 929739053 28507162 848861601 667080151 938857956 571996753 999306249 951362772 330427990 358464483 154267159 78892508 635710722 730134134 58751191 611871609 819799161 226238644 159662796 542008573 692297127 178606821 807370218 32745572 287050300 804625486 414017399 871643154 461804461 657297582 759720595 516593989 387547369 521093995 83800673 96033566 322995004 420419284 359339791 636005175 772147907 924054091 985184252 630735620 913211713 161829477 791013101 679114514 518667548 8834227 255733441 600042525 3824572 141957818 146269508 419327666 264893947 487862325 830035463 295963064 774908158 18343963 451136659 892397469 505536372 464458614 995990437 193931097 586448696 548725850 724846740 673369358 623059306 775307124 660771803 79205762 720711739 479499348 515783537 527431700 417547740 406859995 336541675 447930800 564342634 452056036 187233032 207883599 544086752 846331401 329612509 814552672 692241481 494987761 295396742 533968552 298240620 198013651 229500991 156595615 760191759 958877774 413392710 496591215 504500145 632616789 386954305 59470126 913697680 995400066 647789875 592533745 628641217 60000621 405842059 16406511 593232227 265990700 382658365 290640591 614005839 189008399 603350519 117861139 343168430 268096719 273618441 799573731 797625077 156121032 31585041 452719444 467699591 833390022 985432078 790818173 146501889 279245765 346432662 808492903 276508121 771422615 882738653 299114384 388512941 81282043 933498995 884483282 518926716 888357915 139467472 52300764 862126934 992855396 333805941 235238091 232098950 489291895 404320911 57171687 135043353 653300484 832706419 33660658 113650534 109627313 403261297 757613203 71081983 271070930 967198489 232420997 501228858 817814420 832872869 220688439 840159609 36893629 566479738 877442133 580768467 22250046 828338064 157394807 178137700 30609933 821517602 164990355 829095720 734357051 826864108 85890967 690604762 493283611 74085146 211147842 54969511 725169467 622982435 345750299 593378907 103653889 832724185 146284509 299403348 104895061 571930217 134556929 141668825 603415881 422364649 966733410 367863018 528414934 836304656 596796381 20981771 758583546 807721064 258739592 104735893 540446817 990954959 897302452 609172612 20477056 695315689 286817246 497869745 819086728 480354975 755012249 288524861 368105313 196862388 242824376 836046440 81249384 802330928 119514429 339568187 307132265 200467633 303454416 366914643 815196456 169864601 370818430 560644396 675093170 556188837 135333411 525727076 848432149 444711720 502145880 98149127 9297188 929147792 42242202 574252996 450249497 418965076 555869639 99922597 483585691 941196151 624843438 273849771 255395091 119130203 409935601 848334105 119991112 601465375 795634923 28364809 111130608 611295150 633024017 125526517 194131699 877087036 573191686 297142818 690145215 18109099 531801459 925359588 549323572 675139726 263310194 966384576 850264015 122242571 357960873 932975339 432797923 904458325 623418602 914125731 995374437 191561522 850411102 487158739 837797024 628475328 381339625 844198296 35414930 617669722 922881334 284615670 931004825 764615595 482889942 306133210 863741564 132538530 572678548 727682811 765431955 674640536 51218623 482716080 947181908 246173957 14317854 941539468 295521941 67862294 470598586 564024537 914657661 533821670 675595746 330140520 569161015 303158675 153316495 202843680 464629582 642899594 132836967 182368481 891381382 430504516 796183981 414749994 673013596 226496348 932057720 939576444 132475826 624414401 949067955 873942219 651226764 177891081 81697996 933477715 951611331 165942783 123613720 3362904 749265598 983515429 377044824 823568270 876244204 472544881 754979687 708806988 930444909 676715479 966791799 253379819 162352321 206378162 487858897 204563720 56418850 744105884 855016738 774582017 355304182 192733386 488995965 403797066 846499300 683367844 67487859 428497830 96180391 634938299 402056562 434906400 500243608 351537076 381752378 846250514 23951077 115491357 16527125 673050244 266759881 920847536 925011141 705038130 865055816 479636769 46154235 296056720 499608518 589930890 283835060 910082005 395136385 871737075 677599254 227593819 37974640 846767620 71075346 21621083 742623899 349717102 738631426 848302022 944049124 607401953 427575663 704001333 691505167 840373960 161387039 173685404 703362251 734599178 415485754 729394696 521535246 722509285 541600624 861602001 321718886 923509979 317118443 491024616 111855604 171150667 55735787 832135505 856579062 566238645 407096928 102569593 123960028 206023653 586962758 664756531 381092164 820920163 811350867 238831868 629080630 167392469 200952670 480709358 690911678 218589938 629611466 259876723 377527483 608547083 928452861 173108244 486661514 329826714 182958579 108715962 367676612 820844365 163202919 839158008 799622687 608950674 569462950 360034142 588016917 596036833 896764996 266313827 787544654 782731754 814318240 393347630 216707161 569848571 19778319 129365813 101291537 375014446 994707216 241240706 814017450 625049846 659416110 489960681 404863584 126367707 98995689 763707263 593878599 670608864 216554695 457152358 736265322 271684307 22487461 180571531 585075380 370544297 408094375 923550886 992930141 264203974 24884759 273899606 11029836 617799045 201702336 141269558 169583073 880199361 1880614 4820932 678090758 76863477 727985550 464721408 249672170 184499517 346963926 719386496 683708133 407514312 106918731 610312436 991209658 117312071 314403589 801199301 577043028 305778991 917370821 584959398 499833341 338524312 942043046 627253760 963251654 184234829 718378082 446651879 507315663 717560976 295129147 665051720 649071306 226441937 496918080 185133265 105874079 818806436 603940588 351035038 858473828 594509376 797174995 203296853 185348700 456829008 573918362 184217288 525497841 551101222 48326473 405888278 581892013 821278955 357491183 304957063 343321367 175293714 113764673 191376672 407890053 185349734 764762296 272073609 166812809 91619971 92564537 960310280 673702598 581530853 758563382 11638019 404264087 819348797 747173553 61901288 236620138 622935886 624466162 621709366 952809576 69589158 658238627 558784563 259521974 548473110 653908346 223680729 316818502 99819300 50487390 25474355 421486052 302380996 482451169 8803350 154517202 503758453 22683974 233121907 644153166 145208313 190445289 240531578 228102337 568291175 711879096 14959192 305186565 924280633 901135348 792091048 433897185 480117689 173340399 298162332 618279586 422745004 407998739 334015841 254479006 381786728 756016314 457811194 217682827 127433595 585042834 942497609 548894430 655927046 19286198 829948896 947504332 825030021 137833733 144911510 737268935 852006169 759364686 126496184 12478441 293323087 759617423 982024167 130976940 137574238 313504424 316469076 818009820 78246834 5281064 152937110 292199535 298690023 149850565 541772172 637032177 697533066 207065185 784702614 929043305 434002450 525041077 448325170 790873946 479587713 930674142 751855197 350203313 563698219 378341955 271074260 515622162 260257453 480681860 225131921 222439078 907662755 229642482 982811226 455843397 240418505 255582199 415629100 513366776 172398576 429382586 24491823 233375746 871476890 161613003 68214583 34440000 989541483 249856931 764013985 860447679 453796826 408250716 152471829 989154692 751555136 44876882 265382541 191762536 325554440 461995487 543828328 807698513 56934724 514461938 793871937 263635910 82367087 901765578 262860107 514406149 319593369 110762378 659595358 217953517 162485535 173336894 294367785 806514664 682672680 181978082 114082299 454293693 256948721 280200276 936008687 835018247 648794749 186415454 71745416 64930872 110533931 332381351 673015232 134450551 252959455 68844769 290047729 989816325 264712910 435353682 312661023 93839502 879738883 466684604 706054158 262088627 554881405 975161692 397951777 244970503 203627572 10711256 540289778 824242003 219109906 465114052 878495432 580682371 573012286 152923896 189544071 332571879 683630985 549714736 533040804 583376563 361706173 256045813 159353123 604022253 407118603 547238643 591599621 715006061 680213122 543953115 808643904 262695991 822267412 924020727 18249747 197810166 216838070 999988665 969025775 163222742 641368543 72523769 148342891 682033605 968504137 564762157 326642541 798620590 10229779 775001900 520933337 948073164 118311956 933967757 511555331 706853460 75547673 135869411 924514591 896244558 296553812 630111896 61723074 31872563 771837017 125226190 296378469 654839801 931383044 431179320 825162260 884397476 131501880 81937585 490439283 837471490 864818537 166320591 218003498 672959816 607413375 782121036 793177007 158421676 286685139 229331516 529260125 48914617 742054532 193008172 677739118 394396347 853987151 600178252 35422585 499521720 333537382 798563087 229050562 900569826 235738567 474474643 18889439 502878276 961888666 554521066 241118177 317572425 548746634 584801980 533561756 308546473 881762147 489423423 988707922 529758631 386909268 286151719 292949388 519162975 887757608 579406035 683210200 283727684 148658841 841412624 912601798 456463511 240382097 909313870 866836375 131856132 114033993 248926902 674422051 963227075 982005703 476196217 129767969 971720805 222202196 202621005 492647885 98841348 931315531 285793570 791310560 486108686 985142111 34769616 395679190 952288262 318228091 52050574 759980707 238105448 227994310 614675438 919717724 378007985 45473234 406698359 322389716 669829118 265269226 736774472 24721053 438944462 880106431 662548557 818061735 759471181 895200943 832138370 745187782 148505651 635046215 364421138 33386525 428688154 877697124 156674654 446341244 988735877 309935618 334690144 490620992 696784123 582290673 126190708 450479585 410632265 253373368 220095998 226357538 662682643 939001190 251970943 684471676 909035372 996274768 422153583 361938541 333061830 432965997 244593245 39794162 421324588 938828723 524839158 414907479 523899495 898436705 759406175 493893492 512954289 965029926 228600547 501682525 49550372 450485695 4250667 691613718 4816207 37080807 772651111 876003659 755976552 841757015 794915029 312213232 701006497 582105120 560586469 735650823 168725616 415132876 747973734 906040218 642478749 334923643 328433204 611795242 226189848 918405018 437671240 386152295 829280325 268334014 767162468 885970370 750562910 796527154 152101343 682661895 12165899 783754233 338699537 368805516 452298705 677961245 578882583 93041027 476721933 378867089 739188604 3448802 529109183 836490940 548556400 162126839 994702737 375952999 812939098 691205599 584308466 159380855 245835421 102614380 824697482 986179296 836636470 473335878 254746438 296222625 751098390 575665908 134172642 157509559 321310496 597025189 250377851 953864319 864865763 943385060 946119688 337079733 254449573 691613193 509406434 790883458 307742865 153582176 874613554 171132427 11770530 27819079 320576573 120222707 364046544 79694592 943024586 65337287 763617674 136446985 954299133 232477109 810728642 328184654 59007129 269496358 171314939 825049798 565861451 625487205 181013508 384255112 830379213 626531628 899791744 738885486 404229878 446311348 714113158 785685527 834347717 312163737 161594537 72404998 853272721 936158804 339372548 547843963 745088997 887506185 288139156 397043711 912141194 679469435 216965789 964262256 212579370 778408340 740951094 278735959 664672628 64924264 758802853 448750499 350720836 369387305 746273024 586032173 846448979 918681565 535198075 207914156 108594078 811516636 73771551 379606465 721351171 796438557 964235911 816349575 218781020 244362531 190764865 139554475 962624836 979976692 741419519 504208173 655109661 405082631 323874445 176208297 680164984 35111263 871788616 168347542 518861393 329066815 55671100 816779182 969197679 187936561 594655939 42406414 170547574 190890793 972135949 970021098 636204080 722985902 351321995 627674892 275567474 15836618 291489180 571802652 922707298 807040662 431345527 812483893 323234972 999292233 907768055 653646951 865842263 755113374 431039185 592847984 322333749 704459730 963053364 205796360 256672289 23942876 688816971 476640232 291602839 423365970 454082655 872488009 119010973 630769581 834587717 535323986 381545321 480460254 467059854 907392879 808853794 575562446 702485453 711977345 457982375 384772298 138078761 108856399 205820636 245857863 971498555 834147461 288089461 950455817 597287337 893291872 794570102 224913418 647785018 797629756 732353514 308710224 718368845 570758578 832894533 403411573 255066411 974869779 704110975 319562766 442973449 740264766 714207209 57245155 87867821 924696076 462427113 627378851 83024882 519746371 209874139 886084520 709229835 618576527 530102528 377221456 44333766 936899352 930127537 48182696 545612915 239139028 984171448 781746432 872582460 688198519 379369891 798095097 175525468 356692772 91310927 717864644 764151228 158348705 564572025 139391997 744053329 81320745 347746078 327036670 887927907 239842564 744760825 15197239 547212690 102857353 185243939 316292814 920362564 210538884 131824622 348105929 81711868 94782757 988870714 886544796 557493862 323188398 573572224 390120056 835843856 303274919 419284465 209498549 71949951 777565250 173807741 604070080 635165425 288401519 672937398 453801238 98267418 652693706 378777843 827241143 601439464 416098179 983819247 101316412 313018565 178761532 773845721 450773459 761335212 851907565 560872999 307121700 493186076 432284007 431605890 537621999 94277990 826619484 776472085 804659177 937655819 524404755 82089629 342584657 967234908 258503312 350922543 187435542 745493111 760361614 310897016 608770573 207560602 485526097 418646674 739793991 1782825 946195430 766986734 168588500 104323653 172604292 736583241 918950669 813174757 337772635 525129569 127488590 69446419 106310999 393371176 74090736 652648606 965706528 261568856 525826221 360666016 834892052 992930836 13801667 893085013 65016714 578658873 826706398 355880286 737272572 350149616 589193597 121097665 783228828 591821354 828951199 98318142 43613970 273861876 745927187 225935503 700500216 618481777 155091761 69444619 290923766 151515917 843083235 215190056 609147936 664381338 233306674 411273440 918670384 127888965 153648748 907303496 523834958 422336966 402952855 847652423 747680291 473435848 254533903 821262305 524779268 124393094 899985880 72070426 163092002 386067512 916543657 473531849 978508040 509129543 724225537 26256585 97540827 854039553 271145212 186000124 571479949 687450406 803562264 600602995 766667022 819357239 552276772 104779630 13825928 383344806 538248190 952068885 518002807 459054670 897576876 961425959 135420801 673593049 249039996 612212317 630753443 568764604 75935236 474678573 347999930 927127408 74421041 903552025 577246577 78679817 742155917 133749253 843119501 484746126 722330068 878526307 297601431 223153004 345342544 906125141 743371671 671177512 868293269 76787388 977817937 666826557 487366191 488888100 389289177 761035363 330952269 331350788 894519709 187539441 466509607 328685226 3373614 398599938 305804956 716936966 960441647 180984631 565910392 924883170 487393828 347023177 317582409 433978944 351291359 255098172 347346534 519954496 409235843 733847035 612248096 740770743 604896997 34261308 955651667 784320610 853709880 234951088 872216841 256464624 218886460 120543365 194174254 500955493 138969704 895018795 528705674 870962704 696471201 496012211 677813251 583383148 843342937 216468594 321181062 344063011 316227944 529328714 319843189 161254376 337707331 940800482 443198647 494902850 329087504 316022403 491221363 685454356 366627825 364499995 415737245 697252915 27050501 553328295 725603125 650530129 876748173 707717288 247286861 339957064 342045570 14078976 390306525 911690079 779673291 900165520 653887250 641905177 990464104 880385358 312225861 232433262 117576428 416704335 514098864 541996887 690243778 394611282 425779105 852323367 491130755 343552868 622310694 574490914 335275622 166953079 271741835 412533091 659110147 571190007 454508592 120399050 867456439 566865041 903701794 515666958 648693410 811905881 627533947 782134380 867432158 506939284 736877644 829604193 709792150 54804458 741116832 892949936 873629961 161299690 734366803 342294844 889004449 354282566 758410641 621024941 621454222 667882695 881927455 485115046 684660664 612260198 290299419 116065146 329590443 375319647 762750065 942581133 984980069 422784565 228235818 2531623 519728123 184928729 524123793 880708493 377644995 656020587 407471820 722576531 984441971 663745816 66940894 372504295 639721452 360507807 371040452 603918103 478564866 897907105 588917551 470882889 543469646 705431149 276374319 163082937 565934308 403566006 667606121 427825568 458727305 831759142 613544572 544131862 494234286 373050869 315998378 66931069 304092758 125540498 514412369 464997112 840927318 85881840 345253759 877712338 565793546 811426988 55737818 667788906 676145961 895850971 224834369 455852063 654888670 350357265 54505154 951316637 895197054 204258306 998575349 254346494 750616355 591422320 609759847 819004915 552889815 808613834 712312111 292990513 539538413 892779132 712875968 782169523 9599663 176476721 284730373 706660731 766554853 922833105 168293435 794449923 872607749 869800903 173369552 775409664 922781076 313413379 935022214 18492142 867680230 803498764 934388227 871534924 4060508 470466805 383436807 586157933 195447193 787097939 60298567 71837658 931949512 73327765 71852771 84972135 632762141 961407569 600900409 629879030 840616070 710034372 135823981 793068109 946487030 766328540 432846996 741917086 904852255 533769184 92767709 462436617 264013764 328158289 725310439 306650799 695095087 433205329 832088360 73988812 379785172 657880000 407272334 184676075 203441192 549764794 539961857 978974357 742472995 264470174 213455316 9819482 627110271 347811685 284896882 520418729 937868609 322156991 419691824 820554946 785285849 514920157 716020100 823971878 867235871 913128284 363379716 816695252 8485016 954890548 838658368 717837047 846403738 720948878 179439902 477079138 63200377 607979871 603654863 240646100 467720067 841009249 44147106 136786757 669454864 649474000 840512215 369350230 102842119 776945341 547244173 22328068 762960109 599224505 984014070 988312888 222140478 781465132 593590559 892230267 844780896 13318075 808489733 872835615 482644845 979171812 17324265 296242688 646296360 771548346 185791771 235310631 501891373 396171737 419230557 4180970 862418074 47387208 917265005 666810567 42415463 475500894 633256711 593116777 867778910 332174245 2407048 57165340 656420905 219381713 161511878 244679001 45222485 692638384 566880274 62949944 639909692 555417419 524672275 352398555 165549917 913714791 990137771 84934454 686011305 473899043 987389320 363024759 372462975 62567353 660547219 774604715 793009619 452995100 271881369 971497020 849587362 216604982 701287389 65477970 161533849 602116680 379337443 991025821 652534297 271492643 603792476 122919478 692800224 40729087 311424483 426333064 636105490 761652247 824072283 543586835 459831021 489257831 484912924 182372280 529623171 143143796 469195242 315089756 447750221 603006785 938180244 507816310 156618639 478761827 941765279 700201666 994288788 926889467 33058785 17738269 471545659 276743328 805524491 562914565 915770191 704302272 561547945 569305450 232349741 930385658 461904318 345009316 956635343 718660348 238196115 839708581 997755448 752096953 273358520 596163271 420060431 376098100 360636284 571092462 734417223 849810790 311253965 147121503 294490162 474560953 401581752 260588773 281471531 250257848 293129278 655912577 766250860 999025317 133301201 622199313 286770647 812542064 201501820 532249713 306687378 283242365 540350790 387004289 120264232 814715945 416313839 345414286 173518330 143828290 934551496 744217298 99799731 552893571 734920389 134952002 613630668 180720154 327134723 17700455 802569459 855770434 142253444 118114527 110910790 993968501 135600483 442819461 230509129 238185781 871364741 266397772 20928220 529315028 326615886 279253199 718049252 123888200 36710049 611281036 221882411 919182467 694667308 705860456 407044525 334851326 204682536 70439989 510464960 694373186 557166242 998590530 451179923 786637579 633612489 68795957 946557890 798792949 89435254 828645838 302511310 342648831 817963340 940016921 886525330 71515942 152635151 92891170 711619604 846446743 614084086 13371489 109899323 498186338 18468987 441651464 413770816 64865436 89977733 614861594 934436993 170389502 858253187 398851633 632434210 902336531 481672674 22602072 848170322 720341112 254182803 385816409 471306837 439749066 236173927 542000489 598670999 511295822 436856386 733798982 920800228 911663095 117452765 382488036 8740594 859629617 440836922 58957697 644556286 779151322 670336220 701751648 969406424 475013576 425709808 23487477 569213157 699957923 68785029 55783966 78007688 419363364 104816853 430644807 797668239 350951477 312356889 471818116 703683140 677428519 531130960 330138566 687638972 552204018 771418991 350498263 391675802 62520903 352883783 381933418 923006581 298338992 782904462 876674103 904067162 65728715 801127043 237663097 137081473 113613625 865144701 693668855 858700048 561076432 204790467 358245249 533179008 186827786 863882990 110662017 985134656 427857739 925470669 306949827 882433194 758734806 189105525 273537758 568442383 27659728 926223722 304242047 544336493 331083487 109394791 542939106 668351082 880840736 890302975 233895977 413793387 321259200 375333465 366708989 342541791 842879865 941285973 317311359 261843517 191690948 403784050 278938147 900366486 773365552 715748590 403656864 498811542 743311917 135688675 599032806 579558477 388714788 516823717 178683737 361652988 984876006 608856058 397259992 547417309 348917205 263149864 696748614 719327629 723656934 722902372 205069942 952389704 920749575 744936278 285360827 604049263 30432159 347222460 106302458 949799740 191992999 245404745 858899270 734617008 131265050 277833047 193497111 977644047 646254517 497659563 714820566 171161992 222424120 782075543 442296985 140306594 442353155 730230948 28595369 261784257 614501249 476009879 217594647 548399102 626914657 322352292 423138463 452994128 847223844 297783004 103328466 259884370 606004346 181979412 193394593 469672197 737829827 911795498 321649076 423425451 560109550 248954751 533969070 592375425 80565163 877596978 162371404 854669815 434088144 825770341 900516827 294314574 615559467 387475350 111763866 233735224 166276412 176036427 312438411 616134318 81027144 233512831 381925159 744122817 54054083 916480125 287696375 529595476 428478066 919706625 536917539 445053680 221979220 805460304 971716902 780711734 372050225 502544656 162880122 177213504 872247975 433124018 6404099 40873262 957177691 18384794 958037801 85700310 5867215 160229965 829371606 866161876 915141709 503687057 137363057 426451973 82817418 79483665 711186396 717235682 438608093 622931982 10299907 600446271 8990516 802019737 240032599 890133947 996109300 856460573 201850505 410688562 383590144 758249141 773971692 583495862 884391981 387207119 412483938 137010849 699351142 410244515 852657844 259034436 645428854 291061588 778735506 36104565 80666574 224636396 603431724 219634274 186733042 233311054 164310459 754701468 737841414 818571198 16185041 435643307 908690862 186975482 133291300 13680541 420529035 675822843 362200647 870445199 891403961 400547945 551338298 853295783 470583184 17380454 612511077 199617899 30626339 652608124 799125843 608530182 520866816 640419938 346627862 874711161 31910363 517551106 411596247 475820677 339042848 20126148 833970920 944957102 679963385 148215050 379776193 582606396 504133861 876992127 404559409 325020682 517171749 473891161 441841443 466007170 307123494 758886490 878898459 336857791 325672768 696185286 461269853 12884440 514599901 332590876 724208221 435502414 424359780 883897744 771224943 342579752 501365656 300948621 792361523 279267920 834604589 632114796 173885394 246004407 705485098 829760631 532552138 856656395 90201049 774343474 440763439 69243077 272511449 405320951 539255615 390695374 874945344 189729718 255904485 9583094 223531303 607193885 711981517 325772463 397908786 387922433 117822989 23393783 142563647 180850820 328475083 870349545 141284094 955991289 903488189 19730897 487820963 749526035 545786577 322884165 635863466 736496074 330268114 629709216 630991528 325416923 761301187 376218966 175620201 970409682 973061330 333164874 567527109 450317600 24190352 886241164 237105204 202839634 842371261 883546576 662600851 220496459 341612524 62938370 461511887 113591194 856642064 506275157 159574234 697150847 136647974 382880779 369520856 264711118 388018285 483274956 652054759 905070405 155753139 552672457 284851340 626295737 885306205 471353130 462777222 235929120 511625084 632438274 980044376 790910767 824720753 3123984 450640980 306659581 552169654 558038200 744052169 427311327 980063382 385815219 71444788 260730451 766790626 728525563 172361746 201514591 222849750 459610226 489726791 38941342 379329767 247365602 378752787 728994422 493899668 881955564 605263811 418782534 760695270 907358037 2193167 921230292 826526230 977445394 714482205 327930922 914710475 138574291 310807175 611794244 511661357 886137837 107535644 164466781 261955796 237521827 926001063 379361842 743797574 731318042 181910186 216278821 795093365 557459538 234093751 429180566 834142914 290856413 971562365 432694044 34072972 623649508 257753211 812316957 38949508 363825995 367527761 877814950 546203621 418944271 40960977 118281983 691599143 894515966 873783607 249997178 430125604 329923661 563379541 853720047 869706333 129603417 89636487 710811828 317413654 267366728 894687993 629178004 380128251 786871522 492674863 934786541 53079189 207534237 670632487 390490974 417279773 736257285 171008227 460798498 88086239 638989341 938818011 675179407 292347356 673816630 255050106 320769701 353305567 794276404 49072937 240721312 499792215 346703866 574771261 391771891 682080954 384727770 674584542 540326707 423659778 820208463 89834226 10377614 787460889 895016589 45611998 640150492 757710610 845303828 253080166 388063448 796953646 374699424 590127734 164774784 432468790 582939021 483070029 939994401 319582897 718376916 625729331 995613790 883428203 65164168 534541489 371788643 474975171 343685113 272010627 143955618 186438779 540382223 195617455 196649192 304094299 915297329 560883844 252032864 149940040 90522997 110700378 278687079 405444183 672469035 848458100 542176294 409407872 445656970 997736568 428791583 833552705 293062723 553094523 237608243 503476695 563650377 517524736 371612754 296010028 600417916 102476535 452281778 877148315 563057694 927783156 594568880 571515367 380671369 760589222 324570107 795574309 32418465 933143821 752263223 870133709 296959910 712105251 194561904 932862325 835637524 213427404 937417511 124387134 893638089 565391920 915766281 882027091 458008954 365809140 767169778 954624373 121045378 706634213 440890085 565535640 522578557 19619820 380073580 768444086 708350199 876085972 455532013 470794617 836989074 32619833 792991407 270036153 171035929 86136381 707487762 63464855 420623834 449128661 839759287 176493279 561337687 168837171 226712125 936418490 629524287 735086906 303412976 571362936 721403095 597012846 8147827 341513864 234070330 126178080 848854226 137546364 454080568 180342476 73073744 42053481 661117703 700297557 324625496 911232516 12250555 625690234 894128791 343334156 440285329 355120843 800859593 437982445 931643639 4755693 663353953 899345945 632964754 172675428 42843350 805530373 424354155 564369763 523183397 832476076 601030090 532614231 422471705 659986442 961937338 179337241 682347467 48958761 409483851 579118284 13493750 920264990 37423739 512396243 725719458 267654267 45717006 798566298 904895400 892786215 914644095 263783534 95070696 365996761 833819517 377446759 775135431 113669541 317607645 739747851 773330076 733257498 408163886 70832303 853327098 566182644 978138910 908664153 583545552 864635158 646640596 887875240 100701928 944480973 133554834 313488944 331912662 233435653 567645136 153122024 213829498 886628756 187444391 241102524 845907482 251124668 553405976 960136924 172438858 231893021 217980065 94375002 89246940 8745898 180710476 553832573 342450425 72887881 807015589 783377820 4425205 361171053 307025955 942256484 654016069 59022126 840422210 46545897 102378709 28339410 576769522 736508570 755911058 693911470 432569000 231174574 797265927 973913693 218448559 614801679 841775746 561235670 626681406 778755600 705905656 42204202 653307110 693899676 837548560 10740249 191432485 919681695 849156593 888290667 547490324 754654379 211121396 150477656 661387829 475670495 496516624 4013798 631014733 75053120 472639614 252173733 694768813 512227062 873706619 517924129 557841400 94091253 3399927 649662703 347058195 78257764 886005418 961249113 461908171 858678450 797238571 683754907 638333395 35561052 909105911 363934843 886881421 755336601 439527589 949961648 142994017 33426321 512882538 669158237 957837534 441554565 253804462 770765365 751475889 267119532 414425831 252742684 718950097 26658492 671123751 308348783 648368532 514044441 562129058 888951753 983558800 716584826 960360396 330732143 590429617 186742935 704231960 890598035 947367215 556118727 350941741 443383655 559601822 603759260 897131883 256037990 176264628 336198756 911187298 859823708 598280837 451693841 19172324 800749121 410124275 642956354 259748425 756238824 814124684 242989683 366172456 617857450 374335352 812987861 814813271 591908361 91383906 130670410 751775587 837091003 509945019 165008170 531718377 471928552 305841578 581937905 934522352 388896051 519575688 416201655 553793188 864812402 629622676 434875039 960001359 132446605 6365462 493117263 759191409 45385791 318978074 106198218 720609261 700751691 985412144 62832330 690954418 330329993 288008217 909185009 913101617 603627852 118971247 581224578 812347569 636069991 200703038 782984159 469611432 869764860 993737758 339273221 824849746 244888673 758163348 234348813 477305538 87365975 164751776 603198280 242514798 424507975 875866945 534684352 436488574 555633552 48125297 175033335 890754489 293879534 898050129 525725946 544373863 610484792 918742394 785070903 343791648 41594422 964455302 117587379 240538307 13163114 426208027 613784514 975362966 918147010 645423030 27468802 429842730 44857918 153782961 564994434 216847288 492960022 170116932 347172193 571750796 160957726 614467015 388566800 817022613 222218781 469615038 756135404 770700375 684371413 756064191 446427563 539976530 70713948 23140750 870633854 8384145 491180207 973058525 503422425 345280222 26581724 729635452 324804791 789337695 449760624 987437245 871374100 38281762 737973520 247935274 393339390 143952792 663632283 534810682 64619382 704516421 102621036 562872690 511199488 665425220 233670052 41523958 588919898 154421632 246422139 912051108 610830320 676024506 692080498 133468327 23554871 413880792 344342706 772557001 49600388 492418768 166209428 598181509 800830135 355781961 931075042 44042940 907119122 519363441 244174928 812225877 560089573 137041656 164794803 546082380 496074843 248406454 382879874 41215512 170720427 970380744 666835164 489047648 527825130 396621965 62798599 977611178 270787962 275981159 653687894 149537503 242516096 108733068 514942928 448363369 35428020 908813445 559978405 915703800 429223588 629527587 711399711 828628778 931746411 101959808 366542020 307860693 3666394 989894011 42124169 326151662 436043295 180366262 879284821 105352658 645280472 389403477 708796550 875452728 987521248 73280661 417534464 612488360 472131737 433238922 822698566 193919095 379223200 992801989 782097049 134076830 975487248 746487931 665244479 662047218 410988902 984778154 337109666 966808968 42285026 797457673 77845031 78134429 875805088 485409365 360555437 741370869 43223206 334906587 315482553 580048874 356600954 304431779 536649552 707166618 810138976 757544913 77019776 763211165 538514439 891052654 682636856 138385918 747200993 409540644 229045170 513672448 336893686 518570196 466400833 658236578 444483761 107423887 636477715 288705420 672960920 993071507 643275219 196719128 391675193 456750328 527942770 20094677 992871562 36223838 664924504 654477472 244042046 396724068 932019170 71518777 432291479 544972144 369396184 592840305 208417078 468576409 123984742 26063468 218668085 256676004 268455392 550527667 838026386 915922969 116203594 172419068 724025797 740876307 779217039 416429728 67159701 569605437 235291984 87488567 908559820 578024398 640920089 142937294 188958301 891182966 563284667 167247978 987708205 75599074 89240159 133088298 732650943 636637046 580031634 513971795 376851750 54123122 396490630 909784311 401801881 458963341 97679971 576689012 219723388 189234277 571362418 135067201 203113668 940779076 867917744 547247542 286755141 536736259 675260696 223872263 654556669 349269818 286410207 843539976 203969237 682393933 116423699 250444512 576698490 563384249 769380035 136586444 930651516 82512429 576408312 650147228 324160905 551553997 233714085 966930002 832913284 140517292 512275852 407024359 822146378 693546208 392746835 761788063 11998499 20249496 264697949 129671581 556850604 471634067 51225213 614594632 480741192 921438903 784981512 196814530 279414731 295674208 293044659 686253294 367684642 480470853 25219397 22679029 919114326 445491318 173539799 322537259 887993391 937539520 637720674 783775916 549869458 146107587 765772587 976109947 854954380 502246105 887470867 291547033 330943228 847324332 730451163 17570551 565103709 560259385 510097968 485258442 42291635 187694742 993453490 204140960 931723364 9439347 157096382 452983103 114425220 726417943 501456202 918192330 124019558 976609322 915020953 966051224 645697708 441436588 187439287 660741198 307956587 595728963 271693359 574538437 331752759 876777454 862094428 500119584 336191114 543004006 690374716 296872039 816829783 218102885 108414533 292216060 761004116 257319588 508184960 742560441 242345539 247870233 680254370 612033452 950766562 229507294 922513322 520060994 801759201 485152111 125752814 653418618 797288189 971514788 94441192 70343769 811479155 58808460 84471873 682056834 221329707 131975991 639580101 660256033 985406552 941075667 596300410 111455555 959478843 194407737 882561528 51656517 940967898 341533723 878751415 122359738 602028895 759067624 422944923 929767166 788671788 394055865 908930266 597753789 557981722 628725196 627567194 915330589 956430491 35659579 189189005 257905716 657084904 154956045 276742650 108536456 951441329 397461218 606348645 677198376 656260871 205221187 323438995 216578340 283135542 280412799 51733467 980768173 957076412 408260891 429134391 501244832 58011447 336460542 15968079 630480085 911785894 54846114 519244519 283420984 105568823 814360951 25628384 189697475 352554711 726311443 364092259 380182779 715265647 941698521 924184925 668858689 983197811 746469097 148197515 737246511 82497940 431356617 597196145 200232908 860782489 34396844 983098634 642188477 795395260 175100262 770168146 84098081 705629197 327378941 718313125 430287173 305083064 748888154 763787194 264957813 765100135 25516642 215168585 800566445 486114191 624065401 82698677 948849963 863572552 807143415 905286116 283319669 147140099 758608647 831445773 263954029 717518792 566220113 683339328 520680642 291115518 941203501 382944043 484672199 768268945 628365938 331241714 944295853 618661506 756401540 835210892 170074479 975980660 269735109 294440080 186590999 722555929 232415195 87772122 696486005 605818315 72351591 866289798 909144314 793328836 4394145 808396467 189984336 13448001 782344463 679443770 13961994 417948623 237611507 772301500 737523170 142324727 716542803 306226310 147946957 785828394 46852316 194169497 155279635 696155215 816422427 737943574 477242520 83552236 445190259 331433114 458572822 376379487 235452550 315043620 235661825 960492583 518343427 667882838 391439253 572150870 958324385 977448314 710994912 100044307 42302086 925737271 577625019 296470584 918708848 144689537 20557105 830263190 609838343 373142911 280600886 559010550 575521957 869375362 18859461 98374530 955249201 612885955 427520163 239440677 400596125 478790150 278651836 408875956 518893659 277044968 734082988 174280404 336980903 35412450 704989637 437475414 926054689 400633908 890176287 862302713 994359039 754955464 917067425 373693935 793652184 941749654 639013024 678947088 420693003 792437970 648544729 285408566 491289421 127987531 814249038 239771672 75705588 353059699 51579478 722806922 374733465 550834836 728005080 872083647 913131823 355422068 233176603 892010068 207346152 505251602 323210685 264794331 583014190 648098586 578824138 74935945 658291945 327425682 396049886 946238954 456013482 784261819 465561079 922017007 538554441 884837110 993108863 702810473 704600468 311639577 887003925 213887433 808832448 988692436 79397256 349541175 714170506 127069748 543066251 821033659 461668897 481773166 758353199 914998844 548244064 940781821 728794968 581193662 251350730 85018837 537629003 456877982 995269681 963365673 420060021 740231470 53664957 427214804 935603591 656395783 658028993 468921006 899235011 375965636 796616543 973619307 917742389 152295066 657172128 28602525 431777312 567116771 912531479 496923913 560475659 293447234 68929371 549386227 61308219 828951635 837886608 376093694 903350536 93803523 191812913 457449786 6930879 602224061 46867545 254450861 751088161 803682813 777895781 112040182 653648890 353687694 618674048 654637920 981386419 680755640 437788015 718747319 18529395 699277121 940316275 2192825 157461409 848138833 771308835 666655297 340591810 435465095 132281932 915857753 250617756 887728912 451958516 761280729 717201085 463644345 812852932 741934563 901472361 332630856 997020768 852456670 226959933 986523190 683686813 226578672 509017258 151173684 710240534 21337724 593427228 507465823 278426015 716532801 694810269 185636220 390518600 962158929 511175699 326915082 600335395 42270118 793150302 435430798 534524816 494633438 530930732 280075782 954317216 728115390 301785354 944520275 720517081 424904644 650677598 469992690 245562761 434164307 197457830 610657076 691636611 296424805 77358770 490421794 187066229 946599154 488217380 683473296 257818956 300736189 100431243 34564141 357262413 166688969 696801569 780607435 320383063 87400711 734928710 594522944 723576265 445627332 96313845 706609675 136306716 468233972 526224437 811732490 193575764 498998823 169588083 286310423 730309332 235853298 316553420 830774393 919508272 587545937 226014404 112913634 577260410 683380521 808531576 886582407 942901370 330113898 480902927 65486338 932300784 144353050 357034831 261233549 269378169 578836308 552113824 167507687 777587439 973862970 766296544 26936572 770855590 409397985 707215652 335947610 611812235 787855173 432135946 982693908 235178420 857358570 244147294 954566539 465309102 410120032 635137152 559395133 482682046 584060479 508460989 951386364 987165527 211584952 121779812 729702191 369164818 600097065 314739072 391733752 993305048 804203823 524698669 307610656 178564536 830321608 695742176 492931584 478128305 98784184 582730951 574864077 560319015 431632370 918783830 10158614 919333547 198811216 73214613 547953024 642596378 309546191 571524942 993951530 18828234 94827774 237268783 957437572 680704609 118445685 350590077 579322581 178605498 463319675 443688676 123105476 656186971 410934957 722490802 772009879 158647926 514741994 408710241 131240971 604277099 348424898 512106819 516137114 410148012 813107650 403214971 688981765 922855777 825371388 689502596 1091971 478635230 190287983 328184782 22803507 299841349 50808209 76271156 652107101 147163491 290556955 403268748 902094173 402288971 240158386 211756706 483384526 149074 855182416 390040712 621602324 318382094 475723034 828947694 528361868 865261863 746999720 743174049 737028496 508192620 65665391 354057199 404114507 480328885 659452950 816514448 482224067 931572540 832103788 302125226 419632953 968629361 716468029 415074752 910952464 88700420 565957345 378751106 863576895 375306814 457677991 159010453 181867165 863948782 976699782 60579203 992830834 428023366 975191906 45879698 643457615 389751390 380732050 340438491 749822932 223794703 438857688 79214191 85273146 560560547 600368035 944863373 296671161 945373541 995014557 506841965 685032193 945307002 173103962 681891120 294335716 353005033 340450761 917454916 153584696 729707152 493642172 127937827 863324275 584421530 635652627 726650184 867914138 927305494 811710684 701874522 407307704 217983599 70142423 751297592 646523915 279607745 23787916 224609932 405029946 370380919 675203241 177903585 825430864 45412439 598747766 36276875 421811437 506914076 799060729 541970882 953108037 499644354 40691624 936115654 184945148 277263026 978738884 242986684 938405251 683659693 458648714 100768643 494848762 667973057 457495704 310268560 21824335 42332788 300739459 805236679 326297142 921146373 885099054 193843270 711582654 868211331 855157816 632880223 269923308 500217867 432173164 960986482 718950585 615296758 728637325 470775088 940140978 583061060 246429273 449415228 775764393 315464751 386973368 213194375 871752330 535423384 305878610 248187033 594946188 422409544 195451631 462567418 123111509 910275345 919357030 789493430 923541807 929637126 870714465 355642600 589089399 133406446 998521497 931867412 354291635 416310313 247889020 552434145 809534483 439266179 435010112 111853626 469169669 939211339 572384698 683175438 751715822 334874198 247285268 794206086 802589139 498642070 121133111 98223537 180618926 305726988 546994818 334999324 38296113 561724114 684290573 173951700 147150144 751274844 47120563 311254763 438750133 324959200 992481290 935103880 971104711 940856838 230425892 576011246 449332848 114939621 856382218 200964630 408267241 990328103 269238003 375064624 432535365 19519242 464357149 108871168 542792772 653870752 310208248 261448154 135526906 647184613 659233332 97064627 53009479 759486918 786417110 542873901 819457485 844213080 733726105 671657246 140951040 349954178 760179768 73432596 529572041 241252546 298169648 930927925 493240220 135269704 631340429 740751434 435521581 158247543 648224627 43725018 396430063 144051365 147382387 660342656 460327423 753095494 516599796 628801532 407697694 815559744 101444843 341313773 170871151 136422010 834714955 817163890 185797293 976768533 239864533 261107834 338239894 697298698 208347517 71840632 645468214 850979196 691275040 189038865 438289733 367038574 902183010 728618498 139762173 502795414 449065076 956854069 84501243 631885982 905360177 214147812 673175883 121698197 309179479 190121970 658143691 341174571 695597259 548943021 645795465 11379727 789345074 466170360 500274297 491145420 241958081 724352603 908445956 502190827 313746167 547047477 244276103 880293474 358168851 27302816 878218137 615413022 207578164 143527704 338045036 632704417 702544604 537400905 146554165 638257576 166522352 985487408 380143108 208146473 296360745 554092441 779106768 890969294 772723956 813470820 258591058 136518374 700837484 207479938 789911725 379877815 181200888 728772375 23290783 922956384 839277223 866260766 675178951 957126489 47659723 958685817 822225879 389697914 363596032 411621251 453967705 266205886 570302112 854325455 269966684 198073923 390770032 77703433 489408026 228441406 980025894 255259034 207240751 266211625 849045857 31796634 23365878 909999477 613410508 301509720 606470023 485070544 786040626 623778104 483042384 147241804 34080106 94743886 852501864 100992403 468445585 973026225 482432082 54350978 620921519 687515680 528444499 730692752 342863611 514478383 394549934 805209864 379737944 652980519 370357873 172041393 293880535 274230195 859695749 251246769 690119750 622407443 878515631 713618980 77165676 332343397 381359874 824135686 53981947 513915220 611495991 762777184 639776548 539353008 598030629 965555193 257429994 20686153 101725372 201195110 497235438 590418342 644625861 451354917 625220013 2644522 75209491 911021228 268358599 228318127 40316334 425374502 720861199 551197948 716889733 713602063 472125675 981560930 216928505 480242954 637635940 90168411 733890633 90957345 362910073 920835194 295462620 841502882 521252457 245771476 230258154 482313695 303778742 997033323 558161180 869778163 40381044 268758850 619589697 118966 667340913 596761330 650712854 953998417 173475725 649904379 66953283 193016043 374504033 5879726 617931044 152112169 484820732 309420856 576649597 74534083 222690663 501511929 134702758 57798438 978959178 591460331 980741120 513103151 750292241 692610383 862328768 733176776 388841090 632073002 826504646 33152639 124342548 206454155 906294431 671897442 219186374 196094841 367023923 433995751 181749216 752121961 645827040 627814814 404946080 268503207 482290839 896437480 25984862 694812685 595106138 33452542 969875852 596220439 876542922 705913585 892786837 477556274 69600619 579439226 11608707 577332817 199643148 973526562 149834163 64022626 31938165 535235474 922594311 251492386 439528636 820676561 140853810 520026218 719764319 861443849 977263791 462359521 372305125 523796412 544107390 109515965 488622501 123121777 114702680 358185921 915926491 458558751 975310009 266609086 869703927 954495760 49454041 332246407 724544989 903495930 388895258 476319489 100363057 182320148 199760763 404065042 693583038 729092588 143545182 346623555 15408169 976178896 32789590 836682528 206045356 808758414 25666801 659656102 20553258 11867858 889950927 592611415 839834620 974597059 560440694 275294921 15009391 580120673 498922250 818194921 590496705 418393303 598658219 69434678 742387176 106170194 466864400 886780034 431029615 473857737 490092922 154697328 529216216 998818591 893380142 416419994 494356465 388746520 785589387 946204166 920321484 707758799 175990976 711552101 592177146 265906982 453478288 191330217 282947302 105065952 692300198 773298059 331382714 139416529 715759169 961060437 62468639 503800599 592062044 770322835 421327460 418317614 464251426 502489666 939142511 995813988 290841367 398866573 641699691 273508559 495836257 475238239 117874031 883314763 653325705 863594272 685435692 699231284 270100049 837607434 566082544 448410334 860906691 219590970 587425812 420910056 323184420 972872655 936493849 531852439 479858530 639178852 54476431 883604457 805558970 666520499 223752559 386061632 665180909 648103533 341451731 359533695 541393244 256684673 913863908 753427995 537696191 986282033 741166763 950602621 127069611 496786543 664026985 251419827 708173815 486427904 307941708 436158970 994703029 261991549 854141694 870844689 682122452 121128766 153538201 991590154 959149485 786156697 508263235 246035515 569744298 165903414 229422972 87856724 911359303 734971409 897711172 97742652 540173893 18420284 488070605 554109292 501775039 71970352 91420614 72665019 92525017 512563096 734450395 687570565 917859094 73584951 619901062 235752784 317355832 581367507 256456782 232437987 748854800 602237865 799175450 452227124 798072380 913202370 32068365 729585289 218675455 949894229 826722889 627857083 873330211 720789565 220582869 114498816 829690604 422712975 206621530 601552640 259694124 297150555 940700079 533030103 751018990 404830649 927845479 11443882 732307619 169027797 259627117 967479453 276876811 150507866 920108956 206209259 255579210 250720989 638189292 797581328 471849813 686212165 676770304 518995896 389517751 818195652 116210136 986130965 938875741 365493153 820618218 860932580 784683215 451543864 419182760 296328513 774601623 1172970 185944862 666409021 556182314 698944214 646494408 191459184 77974041 706457151 919494851 486416266 868032546 837305751 700639934 221611106 480562163 332355497 915607712 270703897 247369931 577409543 414892021 528754403 744345276 605080157 293440060 116497895 122213223 971151135 590459396 644937731 298295187 345206567 194060757 20945566 575438983 382619654 498890842 909832125 558357813 521872494 989658317 684285995 319589133 26018566 338008226 616520598 387933906 370243278 764701497 381639866 234743529 843840006 286959679 962892866 107933825 459207634 245240939 593898126 606245393 32486052 34928580 177944708 855830175 227622506 379448340 379251157 646134385 765996249 783283922 363279960 305652163 150177242 232037013 264691427 303513039 117437622 411551310 539878580 829920579 140700986 649090605 545278452 531209775 973384160 936549985 468941072 188190862 64218380 120208877 770361007 350601748 279807959 606991258 732332959 333025110 141345921 732875003 432083527 791696333 326949640 716315621 550164203 997551203 419518213 601441701 438989854 401481416 719547199 381745343 616566423 877761622 360177529 529433817 859767877 780591511 178784352 660928687 836044242 833508069 644793206 832626404 300402892 359873958 806625157 993720992 926942089 116232883 767510902 20516388 244546857 659114271 512129872 771248432 159074033 762422381 397685097 414319978 224626274 325833738 319059503 923248064 572333220 471794061 499108755 582609049 221416255 242600476 250748287 447997934 397213092 151577596 315905381 408581952 375523547 988200209 660906023 532546651 714687203 201834101 714079930 977950314 516186188 757879484 199537840 308476904 888490622 800754835 262724384 690607848 883283605 621392446 800582229 512864168 73598663 461619365 314150817 82526011 601977769 87194653 90029696 599709776 985119735 10755884 204171132 138513762 338695528 590368129 235996731 41754205 644052600 508803850 581533973 512350022 375786700 190325095 143616347 547767846 248394992 351993495 305433159 105323203 293969501 449907211 571960810 942478031 717127903 965426754 407535791 345109245 245543134 610463103 877441816 353754931 336350971 172392318 458064812 743155953 953219523 912759921 743789818 898982577 528361508 192397257 901821953 668685360 710589022 669708896 945515077 746124707 558562527 640361409 12303125 378567491 20473716 479988680 4661430 343740874 940808714 749643683 285395218 603106886 408156933 570732534 655037587 834036820 888926615 957152350 443692733 751014971 706689360 471177024 412054953 590873722 74699619 280039775 931728633 468866748 602617275 612216167 603364608 513100027 631994070 31062373 934088118 671275100 246015190 565398182 254865274 672965028 17526225 401627506 892916128 352427268 552951694 477653293 574588457 650089171 312150370 689653582 797449119 95211835 110782652 404098124 336685630 728478898 665202876 263594960 971458098 576325740 344315182 344115708 139031000 717640582 236863272 992685509 63706525 925001908 56989236 609189481 80951477 695069444 611142776 945016014 675279390 367290825 61005769 764447018 650241127 382436600 635812428 818285448 463337738 987817495 773471725 187321406 388261891 33544378 675782574 140588254 260934981 458928310 397511973 254275209 756515545 447798084 187949345 486946501 216306891 615074631 47947840 632309374 255961924 624381574 760726518 538787046 916025438 398694122 65044516 351350252 353612840 946608211 77556261 253755834 288018516 497997242 260890216 924766143 720191254 219716805 666076043 704438894 161347869 828446846 234357842 165350148 64772313 627693305 42190885 347036478 923403438 817347639 285543304 861073042 306775952 331593826 452961416 139950612 730247980 226729245 354684514 588611620 411822570 525057457 959166968 152969876 329950764 756099070 925804275 405549938 187079835 586780381 153794981 664899084 491410791 293724726 97513602 966322590 531756894 535827127 91489952 121226385 5654865 742373656 719346390 124510446 266302409 203718484 241183104 391723282 219647193 166644031 317027202 261052473 146059657 833156188 39937401 768880279 475929236 321916876 606674599 310717027 184052107 32536191 379993548 137792132 926788716 113749023 301781516 170231805 825430938 351740544 825320475 591680989 926474468 58497363 938326983 981114824 44257523 86341032 639147338 98674769 195889945 838549571 156208965 486944010 517345878 691410551 976831861 304071772 38800223 245384299 487498319 785083140 405497180 423888473 532391607 94102740 858462367 263675944 946784366 625148413 204558408 880763672 2229473 708328407 983603451 881653221 289178471 517291311 456505071 420559727 51018450 139452772 93251614 358634919 277263429 725458022 513839212 480513865 206605198 927875977 376971321 810728883 825048506 588231484 122374251 395389317 652305803 881621921 142159849 779926761 146439629 431552977 619380533 353995086 766164300 416131779 150363489 900172271 311979809 305712509 469129498 942476195 593320184 664806565 169203262 768266134 540321310 2147039 616921255 816224915 200346874 298831929 282282127 342847985 261397461 383046969 863751087 319861584 987615563 41396265 733795632 427752330 256422357 373272017 848497112 246757312 553627638 833121740 762558319 607879929 818279170 353709356 48907738 291456734 685318473 271041946 102104802 311689158 946040101 288574404 2521625 621107036 320085470 735661861 618999627 387340790 748311395 549539032 9432200 933019287 533192715 232538899 759308743 510119924 549106534 411797203 493318773 993760874 927729819 247639112 994277888 890170013 526828189 972652348 728986831 969478145 193776241 8792957 696678513 933103019 68733107 619636827 561086330 710355602 56961575 138858010 660991219 743698121 458854061 119943782 139465742 756991559 314108043 97719045 217891608 280471992 625545939 624329269 822405920 315817560 974635613 900843123 211560935 363782857 827897374 214844448 408840464 357721266 652836697 161835193 270348523 482371541 224490896 624211104 599197542 816484160 199393173 799728303 828508607 464506932 203546693 99604664 947409482 7128271 894548201 884685276 74701955 117494539 348089550 587442849 867417412 227405591 144584463 418387689 283943055 146796876 640034741 744001035 151563571 661716078 630236633 550922347 357450953 264378079 348555413 46774198 444405854 564942923 249952558 752461335 789641983 552823988 607037411 528448509 222779322 628124580 542971720 60262457 163230141 494779831 427772105 112026947 698231411 945837417 877622851 713113197 512057153 414056153 59008500 264057112 842881292 126094674 493691871 241646340 495970440 910470294 478219544 788848285 981795821 943036245 683104000 3850402 502677909 356526103 135054501 474316834 147282329 238798528 649742683 141493127 158198512 427075259 440016903 151004170 434466615 725612229 37099664 699952522 477371789 220592059 328586290 727428825 27319275 929352477 266672548 853793691 23712507 30946178 437416311 5477831 202805669 830038350 218464721 259146697 685978913 772800673 316134991 318915520 144195664 950252551 945427121 354092299 353624048 783250406 871644782 122546121 179752773 393673395 208163777 701871696 693275484 279889395 455020873 978987135 206186441 868725273 361524165 240550218 556119438 454713383 721270644 790338370 276273334 695787310 415995693 880177320 402991219 293001080 872199952 591154738 132733347 593269695 342386271 195084885 227308328 251663627 327531221 189001977 71950733 179726926 256302572 325567668 320104466 946454420 822522805 825871794 616868932 966517296 460655002 721871221 691101341 196655755 233655735 274937949 822202651 272072873 279100280 573182237 987726095 202375661 473725267 464787348 109181626 559113178 843527768 335716440 907262237 11629556 330268073 169511371 692111917 537842726 83347212 868405044 873465670 461627821 253848927 184585619 902680156 326433107 151732458 276592870 875991565 792910009 724687644 549085801 130083348 12384861 873112741 898875197 515812391 938277158 642218431 100263790 371149784 626755559 573099450 897665089 968009238 994955656 486071352 187415953 383914380 417915136 981084434 76735486 519185074 634081568 188001322 710870633 910896240 93060635 357485197 1450486 728715577 387142314 884926700 606342484 543128086 693265219 748590649 734004064 273440272 747952860 452905934 318408927 56542904 337350760 128178586 30977749 688825948 159810508 274695968 352722516 475445611 143074995 817044277 938458723 129783727 953354834 429536651 393305040 487573784 160802751 294345591 769693227 470194754 434695961 607017893 820460642 431515811 27913931 358714914 501214547 214721651 506592086 469795969 790184649 137346761 525513059 282336908 241167113 903300989 830466200 698793447 162165817 325412009 656275112 676246747 354131000 432748404 303412866 835710170 279078776 192864104 270929165 221635213 297143439 218635354 523433322 869402712 790770944 96771020 473749878 996735293 407966118 523221743 751535677 646886454 832356681 343827861 133380040 589500569 483343503 312845058 146586402 299821670 380988692 157665045 277287835 253111939 159186531 415657539 12902694 373944826 103381903 586940661 21996805 22402500 716430169 143424198 642240680 136730259 911711898 49184401 765102109 348434187 276311143 259056136 146500141 823400702 221109163 519865087 449632837 228881602 157207280 599694463 490655634 229359697 568615308 173175185 144565499 521323501 291981608 697080965 91574361 457706672 484137910 351041897 621570207 535099737 707020533 55903919 199295617 398902380 195629521 308528200 231653684 69639382 706799157 813057492 339243909 542716711 405167101 985591767 84684203 34798733 265339410 277447929 511230955 934856799 107078712 95439937 40930170 253480842 355543492 811985908 850692160 321059916 296839993 553820114 703452190 737200231 973029841 106635817 356470029 201497125 186258556 373889827 919676054 322582832 135682479 320663181 405831366 301871430 27225087 137802960 913584216 555288230 832063522 507775626 259744838 839894687 347733890 962515314 596404812 487179880 329895103 937009066 574401716 302850097 280908597 220975731 217736475 31611197 306097255 67249436 892507634 847853093 124097058 761060263 681728096 155328370 257228925 656348832 987131683 749864315 369886134 791892637 8005898 19699190 839247075 553915403 32349880 250195891 197450 9920216 444956186 264171044 672942587 156176030 283769188 946713076 29414864 301290021 647129346 433313282 668283366 675902990 834722431 318786800 521692391 162750769 708135612 936049209 89172125 614218738 65282773 128338922 133097003 747822552 638730659 75623532 267013482 892185740 535091063 51774286 10186668 936770987 624414553 868089333 388223074 371075817 631771568 218088951 334228798 564581172 472790440 269930845 266849081 782263541 956090137 579687151 939633297 54689169 859630375 603198237 742065712 713027034 901354880 50788973 185298384 806187837 577470601 32861439 206250425 925798139 27072896 739498316 296158663 383214406 867713475 177221626 423177829 31265847 331510357 128101149 99164665 772660937 576231157 836400937 677491553 416346940 529223842 496092364 632235188 265976876 369059497 392856456 884302038 965958159 457238379 878623378 553552375 590692770 962690806 560380158 160074977 993827036 284435714 341111015 804852672 657532470 705854977 669904800 886760704 440465954 937745458 380350332 227848321 756760961 965518760 499785041 876723195 275236654 788687220 532908072 956000170 26799375 709091034 224307512 777609215 284643249 580636149 610904842 749541900 429709671 980400069 545220771 36304312 583958789 360553849 768137179 87340753 517285413 627331478 919413036 758717969 391483019 37074274 876759383 109569254 338765090 820568943 134941892 599537381 377308354 787618419 887002602 16377663 336223748 849656504 30930123 212064851 270753321 397943339 585926574 764409223 549497473 122018275 44790021 519760171 307495227 726505452 288259065 684134634 134808640 167749795 894310199 708440401 297624294 672959067 639358892 461686855 162319650 877253199 887916514 38248857 666509557 848741029 463094602 194409134 737626168 475567184 164155812 186705330 789385963 989711795 207369301 966957646 927069264 511597310 39034742 781818188 716638915 485203927 376797449 185889355 843658343 811422746 973856032 768603996 675396253 874408965 219956191 449354808 81189133 403549528 13123643 450378306 502045334 262216687 165191466 124070223 800274446 363776321 757977923 912744769 273490829 127095785 733291719 788256703 621576753 44043110 783685603 596639970 169832427 6211607 463908446 895186019 429493183 399692248 574101785 680723074 40714747 817957668 57602273 878699700 688393169 605430236 285879618 77859031 247343902 548681929 481116553 570400352 631877670 356789347 505697272 41599395 525602018 621037535 346764709 841053414 664652982 68167270 914201095 773838415 281755538 563331941 423202950 178857341 749335184 177590676 367149733 389190794 535963551 511491773 836191288 721546311 519606109 7501238 651850165 293754274 434371658 820290589 454440815 303209850 244629187 262126084 342527048 165539715 383697707 953692688 904834260 863446084 914336677 680942530 901701314 761536964 335608891 276332600 564630422 787209953 712559984 252369474 427711181 833865678 617287763 13726146 660944463 519184544 413866475 330021386 110718260 337643931 771367640 863515098 89660322 972770996 28052373 63915765 613111901 513871653 455709023 317533649 806909135 341733841 877472988 747459912 813851242 403458071 412322564 947186947 158766180 86652472 671271935 556565825 356073410 57104094 736522853 903601577 732974798 29951745 874924527 652282794 301854380 827234245 892966548 483329437 460362367 373333385 745107414 199485649 504421311 774678479 617674127 702761301 124756194 102608629 805822519 857096543 371828412 599763188 808093692 518522555 560123335 828551727 468459702 179447490 809691373 20750160 8903069 831400954 692327935 334568412 296294108 384237067 285085155 417649133 756578550 574679949 177281028 367705082 103280566 425917596 124491386 437507640 822411511 233042721 361287807 849720392 135187073 864403388 264755953 414105327 237443561 393100505 384558695 852318457 378116919 954053392 988450380 285289110 524542998 719427761 263604483 828416000 491162507 218072932 925904187 410701492 192757668 91755289 303894651 316758244 357938336 45355649 160177547 743457080 128395211 412128500 974977772 664748860 707919661 338351136 120065443 969920598 278309999 110998064 432494233 256768123 995795337 300532509 13130124 63336278 924330856 205951519 284301622 885111340 757474930 281806811 674718340 329255560 195074961 948506934 357399161 699653998 358495516 336332944 177319595 79796384 604022734 963861572 392894900 904073146 693409172 186773181 130991348 887519722 138117937 787782783 895136653 385726977 137606235 576730329 134096921 777101494 382150074 201609089 917428230 2531206 520751027 663517962 397369917 616671835 804130764 309898838 100330451 313123444 997883013 700993250 509612441 583468540 150634465 862255602 137789060 138135932 234365048 802076147 393409447 398575073 347442445 621245966 464173061 454930256 390937209 747217381 698069541 52435065 459558215 398145195 228401363 274561042 426545964 897889516 456054816 613416995 635634783 1680511 910850720 822502862 661012402 854289536 332907578 820929863 723108819 801808051 365822702 277479451 782406245 698940102 703034052 910247238 545714668 863108630 536445162 177378483 833204739 586231389 546746947 105284253 903714816 960453244 519077727 140522820 603048873 11711275 129418931 839708696 159570810 690963427 240047245 957193930 706180875 214137321 66089740 815821570 26287482 699986718 423416922 68723893 628913349 636058948 875572934 935418853 231483679 913544674 436335434 649071228 616754599 514233364 852314617 562820045 923540494 664200307 804444435 134689727 519237008 11840869 90146564 366026653 103060020 314433904 493228948 807695026 509645934 194016266 821920770 179576343 939392379 877601134 993704128 881365164 13748336 812994292 97113196 83297827 93980551 638874649 40121233 277606754 155531505 912631909 188132042 3272217 331498635 771576737 973463420 118755094 47240436 860465698 818034990 155930075 376037616 297146711 648428638 606731871 494470486 561237461 771474169 120383235 377691125 730227595 707493068 463674363 118755757 715728616 524089797 502588977 775939568 289707929 419455774 130829250 975404671 717768069 624902361 370968502 991730480 959370284 907952938 200115565 266714527 443295801 44503715 228982655 565724669 70712860 899657669 343568626 206636842 392127586 416283991 762182766 407068004 788168523 86735632 730295113 449872508 557576007 924876051 486111537 701160698 892806435 755166034 729883937 3486617 48098577 446336329 174390859 694028478 798356246 98485870 941077581 119485150 65721236 326574114 53486335 688252145 425714541 820454585 672675666 964612088 579027272 361041676 937368064 443870793 387688179 562322048 535623042 108276532 212086977 637122746 953302769 524859888 975743871 714207985 137080668 364102982 553095175 754600455 402959185 677351363 759192827 425053943 862099326 496960427 621484999 94203751 708422966 145632102 610729126 456084827 547905111 139320733 704523769 210570649 690489047 542106070 98199763 354702953 511667885 876841153 25559029 837180876 297573064 216375901 232217154 628070398 114582590 426626980 848981186 481295427 775726599 148076281 544602313 478229635 177218073 352712145 254884792 505223375 637835419 118028366 968360934 111884172 816031270 470107370 530429457 752327439 355740870 970631072 837077674 860575169 65413626 459920794 339976343 580558737 533543417 96465747 777627438 96304856 126370652 76868730 61684307 610017585 476882500 878762297 910703265 906990331 74047861 636063965 726350133 19616243 461718472 995408359 52729681 169656781 945761064 600653495 645526514 216079985 16522578 503648423 722604163 410736120 34955233 177676751 592183002 91854761 204593921 200109837 416985050 859719718 416273937 786030807 734140680 10484338 502535894 17055569 23019662 682854400 233612606 985758232 8158996 605653869 657423781 335854721 288578222 970450281 283397225 579098714 972099919 520568237 921081812 920652732 338977526 590851653 473149867 705193897 3966919 140874569 637642337 902594031 952800202 321422402 871992816 906590149 585520962 937427521 831168397 971564103 541341866 308728282 383882746 156782534 243453723 644518849 404616119 613579715 600424933 51045962 448676059 161275831 843068541 407334964 37550907 665971794 370261220 1790702 787645950 342220673 46040978 537580349 374357449 906453897 684945727 183845636 704622446 664726896 91800025 440719073 666678998 696796076 608800739 878328777 172703067 907511720 335565944 450939811 937035939 715912775 293568041 262445341 84790528 11037340 256417770 6641156 353580132 948475228 917432343 761115919 83706490 893538820 521774928 885785472 690429510 128681011 843968876 208160112 565253117 89436839 864468348 21290053 135831667 920912765 741141128 928330006 678854287 737745536 972055839 439692833 370186080 83597262 523976424 934154814 324713958 252677229 911078110 77126668 725055442 269441473 649898185 74604304 332713017 842264699 940118692 176646447 789937117 159397771 936801532 341323634 20480444 511575013 250656993 410082561 723544944 914873227 118737596 91635207 603874951 922698593 228833941 318089837 648532848 778091397 779674979 219437581 922502321 718997093 563193905 699002242 700623436 565401246 558346594 719427974 219783400 416157963 143995856 83460788 997212973 163665581 78425601 851893134 723238793 182782098 706370235 718134250 351000323 764992650 719160035 254489027 803050045 556258866 691919277 70182309 493151920 674205158 67240656 340782202 947012477 307399120 392073116 509789925 943205420 247507175 736325728 845794292 182600743 43746510 915053896 152987996 392912559 422360708 140326304 861695945 94851516 805504583 270640182 459170780 514887487 567780971 707700369 515111235 978240378 959235823 472988744 327551198 865144177 24793667 610761120 262711361 575739638 338090791 590700191 119650447 443758183 149176656 125045911 841148687 117879273 821554538 320618249 159638931 267743037 298626518 792690821 143708917 849262592 795814593 3725445 846259184 971501616 507574953 98088322 149831986 973566486 357115126 657543939 548327837 77778744 845385483 898228616 315636739 72315878 286836518 979365176 326523267 359958411 100561031 105553911 462170862 926964634 931702882 797917830 217362058 169908692 969086836 919123400 514113760 25906129 447943117 447218422 611678479 321963858 523778152 938921116 701834133 5044163 54027688 223364361 159206461 922376004 657172870 227166520 55333565 194309214 729053 619968542 38467889 607325693 960578058 602838652 348474094 194238374 999090292 532117198 343714426 47950684 815557297 152991285 965074041 109605011 316126409 884599057 429734264 516990113 804432936 645837983 39283297 434352374 981111793 371766152 172595828 747104730 710018864 426487059 565243524 116696483 98784166 679641240 418555399 892367879 899577446 390510230 72301543 351838147 594387277 699000079 791926506 471637706 643510978 133629332 665190626 80579124 72489969 112477907 484936517 398935222 480278972 382034169 831484289 755154706 142840293 597493626 742473883 589996446 397279105 589647429 694196605 825521130 752545412 429398666 730877520 433659079 940694711 341589604 361959084 552094577 279773142 924411257 132454718 228394923 948806157 653170655 675800369 854055388 353531060 614045032 461839901 541092762 460288481 374970991 650257448 866885348 347467591 332108027 532458301 270312251 256514883 628134115 766125723 207503688 148348075 803012809 532771472 940823767 848716126 297380165 317344685 263431538 3729534 391290930 767887272 986811617 629602112 702904942 723968141 690922680 895527696 465718692 491962498 841428610 708988371 26466323 435583332 753288308 486015049 31246432 567905296 489124285 501442905 186847843 870139065 888807580 754661903 504525641 613897854 807737740 466321038 810046752 503351272 721572890 915518649 439593360 901338073 406914076 164298354 994153140 819353138 442496175 653357065 67599126 909392778 786042752 960557511 825871859 514264444 503665784 201903329 903818356 742788673 205264165 616743834 397024392 754323690 224411900 11000160 169219962 722719469 733703858 460417141 292586418 955745013 505829286 305426297 445370430 183021188 905565858 346850785 161147495 760460223 605902408 648528110 233081417 899387588 662138036 758900309 374585399 926381823 874386505 606019107 114058884 14881582 300491459 62122184 851532535 765936648 47917146 8173291 535696724 250805368 488339111 688927320 803877773 293179358 531097367 724175983 29271757 527200502 307516681 446667758 617045839 501128941 386468083 967921269 761987570 305113340 335149653 400518195 589309955 955257519 612614730 624413994 830179897 82300542 941812408 850913333 630447786 820083957 307852286 898681863 854649451 151571293 573670063 233192125 179586583 208697641 698792578 775756073 539259007 904096812 874219136 244318398 617425777 688847719 293834298 188997999 988952285 388036550 479449740 551041794 681707482 177219613 887452633 477090458 387406986 866596777 79881964 198174893 846442306 696047696 500696151 230571938 707651485 235654713 250659088 782002746 446430369 898607302 698915764 11008494 487260428 901927334 454295577 282836946 138678939 23137993 352296452 361473550 193897377 910965209 97970250 204679302 208174328 477178434 189010872 953610672 184244234 576504998 576299256 912296242 388974840 823416869 132958728 850232013 358863803 971127841 1621767 132295029 472405741 747206232 941663387 572286867 947607008 120284677 551791165 844156386 294032974 959887281 799389881 979291942 464656986 151548638 435200511 3564654 944900747 458788122 378411286 433549667 56274741 286870042 594741770 587359425 243318298 575952190 230476621 7649025 449577944 200582898 121722505 915006873 977791509 153121661 813434984 745483815 223905916 339606127 555243239 141339423 825763502 381647992 711384078 483542525 519516870 758535076 826782801 798211086 187121200 924390174 79355774 281581092 239981665 160198692 230461654 738453422 733235800 866966395 931242549 187697193 773228196 538219140 474223161 106734810 966781670 169255163 785091891 825473383 326122682 315927039 727459547 448863643 221624320 311682628 985593813 599515477 418610782 888293199 667421891 367381269 395923441 403987136 635769821 721513379 261140725 353733761 101294083 61339740 508879746 261910134 751371249 761768433 423823410 929326936 305906270 300970198 995104947 769888406 405394584 155309068 655388021 685974162 899428247 30210216 985489666 900356401 252330529 690104074 277110010 425206885 867008640 675553660 12076561 68088328 494544752 910327291 820483283 844606695 380550519 265695015 858791576 188539307 427695879 729454596 188100151 250536172 721934802 255961329 809923402 867847137 123054238 255888635 705076159 44252068 950466371 41696013 551902120 643869520 48660722 361947550 205775144 911320331 286297525 600345259 937915140 522118548 400245625 10897126 523590656 698087700 940965451 483419442 388736526 947790565 389793317 468176769 586274958 352071204 764206485 78182374 689916401 721816599 94421888 862402658 663149448 550137237 526818041 268822100 402420312 629356561 273254075 357457168 801072577 547285740 462489943 768529262 564831928 569720221 32710418 336303096 763178169 446838145 707516187 508685482 411504910 382068303 179389625 693219522 837468392 990579016 203008061 915192596 727747963 157566938 997005502 272093438 692375129 488578631 408169551 434381347 85703998 269364161 808382899 647649962 545191533 383085373 96021322 731058217 815959220 417020402 692703129 310352961 954827344 74580429 916921415 217080853 818257224 363764189 922789130 222547708 90417042 982035200 210101756 447651766 638478475 6365405 203094595 545585973 725910612 719427799 993617828 82658529 510723710 295753122 88699767 536571039 451137418 623115550 441095788 684387021 956715721 778046898 904772588 10946259 734921898 815758654 836265174 602979766 328373273 234514283 2885187 955848420 25724531 255931267 773800072 457784342 413247917 649008500 882487302 482900108 331321687 191719508 214422047 63379509 192575396 460333891 465524027 117595780 632457072 185129661 989221083 116934043 206702042 222991414 199959702 542245137 945764217 226951192 274844247 853778089 970574112 489141372 62451574 875234355 928514585 190417910 862135951 532884619 404288991 883968937 469939300 528560314 813348467 588948716 166148775 49025733 504836372 262628117 236002527 558335574 124178980 144942090 696212387 889132078 807494040 356297948 916144951 223214806 331617716 478395811 679835415 193904402 130371470 415740095 10908467 878480214 930493876 710646756 668111659 279499681 232623956 880031105 539040776 830987751 864973683 253261972 353006651 426856180 993685513 630320367 306218365 463768695 805788617 674752441 61178385 408003068 737485228 957044106 980477684 504592499 35680198 89263188 427559214 518681638 762768864 753234478 517209156 124450765 84189939 910295546 889268274 324648004 221112493 886932268 272889890 388818816 24667799 91567405 295090524 356872675 58373756 130859849 537017547 310776067 282595714 375339905 971030958 151239843 922877599 828749650 69616620 462349569 255322753 547673927 138213806 254789097 957008317 335251861 70947635 473613368 45932755 391123582 641855065 443298234 193061698 702992422 721844075 323118471 724134126 60996432 902335523 12701951 979433469 595607544 257184691 447297980 747753462 212246232 88416885 325975137 408036932 962430167 993105268 304292678 916567265 69750958 866501057 739395293 695425112 289190889 231481572 659402423 909445645 453984349 646408453 551267552 740914539 162099649 269716466 580933943 591472156 375103320 103680911 400628907 828911089 325284202 601108261 467886260 695015525 835200582 1337222 589420473 712054596 737749866 157189522 64326707 620254600 741877367 15592887 739845541 905121924 365678692 977211841 210020001 316388003 745062713 970282311 144379490 104790747 560664143 805620563 236502660 156364275 933980171 535190740 634833493 397667702 937005688 409917515 735335866 596240458 917692223 644842246 120305247 747047256 586549560 936973377 292848134 172955198 335503895 496659184 680893908 762647480 484122820 383898229 3244661 240768266 640868671 596318235 892723312 993690514 427022336 871122833 562104224 416170788 765022088 523065810 330086184 801650496 718297204 51895563 24272124 31818799 237784253 908071950 885397586 291441783 417828530 327351352 177271850 690447079 663248505 26283990 719386729 314642851 45753954 207452180 638379838 227068583 389947979 951932607 884998779 20410872 858081951 555594272 240158123 782687989 80758860 717524399 459113351 512089739 59620570 823937001 485432110 830681426 378658348 725370425 344703211 664795505 174179757 979067672 295858383 432200585 782859858 940297839 454185828 852034593 994699377 702583384 900680960 219995936 362859552 198449623 820766632 737887929 79682292 213007239 911299092 60946508 211624068 185305584 725552205 903622419 692639694 748500312 784958948 927980533 645919333 917027656 378646137 840923099 297298546 633960272 165177044 350481069 605284719 286057696 858615049 117353012 320011460 968610539 429262260 424774747 912607822 445476988 832850277 420689777 428462184 280478252 583096210 907515596 27666013 364757398 188656254 273973235 900417045 761041649 952359938 967711368 560114852 649152056 408628039 95928032 877122862 347119349 817614338 452715279 80150389 283036248 408254942 386186423 33269184 869268547 17894527 41296128 779034411 605390393 430117508 619260780 6425856 494431150 913629594 229370128 471312414 601412059 897103113 428900810 936998636 319873563 279937764 505488745 763231067 788010641 674580753 105448699 703886169 620057768 990655343 200781831 505016111 290153109 560802918 219175561 395876952 259457178 952166988 628284675 539241961 417144997 904878616 779450445 216348908 129809186 919385755 386781281 875071527 345217812 76562432 556143773 114804311 575904378 14055784 889558370 185172456 901987662 287535997 750547324 170585922 298194778 593056540 67240231 938819490 600226565 644986995 4698677 989442741 27096734 61320332 846160366 719057640 437514751 406973203 302369029 301498131 227677616 847217631 414632142 572375327 59706022 950855128 954379290 628244777 313108656 33007735 718204176 180559584 849927849 772077214 972303817 981625023 558647629 816120840 829200642 860328777 297480646 921990682 87508338 421876682 543504320 190322886 714424898 617868952 428702524 684788937 953837997 821116119 967775946 477833498 14835719 348150763 62327227 467513300 795580475 455264264 525218655 807999989 767000503 208446590 907326561 725508700 873699618 235030685 708189338 913875047 574648969 472164704 922820210 861284196 691976083 994657663 809387239 889743268 797940144 811238240 599865326 692088129 679287675 826781352 361008851 829828888 489962867 212848304 813188192 998179019 529219307 113627007 436034283 730744568 138107917 188884489 332578868 790051893 327160463 703514303 496715668 715013580 347718839 471756583 971488833 241761961 892199975 81975433 783559591 934452882 605181998 63798908 808047191 615373262 12031412 656598921 702206101 870941045 888904765 730085730 623374247 823980575 422888364 921952620 330337953 832960036 600540077 50061106 856008883 8121670 877281343 303368745 850889870 787826761 414971362 284573308 784529427 40280547 647675297 935308729 101395723 469719731 23300644 472815888 3770707 529590001 109680018 746608433 561912062 94523380 411587638 382875702 725873656 445519786 530869764 920669985 900978751 373826510 399390247 60902751 386442517 145308624 980435501 591324145 477905099 348455834 577102174 520409732 766240018 836076920 565950705 684670408 178750684 691628571 826172299 191507286 513120954 814072572 622020455 383074111 542639586 996842245 653278000 962523933 83495945 836168473 470466923 315521522 457317387 284155821 440817061 377821812 916981819 26891236 719357011 714203155 275937903 385490763 965336266 450954394 162783200 933733663 271872368 348683085 39479991 581929144 613004181 570423656 62650069 913636746 507633069 18964869 814670769 612140053 822300860 830879849 733134402 26839601 149201612 765258257 145506643 195763806 345058008 561417993 203547275 399222619 581161948 40754970 665428197 894448456 938717403 881069958 28288807 331461000 791544557 53651871 847112714 770354559 188530110 181183573 230273760 354911750 509951644 26153814 685514106 696666309 591812699 282158124 844616985 185570729 377215017 900240906 66029136 213285432 792816667 245468763 475208618 647779633 69250061 700088351 234280099 576422576 844901238 402121913 199270663 175319448 647492313 73859570 390329160 101985914 893625361 929097181 389599142 859219281 241371158 545797190 831176367 91460245 261935638 630572584 581729275 416186612 63885453 603842420 814684563 178490466 710859062 78956585 297095034 245962154 43460965 288911393 749139172 584212556 169318369 501088492 76125108 939093809 415857242 691058058 824835471 70589107 372476547 852063902 855785642 989095204 268995095 99662797 924886665 16539243 868511543 653486082 475642951 190537815 223639352 90981869 99806678 655884395 449044395 110428388 438534320 957865226 885963522 951035782 569051574 390113790 356787147 944327710 903815983 441168231 134878201 996776744 295231275 233780952 513257129 524933439 332487652 391998960 293198442 315950241 340571864 790544724 923509418 339090745 412944542 513628866 613506552 273733456 408650004 707392853 858407593 330460644 659293627 861659130 133841229 982456599 277225527 230049225 803051704 367053676 123819691 35704135 287758073 193979557 844238127 479345368 91677475 366677529 474966636 554491366 276098295 114596735 623320409 664377483 882150111 660989193 351419512 429165610 511363768 238790883 539331609 601249901 4200744 428631281 166393331 862939580 463330330 297074867 844807809 222721550 984458333 763126114 779172252 340687355 154835180 775578058 810111381 935091516 464699158 653109666 511454603 891181326 117482902 955405248 119423810 267744654 267628746 706599532 550999304 409637777 26055179 623063214 776206286 774855648 306989706 52638830 57673858 864277883 632088598 459856492 266288058 109821157 678093885 383301950 347430689 75060383 640863065 413714235 705917585 961238010 981900281 232030666 595047153 426711826 219324676 378612097 329431631 822579351 293127866 227153063 417562439 977831674 438911958 344509202 876083374 554273751 188467802 120155393 118009460 326673149 213188446 587918976 439061241 988091486 747655965 503570057 971720777 429158904 595995679 64281164 41780831 44238622 631429501 414276043 325678290 632866745 226100838 353890914 669927190 624797781 300897587 787815320 859685982 181008044 550640919 832532653 781586842 901089583 914538270 638649538 68939493 879711265 873881794 576299941 807938157 867650179 797973111 369210784 703893513 389766212 249108119 634301110 783563136 253496091 978375470 637774189 473744881 963107690 280224508 90782094 166981031 126988074 397765945 458494685 38350200 767215630 230046579 515659308 963620542 803050230 765839230 119833323 535975562 352668256 227467927 328318211 763619937 656706199 525027130 645551716 348949484 258361828 6196678 33188235 229347755 892518941 8518264 217745637 694526044 606077188 467737177 198450741 184514473 558113712 722337997 783051280 827925141 194548099 2498629 822570068 669575757 289243726 876430230 37834691 492393327 124020367 349883671 10831057 989328467 929400780 861758626 646036437 729330975 988174733 372937609 208304336 546428318 510307169 485950402 943676900 396913569 207295394 266325491 374470130 607051891 796898213 817449603 694010232 714464480 353491665 691313489 275977665 101586498 435386688 164832221 284009604 12417202 384863036 351208135 687363422 819051304 86294480 656733852 335229305 733537364 899548350 808544737 559642772 917971760 105744761 314015856 477317569 355881623 899959949 622933048 473426425 157764746 772592637 143663393 777189347 159711032 36676408 42005023 253190398 217098071 258591970 854665643 373311280 140574765 866243281 397728821 617245520 43420379 966716928 548249176 224218007 246367096 438635124 983628207 646195101 408126356 415746410 414216750 576043012 627829178 493928501 949517604 624828118 984227128 577954891 248127337 676654962 553255879 348961451 345037893 560545233 424450615 999930766 200898125 985784287 29041979 595594960 9168615 535241038 782681926 952479452 678464013 955498556 975400171 118919020 906642339 744238973 253688394 698025993 192114313 487154480 835435063 924251656 318896939 788569868 964004251 915824196 202825 692526503 975502581 893867340 325220569 153389810 717493245 780835186 975561007 607168988 372966700 207629100 34379508 854270251 239633127 543131591 832633649 513608992 545904413 355736849 452455000 533963133 431109086 266347846 229911108 431631465 985936015 520677589 864991824 116020548 319435909 77694361 675942518 520836221 749586115 760814237 484081273 293406583 77304468 528919789 308467766 897923583 377766944 794041212 859816889 48928440 505992470 663199752 375147514 923061442 409620057 767578132 110814016 185850438 361248385 727266518 521182492 457083190 191103380 176890055 126029768 360880293 194463960 810691362 53484188 439116703 87377306 131955563 689335565 873539625 883410108 14651170 70683521 682750700 583291395 71179923 227998782 212191552 403960248 384303679 578554291 850537038 225510227 228912034 480654783 33211021 836361896 62831858 823070453 18697870 259131997 65591867 365932064 42141633 666540152 670069770 457001508 950309450 996273437 728514427 309623697 450735197 253637961 20308583 630106822 731622754 512392610 100882252 341781145 805108355 762879451 770100881 192259644 824716133 302490118 534697577 158450006 480075459 471488948 109500700 583913133 907732391 491526011 315696637 638323193 781847438 251306286 878829677 673714151 947008185 609555018 422903761 299249213 500503702 157383968 76708905 23025886 350021639 351737679 19528581 321056762 146061590 871652314 295099955 480681945 101081057 755572184 19891029 539580341 144542308 731416789 277166696 952074344 795818194 850963580 854986015 72986513 698187874 915440143 943795229 348896939 862171839 75281084 592443801 561965677 200878555 671503153 5197634 481758345 895234378 38503881 125004350 30384409 442387971 685367733 839416914 519485794 846948886 474187141 321732596 266337368 899877375 789586436 277923543 476558492 621900177 163489696 110144491 677146434 262316953 5914797 365905103 987897972 807604712 430408003 445266093 769436108 301425087 227948807 13093882 981955808 758037689 621888329 764808073 40771769 892419869 227692776 989838838 910107619 808738880 790725479 866970242 15851097 916933875 179759326 995968107 411067293 619831048 937983057 378678524 1789252 960203306 156239910 678997724 181343154 130515163 86901374 853990057 348777451 46787387 690586165 689818291 609142006 621153276 467095511 665771266 63090332 914239548 391648498 250372140 934613536 959877243 448225571 769993513 208140341 845089533 719100927 669951156 977584533 17281731 593580548 819930438 231667689 326281221 74782897 286703537 960959680 980422801 251634675 56639623 663132431 690909615 273653236 560383747 257272049 504699168 962126153 996221995 260826795 450406611 239074287 346835259 406512011 990583074 775787447 826911028 352512907 432202225 135889519 784306151 89815513 728986705 737756219 751522987 457852547 125952020 923145568 434727980 453419104 315636828 628782419 104131321 737406867 509144739 127060022 546013368 933186746 816556439 482196880 987287407 921571367 105864249 557913155 585749278 793191528 265537319 384336796 505856523 860633205 627761621 879511241 490305997 767739257 9407980 206341795 786558231 572556272 15065312 575825921 483530672 420137213 925275022 933268106 678496174 645412939 549900739 857597713 74682089 249967100 855682387 456987504 353081834 978105991 378546121 915085319 88337684 39946741 947827210 817791739 822452160 887523662 463493661 389826065 872069570 27226487 979957532 288085692 557173438 861502361 252744544 48633711 619165580 402655942 204846904 667321688 298009777 940776534 592039098 998810736 22755532 344560004 326294592 504478784 180916440 96973166 21333474 711868814 19734451 817907319 380962359 105737854 282214629 475414176 387794705 904295000 45383664 622868561 685280019 35961398 983116387 569545553 364934003 436367127 582894975 39144568 883082403 115740837 736682220 816967036 262150784 385362639 636015189 51070229 340608224 581640463 114736399 118721053 912265638 639462103 985108178 948520193 588398914 905623509 505342563 39755299 786955520 759847836 138904414 160123197 877683436 339200352 160811101 477927246 390588835 110054618 315392168 764787657 85424183 776771805 216398586 504435934 716052424 621279780 131369116 350186372 602180383 616561356 944777941 658850297 464878205 876571635 599001549 960388238 236504120 37725181 244405824 787899335 728716254 411959083 519686595 575763098 496431183 790122014 754748466 313045263 684851770 801811399 293344487 227764354 115029995 742459477 436541759 605421163 467005258 78046587 955077594 765582161 589672089 21717457 687701083 696496524 404689895 465333160 578078866 275012547 544447677 767111326 250573520 458482225 596748716 373627913 943469467 645885567 930403785 305364732 277693510 138264209 575299104 516451278 335427717 409738646 409473759 942602547 56921048 598599309 596356846 528293707 957182035 773199782 523675790 18280153 675776463 95458495 511494052 152358255 630058570 685244371 386817931 554485305 36306585 444232548 360517059 581064687 865139458 43338846 60748521 718927263 440507019 58998289 143925578 332866095 554097852 372010612 658851486 9360663 975763822 306935576 78076570 491721915 25013359 336760141 964502911 58694699 678245194 735339989 441358190 998949394 401378852 398295602 40488030 886391719 711220778 164264379 979796078 11275034 320163646 670282647 468333754 653913457 440469530 68870629 101368323 202850914 11026072 414949561 486107813 943972783 552648499 512012821 243755022 550636640 812666320 45071851 135889033 207179754 54538074 208694964 976637997 997320039 44209701 22154639 704661934 501844934 893626150 851081721 248640054 988848442 532637780 274534032 829981348 473722829 421033110 471283812 999618024 523880074 874727887 897992578 655190526 898848724 304500692 701694389 384338721 698812156 860706008 412959485 806359300 585879248 783289065 157307749 622168340 862857570 244364425 727996785 105729639 665327107 626748742 604192369 858291659 103419561 172586390 435530634 700925920 545250097 81868389 15041562 362679772 484353652 325420500 454906348 213610568 697016388 408324003 300897123 11004596 685994974 658044270 360890295 971668607 903857126 201262183 679369266 69411141 570776502 39439318 796962249 375407630 247230251 486689133 608884819 854816774 664911653 537210829 52007338 997282735 267164957 487634606 721559994 310134241 825722688 411142623 148067800 470445095 639250996 665461143 754187895 509003376 888684460 171774117 655496055 913463301 553393354 791472168 848907771 501082449 907336944 494643706 868647264 824230843 672830439 545773948 450168855 924819616 119445763 54321346 334850955 470176237 593074755 228030018 130615392 203090335 353568697 157500674 464681893 79070468 330717982 967425223 200298085 407294203 718505111 428804794 479057351 741159346 365916499 143779291 335995317 470892607 733255051 879514841 770011299 283842095 95639004 872739394 968565601 617964967 19914064 178482664 211017498 568843475 281855852 557998825 177756977 731026228 126488577 176929472 702240267 333747998 624262884 121875869 271673575 612629687 791199343 858500002 562839853 278002886 628893669 34827800 170817619 120733712 968170359 983658098 597464726 682398176 93947868 595266945 667257260 528919907 45043163 357331691 344697077 251593898 959226242 823153385 279938296 415242538 869197501 937059406 810755217 611672529 573366897 159037954 909588443 214525535 127761215 544053395 323066813 778807118 766849201 350865434 310441193 663655369 854674917 221615808 363808059 45299810 149812576 71906810 180018880 585964643 106853723 245880649 655925316 803509113 814664768 281641118 881038035 121988269 196322577 639937141 126374249 600509143 374837477 906550714 866435385 304071253 302419496 459768906 396829817 753155691 307003774 539240219 423449196 176852409 564741183 619336773 656938120 30243578 738405720 534597084 746717231 989968510 848043256 482352404 67629517 719453537 886291927 331405879 149961474 440414236 931738416 668401108 555512224 467399476 923537354 33101121 808927723 457915210 324525125 483735918 19449109 355694481 716811809 89609713 360806512 254605804 93040742 747987529 884712013 771776709 428540196 527052307 83545219 233729000 126799679 405277714 988737077 139440740 855807775 873515871 631381611 606603508 290541327 943052812 915483661 675856726 967251055 889388703 577415556 765852487 450314534 867530282 743158154 986183267 427087010 952628433 417289028 684103176 638989196 887120496 932048816 717266106 468393921 772657385 732273422 315598868 213751602 786183205 652543377 939200693 253238044 909211796 163549429 371910921 508641380 963652452 236399346 712398908 365352826 491737948 328006276 669633603 497770941 241128984 390665171 821298337 100160876 481554462 752288332 404092964 999895001 960223144 537641964 122563356 368638326 245569879 403532338 108811920 476834001 826341259 533828737 332820624 35931596 86564438 462227315 435921247 313155896 561736280 334133458 311973705 587466822 507007178 305561248 775725753 739176458 673239059 127799978 765199983 147977324 495897662 969501614 649540528 466622660 519684460 648739871 555867457 210809550 743942969 556883356 602673230 326041612 667405800 417648232 109905501 681855322 592664004 52340865 909368034 742577806 774319322 105013074 834481683 115934616 414964093 549253291 844699682 857428161 617168653 786385595 562036811 433025915 125313263 573635363 660742824 876333032 475977826 449298564 863692165 340153678 560400338 54579873 263430005 798230886 188532466 416747173 381992617 404108799 218285396 888183614 158882569 113990045 674821791 39715394 342094695 785528257 125386865 932899114 697060683 171023300 283974829 3518423 924125229 895987295 5342582 544426747 437380043 793801957 617418004 794276708 714725255 98445215 664490682 549163508 522554881 283891856 993315175 183998391 861500609 271028309 883719496 988470004 319718698 450737372 385908886 415073621 523757612 303533131 388480203 118507851 15089447 358250034 636473421 101606787 339296629 809887414 777590262 464086858 521310817 651455390 215660487 8411367 271204759 795598517 369572836 419903982 814486019 595530796 779615174 454212971 612458855 249180176 970043366 700650145 531700061 896859829 309530533 643613383 392025182 513731155 822458950 980780480 624047328 670198304 365663659 816034098 25311220 789407441 689662658 813228147 195450200 292056032 89774677 545565065 735895966 223138143 113527021 483168332 391224046 857836369 769690314 632809699 134891130 365594528 742131352 468898799 405683415 548867291 719552060 734620762 940260944 253709614 763888001 240773813 755165607 205851447 922464411 46763896 294210572 298162589 476994300 753300960 6888417 439459537 489165675 983535068 681347505 316697211 75205984 25106348 276548855 232913061 302147618 185310555 394496919 593441309 41374852 524717060 172602488 760258806 298970700 805709067 727156288 110232606 948085102 299497467 443101811 467609833 93485763 24371138 740582260 761048769 598192032 561124378 985802522 913578526 621389125 861776731 792200885 890309175 933061862 696572514 180634605 267217184 724225628 866785021 748273422 639084951 587156488 540384779 966374569 849157966 721746337 402552832 63254016 851200298 889618626 175269798 311489981 57968074 725665206 758380989 66850780 928513811 218155314 536489311 853099648 818869600 612029816 671160054 852300938 727810893 723423754 643716195 892968590 327282351 508766425 438226494 611638575 274501784 461133985 520289176 792216867 865867946 968352112 50969215 277235521 677853153 87679882 433015423 91212183 117657051 644364773 420055375 182138273 159391706 948604167 907726297 82494244 997181926 765609051 42422913 186078163 163027637 343003874 126886594 558388797 618919270 660640286 576586862 47186621 404456676 574858288 376661473 312072834 116154253 463411626 965885155 752617176 774790930 879539743 573669433 148052495 177492538 40506562 771521411 261291091 535717778 400040686 487672801 646544729 574791940 249417459 685575611 321499806 526288466 458730975 510691713 445867718 654599537 509521770 270969023 582203544 255282477 351790855 545956266 140197535 149634706 755450512 101093447 730028234 690240530 2690875 718319969 493672931 624802011 158557468 731843365 434470827 646206941 263196473 659381443 198923426 591232191 634533563 425485962 719617035 753859892 472522312 62595274 850185266 483414822 154354341 397180929 271421105 338104086 190870574 88733888 948354479 310796188 546942467 488064360 760876236 720335523 917370294 501898029 826466804 278104984 627507840 954571172 721265796 166578574 27302082 955441027 845065978 769866856 574194504 169171944 838873134 237227919 764712868 379864437 207741922 647460553 586111378 408128342 859340400 284128946 643740094 291596552 281114783 229947237 119041954 673846742 223715497 187603908 214856991 696929008 254247450 520789426 592144831 495838525 299274824 344895892 456894871 825051193 82552144 773748020 251282117 5747688 709408367 948720960 978942219 240268773 258587053 183566127 976199626 384960210 895478320 663060016 153819154 488807241 594909593 767756890 128682455 48877482 532478427 135585347 506526882 575495981 472132879 906315086 659739973 596823532 745263965 372963146 98952666 299411284 772895842 757955523 845974089 845114959 282788776 4816739 403459329 572551256 602382236 850368449 63736526 28861508 331072011 609045547 361702716 502028209 533174825 25535351 546516733 997177062 417236515 472872279 937722935 136185317 212884153 85602452 171702030 670358191 641579387 943572591 609306713 695434885 720745127 443057207 803627303 186249339 999772785 902289111 90456247 151098176 555501052 63894048 21981268 983604158 8852852 997343517 997305269 875989161 407992309 668566060 438790165 225939713 842613179 399706133 228169216 827748477 152972678 178989763 336492997 650408630 946293746 198742471 400853359 292905599 751567205 707074125 837225736 369498961 122231604 941478627 423988101 78450383 596264136 348456500 207815193 85356098 267652546 602502507 157581955 163500082 822653569 99422002 453778572 234545286 877998420 42710875 625583141 367511073 829060709 980090119 674811239 53177621 372172034 533798350 592718230 261738797 700669655 51422542 914552588 815820059 717297923 748861715 104980351 675494920 345609910 903799015 96487060 465110489 438899075 786993138 767119222 659113067 203713182 670403695 371049973 330265141 126956876 475602557 975811893 50079562 291026886 932316198 526395825 105776018 301634188 383840655 82602634 270403096 215677858 523112065 924326777 418299320 904736314 568236509 842036908 707055322 437513906 558374932 237273888 996111587 691745333 212033935 738899289 21059374 146672124 368186170 26820068 203752932 510566174 45145029 98777456 227011963 288547009 540014946 771392342 987916501 682507610 489276253 651458483 934454921 921246939 815143058 73812827 873513648 527008794 767776786 428747748 141802103 249348945 703299907 900194538 218462649 829744300 380609198 615334349 829157371 293811084 172258090 382803940 163654159 828179758 580103916 104545012 750935848 398758857 104262270 22070285 114127866 954735912 31605124 605669438 172653206 303065596 632605380 638194252 437937983 253186537 702438644 449962744 148741502 236125446 441377891 372919247 560889854 447301492 520183019 855676405 456283041 371911020 615868191 652912338 535908072 691642054 851200926 385732467 364597643 282973952 170574021 469084562 979788867 705046207 783372764 389453211 423495887 262488177 306234441 238510984 458721442 536350661 236294604 290375110 314692316 360100629 221072093 87791911 712909761 308736461 890630258 407481456 152703608 642986820 842784516 152685582 64055076 844529834 869937475 620283402 359070120 699018173 906368146 260709140 765846926 145435542 306423748 937215689 162190022 605159733 102810076 524553971 880122999 146613603 980876612 37936158 618054174 33982197 41986075 529305627 351397935 981881843 626817823 175122482 980983653 514284275 54833178 85411187 450076756 551460250 351158084 470813722 590746788 18685201 409995923 216413783 62270273 884821682 884784686 885522510 431015564 122377486 736442492 787246515 928077687 388433921 400471853 18298388 560628993 740746732 47701797 129322364 766748395 187358195 113146487 674345833 465155446 410323523 970524009 944408300 783752873 362761214 92210892 575581187 970774723 626400137 924391505 365291000 426579945 76431057 334638900 10216657 415664336 425014410 669509304 293844383 712070113 930529871 355158479 622829214 63225453 314517873 295474804 581839052 448867603 581940630 574854571 920880807 293774430 527085901 211446069 181782822 629928604 172360966 850819597 812340750 543993587 925781056 90369583 571319206 338504706 604994172 397248679 641163914 832807771 959599007 890740178 543583849 560629101 726192373 165934211 712983218 974859435 155052662 761265158 146296368 737096668 996085987 847541755 54623009 708041911 861323016 475701147 285003194 43115814 844040300 884370545 278387001 221125331 574858957 417818971 292266027 32339154 549417113 275438506 217927739 198170910 935487669 495421699 699424430 844376170 946300622 99709246 598149197 44954638 170558938 130744121 7048275 987228550 882340616 929988684 2528600 188846536 134547501 104868528 898632489 773119368 513300343 229547471 414918339 517976326 118807476 917151157 96422914 911698281 239333102 120930299 523646827 175433056 634354646 389341340 841852694 70192245 660483677 860445233 738788172 39896394 318070093 812648937 778898380 138594343 639954486 729683784 295961675 778259675 330500333 628276844 151389426 818296400 313685976 266165600 995307381 463124286 288057925 588620669 526180433 450426577 848722697 69103611 363930951 590230470 240504067 301918811 109631399 551889256 274139337 425592425 139082349 247427146 803868960 37121814 795211813 385724910 489450911 922574170 125177235 691378061 17942544 776284951 156908208 606610541 919557193 869085327 805598597 745810490 390826805 665186085 531968953 708256531 701758996 788251380 542192419 837083565 508105786 919781754 968681262 910946238 375728009 302314508 593556353 301765830 320803320 826583574 36492689 88577877 155509466 922475351 431740700 171650079 122914651 300282078 75356538 971030241 1273692 76288063 41981165 224053095 482848901 187342718 509394822 635060103 565653110 571214065 917292696 258200914 761301647 637875519 45237311 682902895 566444171 654167661 798121265 44273113 773027071 454067148 99100552 828305840 13203648 636044520 527044174 879633957 808511682 511478758 320019974 316845712 60126735 818868093 250338167 765936669 303823131 676937708 139087646 638640600 410268212 90303092 642939496 37226400 112340332 234601593 762255136 276570338 662402569 109316258 962885982 859938588 643070127 338330621 298286358 795656971 573883141 62297764 981264606 529808196 165663007 304881720 519108680 418551822 944067991 939104273 684871978 223777661 899857618 146035797 973014421 561810598 459099098 806297255 330532393 461265377 961378487 615248622 473270355 713757620 473922588 351973198 74336080 634251005 83611438 872575171 130257269 487403487 42290024 526607146 794619228 879404803 618015902 708122770 316447222 470077405 741655887 577543116 132903566 758438417 931209703 822702548 807367667 229974182 176566509 976294469 889483822 711527826 546149634 252671273 639044186 896014430 322808462 608423119 818184955 661754568 609143644 922905418 48381292 46555163 900124213 476138327 747991439 749167644 331070622 610466389 595964558 787331963 348763087 190171890 437334569 248542040 909872931 7289924 261157922 722406020 29880126 655870453 403596970 686006962 734916627 453566253 824467762 985152701 487337271 213741788 812301613 873119456 114723377 827360446 625431289 410708769 140067338 980599561 660730546 663233665 666108888 42932270 488255452 797659499 296383558 715986999 774202003 54956556 428800670 962210976 228697634 10557340 26425190 770952811 1646258 121914005 650263844 617655718 329721314 595062098 745269834 383583741 859412648 171801854 6220607 636209425 212324370 85621381 980915492 260201547 878676219 109469550 153024914 371367252 952909523 946296227 60802530 364401820 735153961 901606375 564351947 266551866 751218943 518247827 6199572 611381958 52054954 450517479 37447715 468818207 609722215 947883336 462403805 440486624 984508883 324317309 45470243 717010987 291127926 613723764 983676756 760166761 841748136 599023457 801010275 420020445 600081991 478799839 720455828 578579030 825697008 366623605 357426211 357504298 856447798 388495652 438012489 168505469 297790063 525804009 674185800 818545859 664594915 987068917 510812659 456378965 738357492 689498307 773661212 384892749 152591188 891965602 803261373 66100618 230715803 915441240 553852110 436894165 164771091 204050828 918407098 265808548 33835690 627331171 28932258 153951801 592382164 527040367 253339736 639261156 948081722 371517298 364757676 140862886 541529452 39676058 247349881 682301566 824354330 562476472 245280641 485316275 600724035 921052984 897286700 113525613 178668054 420612274 821685333 608213747 855284270 177556864 223019506 737186602 729048608 690847054 541429415 968101890 719515423 723311721 304584849 360910094 387909554 241544307 862274121 140024192 643121842 37574411 471658724 850482308 216443919 141944571 613846398 639192903 931539723 207566247 873140317 182895876 999344900 602638882 792778028 114212138 327531429 540345135 561398254 599476200 959299331 275671219 688078956 671508272 244722663 845845162 367259119 73090961 242883033 770907842 32589718 490688211 211106539 282864301 175338952 716012537 987560056 495443647 200314284 809316861 560656475 147469 716445411 963310831 106982066 794205674 615959492 984228005 146451922 278172221 588496601 502993021 602143639 246744785 708423421 967663792 242534627 924450757 959564018 713317852 949358530 22929853 212085306 955460952 377696830 908370115 900184471 959084838 521803300 200050305 494306856 832297060 208605798 51444125 647149775 577172877 246781964 46965671 909539385 830582407 539961473 234322374 33684360 659793738 158445446 300962624 319688084 665736672 90009680 425472469 188625906 615892627 953094386 90929154 142609860 637947949 721435766 243707929 692227354 837953200 624962009 864645605 573056665 24829698 725568468 424367779 734810474 318639781 591060485 183907602 496702862 844055977 925670618 493473028 370411075 436577461 171352058 71820988 291120758 474597987 613923628 135635128 726916835 655021416 530290952 166317324 448500853 11285578 856148006 848550510 908401913 193595190 937801895 442192435 469595729 435653412 252664324 679570078 810928382 91142765 42824634 481310574 477429723 811795049 407808986 572511445 774153515 370282387 986755996 939457920 493226948 474723806 164206289 296055374 101302407 657098 119262819 526152253 600546259 126114117 136776935 870204653 455657193 105194722 945913180 213588675 275616053 842277594 514677503 497610457 466224109 688485581 139839441 678864622 732563750 525811899 76478767 184430805 749700446 685840823 227505145 320705864 566230358 856356277 295730520 449491512 198753821 601991437 977226212 422064094 828471882 197079371 521433439 341253050 183941058 748185814 800455092 662827176 313024849 442691675 449285052 826220408 191973392 418176921 453961783 987035521 610130828 462621826 306068029 363176620 344225425 192203335 333881608 525672807 788496075 72654335 832043587 899833717 366546202 480121940 634878337 665505014 474815445 420746131 394715867 860275598 8466584 505268212 737392126 30327725 147417136 697106467 116887708 453035034 68595656 614271291 530623223 181103250 764354005 337260803 451109449 499051126 574799283 130913064 342733742 656077077 514374224 559937494 928570697 274432185 457968972 988196603 906746 124647417 107008415 705033808 622631307 14031341 922446657 85353904 391398115 904062149 400874429 44351320 421694160 697363522 743955296 519506113 703195320 898764113 476385688 747188407 885530372 306753870 418118326 169588472 753237021 137092269 456910189 90843750 727893295 117470784 302315838 397079084 951088831 71353806 654291816 257005699 951392376 965877644 681845991 593930150 646980449 482717310 699437927 961781323 839528670 523021685 420445137 808361356 40544304 645432797 435612237 121534177 515763452 869585021 688317929 195619029 563315987 991315731 769269127 925190364 455813982 516830508 980228856 359206653 658798372 230564611 678411268 706298683 480997212 560644736 739496753 953519558 27659057 520161490 130375643 114043204 503607448 20791053 450671497 408575037 777369305 264058280 272552247 599581746 433497588 870263127 504341126 799538968 553622949 170648739 377130492 244148423 55327789 400652878 564179141 141513419 782378304 14688428 936162024 732975288 793372213 551174181 135983966 570773746 137996610 808687331 427339604 300451436 620447406 424917476 330022150 339631685 420047629 927822611 616247218 644966875 851875418 463199322 617531881 963845618 352251713 859971323 550894806 310552041 860658988 126270071 7010157 163457955 336144878 80291114 854348464 815522685 671527530 789311205 319090608 34621599 15051608 980654366 820706508 953010947 840492866 449619523 811601584 454434385 973762163 984754623 432495550 179466706 779638254 26573548 998548426 337926100 853825055 445282423 505366755 903173309 684109700 456734588 363364441 102765064 132411682 976124314 721442937 465389211 841918912 452458695 354660603 470290425 934783230 113460825 142661450 688079419 843522896 319190201 869218469 927116166 159417378 485903021 397745089 77504449 866868007 239867668 443858000 405236023 166364580 809483858 712767012 33097234 539637359 122111447 962133969 169825832 436767820 11053350 782803693 423527669 660848629 363738229 549182811 971802417 113381099 35511049 141472247 569478667 210148503 533528756 241676684 113692676 938018812 279615870 152162707 746974083 723264731 743688368 217028485 272267392 956032321 344176608 966558502 54477468 653044273 453479725 960276829 684435536 927629816 272578275 908370651 718513370 565735793 546995587 202972624 157405723 472345973 376181765 839759509 749738774 220102105 837469286 244757226 655915678 429501749 944071082 261913637 192196526 796970047 989187273 468755869 146101859 676325570 929367874 927009452 119654221 357367092 321909411 557247290 19635804 698120461 42289127 184888215 59011273 722344180 703369224 662571301 588598032 303198182 305858373 127822028 49785625 972842821 849486693 917994333 954430899 156146090 631197705 672420644 286493030 502452893 967933707 333234310 721110646 487433749 159067630 355634802 96750956 417338453 914437245 441460753 258742930 385283320 821261567 451412338 648192392 484058349 924244648 450965955 395698388 466740926 75542270 935220417 997167510 775049632 742650872 169583012 617463925 666078693 841468111 104764171 946343938 995378975 777478715 85420063 834257345 241600363 649265884 978872430 839252657 884307846 375987837 918731932 431370340 517582647 676684336 846043282 791482352 585238052 197488236 468705618 460938167 403585768 588007787 576123777 905245806 717482595 965266998 465533563 898290923 83025431 592836354 569475763 380258262 780862520 720288509 957586641 539245482 93407841 677141535 311053589 492321049 671631565 928027603 646036857 513325040 240341956 474489752 568374993 997741829 964323924 689110457 137605329 924184846 847947450 742147416 985658071 895146331 806992179 395178123 238473380 493502868 570517839 312465913 968641365 304134498 124473880 572111952 129057323 252181758 678348816 243696401 566488977 621356459 834061661 369531389 393385858 323610376 618286071 852533319 977182335 996980743 783694060 797768607 535208917 537522598 15396076 916231142 555502087 513671880 925801678 521643369 631664175 293545336 189267112 535445835 152323405 466782691 137182080 549501292 106999611 17898720 738923012 74994898 942912621 865832031 579571194 626935433 251969547 87538288 158030199 668982263 643320086 826857517 31521400 762971903 339665304 211910148 463164757 692810401 165609914 888716773 236103241 431519362 528096755 716530401 505651951 64445344 855946806 382266034 442215769 86812879 730287037 471891229 522494025 958598924 969885027 719561110 751773152 956107926 628639017 728783466 839593246 192079942 578140148 384546327 212264588 281319203 512114187 163888466 567658674 993066371 781103711 244772094 215849454 368117602 390786685 942786186 242778061 339808615 49974098 21057128 157601436 40452029 170127014 500685915 930671870 26724536 888215443 472055458 725488757 480695902 31396833 650512112 926300244 350448871 649475459 147086661 930114680 831565846 605165858 556810407 916849758 489605426 351266287 510229639 804285048 891735610 654558230 806411701 206568706 875510810 114544376 816313488 231132198 220496830 434726290 506851201 594286068 972179533 31257818 585343727 362615670 164229262 116290019 570473906 203991516 67554956 101976211 738318411 698042975 455715186 762449558 281737303 401469859 124728110 649741682 560342223 867867298 28371078 666347655 329490921 973505687 501651853 555303157 104761022 736777582 786048413 762349010 809205606 753803348 654094975 890952450 709853970 921242550 856063657 780245727 401907842 71979943 624990797 83962222 909548187 427239535 195211535 971392308 277505892 490544432 56126119 431659874 837902444 796869052 390695586 846721936 39098672 86091581 703680460 322132164 311752013 874049513 27461001 380882184 277713337 182683862 434247085 106414942 291248366 4928332 873775721 514057063 4412418 826456147 412389137 301746539 312648893 679318166 754236199 953510827 188965077 713440034 34722998 706616410 115701332 703488673 261623051 94516888 313334711 948953956 287740956 500970077 567163239 34072669 552147695 865554472 572839725 917262498 339183089 249275676 699103959 309696303 486037342 849103084 967002551 966350279 836586267 32813848 314826428 721727717 208212365 967141368 930736455 195474495 623394790 52033611 705164399 438207773 992899170 594217827 878840317 403052085 497301093 230009840 836279293 827209177 499579240 141757263 655588483 824332568 376652794 327443927 400059288 170843962 824845784 75190323 112356422 316244290 546905800 804967094 543032536 959732994 834976793 158532539 411880399 228075790 300140254 860444132 226105628 782044422 750412226 197867514 769367499 641994696 907611483 902743784 925624229 505517910 494781170 177550420 161186777 803915923 367478958 89744424 684681705 452310634 602195699 947486708 545531427 312902793 21666736 672497072 672394041 55173751 372556527 991527210 866861944 353527671 844344751 43874355 683970610 881855640 617920419 645053701 876383776 67157283 612701328 750067275 587759893 865743437 806459728 687187410 293619153 642636586 246714545 571201964 406251208 937520170 281715145 226403437 46537445 872455431 42890649 810437813 513642402 277140166 849373755 877428258 947551502 991895711 707682344 689587071 419800961 799324049 559565393 422760468 542617784 111135005 768246248 988161873 304179091 378510848 826104748 222939217 918515647 374054856 750429887 519375615 496443755 738220633 626670412 646071213 299174211 946917569 587661310 919964888 72306044 228426621 232053446 794119023 814660338 877383230 802244349 432191041 543656401 937092954 526040900 629408720 83133685 169587775 557214889 532142350 391919487 937101113 448831206 578125769 291935784 183985520 409972656 991266565 367603916 465561727 603178889 537544641 921181917 111899586 910084153 519139059 688555664 804826374 465770358 232805678 62952343 168855340 923495499 206482637 67634925 477149981 470588590 543039971 87476298 698276226 448943273 328541672 270720719 968337049 296471330 479737458 524279409 756652001 237340644 157048999 703569574 519424434 972857965 506242939 552450078 100038053 341289596 843998650 534423142 887129459 558595832 332145430 668190940 774328739 820620956 935758513 813108275 661137834 726964289 837135976 125480073 300921608 266859033 693883424 233616979 422554410 681803633 889944471 80976894 961303253 129236484 231786693 801679297 980511381 533786369 11961394 249461698 949756894 303787969 220521147 101116497 38736187 944018574 902270313 710912945 718717823 894925565 160746016 634524683 363261687 667488229 567814314 436055085 327396676 431303143 553743103 414024076 364741558 910429763 643590166 860585268 264376770 890030176 778496181 53067869 883834343 413577156 644484697 445333717 720203960 655086806 142038804 846450063 194234240 904925521 70022822 289716587 923974276 545283242 2138501 690695614 134175819 873316545 257743786 990625366 515631308 751625367 87849137 605018049 556302917 999234786 527771284 882457699 779201352 567606241 388680759 395148144 875971633 80784525 205017822 341644217 280569901 463706316 75004325 409444599 449624347 778996432 954089849 694209931 559711690 151375492 534627298 311483492 361509777 236386295 194974088 821186361 538520447 361848608 33116698 396802019 78916325 756854002 202374102 880789280 78164831 951667144 303447467 92031885 250136467 318018874 725931083 137891313 495036750 320040989 147931324 960218325 597232685 894683295 341521035 299106870 996875214 20720506 260970862 290033340 852468377 693187144 581620949 19205799 653816263 238003153 849824092 956046477 471412243 389631874 255061710 672949272 843249245 662082856 895868314 853419230 857249218 861116308 340495708 432880606 339518658 653267607 325806517 820667940 136670780 634058883 195741276 233771390 60071886 824788270 635447276 394801195 440124916 435007992 821208636 917527203 952694581 614129796 533390030 68532370 254839709 107708173 781970739 900035296 836835672 766707603 44330808 571231204 826730018 938364819 569654336 489860735 414255121 712287037 284535547 415731067 963731553 552421874 51733773 242472936 840543587 997112496 953886340 929940440 646661217 444771517 893045828 437141783 949255876 650101741 642918379 459921771 681480435 492626372 710300719 444715070 984299231 285143332 486288298 474229898 37471643 332621866 665508311 917922381 648210171 663914295 229354038 52168901 844509384 291633507 21419162 407646610 766570496 17187623 200419568 832727232 982052854 390872198 408810622 441647223 583406489 762095854 177625402 963770788 633183374 466312875 33546430 139812985 760537139 924879274 207255014 505933592 812019446 593096111 853137792 836839034 897354712 59376851 151422716 178774347 835466709 740206486 201360501 369717668 837996979 532471660 583059090 779476502 834494950 953283764 505762154 529591671 509825239 593035607 556598278 75357730 801062061 459511511 545693172 275969966 476124786 254461597 36279414 846763771 628668717 97580651 61813700 571674986 29009378 376973396 486995 41997755 77269245 785176698 768619872 116553438 450081833 336871737 790076628 579398996 413723485 169393924 903116323 729578980 425378559 680489633 766750914 663672870 109546932 679911151 65659054 714137762 753126576 863851232 361570019 26093793 629504510 26874307 561130696 674796404 949090243 946699167 360942038 329219776 713633715 8358149 998349734 647394164 108838293 972798184 336604863 837179158 308331936 55297343 302411064 85952914 92413912 28957872 369321179 583129890 781528228 725925295 3359345 716649905 834479777 985485438 395153174 787383520 244248591 132565051 307918045 103865550 886000701 578684103 130490944 943712308 873828690 504601422 399716394 281561629 442572045 364440369 77658582 606803124 843957812 500667123 869834409 205013359 997091058 562862882 841908085 302054820 80891133 615943548 466802169 706947364 983226439 788057237 677618091 792849874 343382287 820647549 920683191 87001181 867175160 67494056 602349858 704070352 542290607 750397561 976298960 901136192 199917311 323078205 884906024 997650641 438142754 483627575 263880634 452067075 38373070 724666221 584314566 109068505 244741985 95729640 283222626 126650916 337483894 676317893 802909712 208837322 308848094 846516894 284270218 741178798 258084453 732253387 473522332 701262679 435216789 810916940 526271588 882969740 123305245 590565135 242832977 690366200 352183069 455299126 896549592 550166427 967068902 486325375 287625686 816657567 608666709 582242121 559357478 684156882 271734599 795486837 719498800 293514770 723925792 721001530 674751847 181828438 662748734 953241258 777747468 399563996 475895180 516290216 540991428 822392131 489765448 879954431 505716256 80332094 158649993 764332343 888922733 818064966 865543641 327466985 719049125 112961165 710057354 959660720 628790453 848775712 878222852 279107607 712202579 655963038 760444082 614813672 740831161 40490318 634501521 168459101 258373624 434536631 307862132 333812691 36988090 764969487 298732517 617793886 644803372 554433723 109605865 705249407 918677265 687312194 274123710 971958246 815886894 488787965 990800606 886220756 488346379 279113578 716437343 517197956 878029721 402917356 608645739 387243793 283459766 444749918 189025638 462914559 532366751 128356413 180160043 775727193 76726397 62384564 981935757 275179700 818966335 216598012 792838168 22078379 742259970 700539116 670407625 999731689 841294815 131451206 554104782 642849595 281786241 117694550 458968846 322314114 119158237 434426775 43891518 655074431 36954651 442499010 619773018 869227046 84880613 3958187 92561973 567259576 857615979 172334361 83855138 706163666 835462639 287145471 524965425 194519754 878313600 325807945 888780223 331637981 285411919 413276704 930502312 495901569 267184639 852300615 721341038 184826359 783897944 852226978 242288426 719968628 318959631 549767064 856290535 288355421 218762989 592435501 550190954 396654582 940335876 507668872 906305178 212889371 610556210 648984653 780679480 819910576 143592297 83523622 288528618 770404855 558617808 610808884 440505592 980356856 457453561 823239566 138976662 812281726 100313724 310175015 822163756 985057418 347746392 932489196 407922710 27885753 693500061 125257318 277179267 331807654 592435144 731069075 939394704 865977481 770562275 489721840 368367258 479022325 120909053 828438191 740551649 523061073 781963964 266574328 984022522 563707457 352652815 336787663 675476016 866023180 721613054 56608040 16281499 319159401 346301522 106607879 883049237 936023128 977250098 143012452 368517396 351294724 692697562 848265567 927120759 681245547 578024712 250286163 50085642 15107415 279867555 825610920 674902840 932392258 620915317 625031870 250409783 564484284 744710528 17272504 136993788 105975519 843842859 580645319 182824024 934620927 365486264 78152969 851692940 685083376 908189755 886378076 985464326 83931974 625304790 836517307 473252938 125589395 425908128 414393352 866778527 940362873 981443206 583337348 46846722 741812527 12417538 606857061 987410681 497232179 681250547 58496797 997987254 603093503 777053959 918149649 545898590 112912674 641325019 870658020 611187464 774343454 694301603 603791362 68704577 555627292 409501053 602590820 959815821 822930667 392965336 513469377 5187829 500960112 864630183 27605041 200883576 891820894 249206686 47152361 242606452 921859091 594462920 11687849 801532921 49823001 719899453 38548802 566553750 187055241 420169920 250192415 686143031 122297692 183084925 153894125 40706124 354247061 97537294 894503184 491114741 647973329 254563548 800762739 496868772 934893719 985289921 246317733 594725061 407014431 541586568 607284530 32193991 945195173 534180831 635874271 957195751 168826821 753629904 533810148 966300526 817219568 324059518 54650719 295855341 88145 615196962 376373231 844406782 887358906 142710588 541700488 471756300 197092047 862708218 59956630 651097004 572429396 135345983 362504789 668744431 180826187 594077234 343505297 481766414 206823891 229173218 648888486 250323993 73630367 687088393 920900011 360733695 774217364 170127419 904567817 105122505 357018624 972322391 681257507 292357669 215066948 339094367 783664392 312711405 165280138 169516890 442595057 414126123 928995538 53249158 638110573 845677380 370266882 295071134 482902219 167203432 213024110 579784503 928845794 643439750 470354385 932658848 432832016 513646295 325864036 298592195 671531570 542139691 299509193 147524161 383404989 720623816 12624881 760746979 513147381 764793959 748803913 222657697 699290344 883358633 587822412 7589282 138989939 260259872 645711059 633380656 131426595 785876326 184210763 198809892 451255005 326868072 276220966 172601885 786065199 185849860 940079502 952304775 777415103 190289217 261169253 902279638 19179052 569114659 546811057 984457159 656515626 539463545 190070357 101570137 330557496 782755333 618430275 643290144 639985264 168870200 329884706 428028555 639853088 255314073 652328825 532671976 107549879 185250560 495893003 177621199 668723530 54844470 714460097 194643293 384263225 632728285 288154777 759794427 346998029 944387569 854340876 566892990 846653696 998453599 462010534 256564286 335732213 511884234 78154270 829919316 299730449 839850138 867828710 909438891 624761210 18292048 804229218 957512374 116874787 680254585 433561727 84188255 146529006 78279239 321394543 167741357 483630574 1884264 249954271 539688044 749575778 436381683 276650396 297242601 811106400 48986889 583526732 780659732 765274164 313364318 616953536 715078151 987722483 817658247 515526099 641028878 680273457 859509531 546420621 294761390 209982688 64015233 40932464 831425006 901394317 888674085 696390698 93043040 262391501 414097092 507849527 536527369 484168577 903759 223808363 262905500 281893692 540439067 758720104 10168480 293034486 311346545 715891101 322535854 534482012 610440518 193987474 601125155 487899798 36126650 273412928 679235814 870545831 195107644 381719505 924589944 480760901 224207563 68143278 829285757 930843947 943746858 465766592 626062963 465323452 78733895 768335407 361649005 211913227 920696658 353866322 216684591 27692175 943835556 260033807 374272627 312774034 782516134 78610269 204867431 131660183 449194910 549983451 221944611 680901209 562431255 17298228 283523051 577820905 210491578 316560812 229258643 572718321 561907120 843843064 978976140 885415059 812945755 295945658 542062620 742495253 43118750 872824400 286132587 521130362 74978932 312225495 701372389 269105838 595304863 461654141 961663810 475005235 225072609 688398311 120529230 792582804 443824323 730890913 817891928 655882136 869592 864816722 442725686 527464766 498394307 525256012 976016260 474153230 63787448 379649871 427954184 887353149 705097488 680253722 410802348 36306725 136372864 746887912 713462688 742463909 849271571 257854047 243439957 960046060 42059494 143063875 292572023 280178889 24642462 706302008 537469347 949749881 545845896 96860943 360898791 354565895 430778786 69425350 472184644 983656671 69198492 600239917 377425642 615218551 301114121 633724107 434839226 494953096 271778833 300354885 17650056 322038665 168049993 746863321 903356278 449748910 900277616 22382124 821728821 170255730 751808940 697319859 551314950 901732075 803969599 889440584 357879730 121127566 741552989 482488143 960650025 111975113 32298843 775480979 363037070 267674868 615612988 203087370 681555201 514352119 852542342 251824053 370012154 522594279 744199178 652190693 223053274 49014061 141250459 100438412 820550390 290469467 300154610 440487505 993305941 984375303 370252376 931287213 481105220 45075906 226796423 220257596 583441427 169996922 369634862 71664044 244643594 981048891 829908041 568266150 779421288 409390154 829121039 460951730 406887198 586546125 140887439 428245676 573051828 131790210 235815280 91809245 505335426 836647809 406079348 697698008 762305757 846869848 880598751 218079446 683730977 715604220 897382988 659783178 568467391 560424419 169582132 641327985 493764566 161536818 684154221 676621450 608855220 736764642 4866083 277632595 946875288 831674503 550966090 831317495 695209721 561314640 957934454 765986828 690905201 947772652 316910597 553038595 753428095 155643134 987561664 956044848 917336448 520234922 576434440 268460390 969338437 263668922 735726533 377341286 812173475 39758835 984241328 190604405 959791898 20802765 262272909 445750206 77766820 885591644 27699262 575917247 599463616 336191925 7264728 348119220 918342458 133593713 958062245 704043082 2486386 498800891 203732989 93744257 659172592 31241920 859658342 903929169 275693062 228450051 402596515 202740391 851478722 348556037 183156218 385676298 497129622 160545751 984759046 451244633 262590754 520024817 275098952 497152780 988440452 642617934 172747805 800134558 61920852 249712463 431824168 833279872 829557586 118226326 560068690 260149435 504583844 592009377 995134262 627680283 723420765 527843531 320709597 222697691 78413177 747485839 5566035 189791577 510091781 429762285 630868834 194985037 59068966 409482047 385749733 501373196 852458654 800931841 808065234 627043150 587098292 670927274 405282812 696686576 464179523 958252922 488783822 271167008 830596587 224428533 826463097 625964283 69927215 374375924 882188598 365783843 530711914 222473515 861283043 745568534 976653774 18711636 406788877 93315492 376883986 516985105 252462399 701632623 94010622 27118754 192507752 925691693 365426195 784970240 644871698 473291277 513850979 437244654 199174047 774847251 776965607 980191963 93127586 661657816 390286052 522440546 303434969 243269487 939043864 971086895 757854482 560228096 492755144 356676793 287614350 817541180 940505734 893019800 927543910 730920731 368196092 919836091 224795753 737172577 46352779 672601583 233351351 342038529 826511628 928786296 830332416 881060827 685995375 324669960 459476994 416133727 415354931 241701765 37977692 45630703 588470665 890456481 197336397 275753914 86543543 802004387 688738020 847946665 746738489 155109492 680887211 681318156 679703370 763585243 348985854 560554249 741213950 582571982 470693071 928258140 979974468 938289702 629970100 121294251 702949868 713250191 880504939 434621653 847910431 145839514 346780301 56805188 601715770 323729820 331818942 418495608 246527482 79200185 357140658 804567870 519614866 721424926 97710718 130986918 728707547 202636579 35149943 842259210 265802730 3818227 424648272 157266662 241453411 442822755 41094524 256553062 71236966 512333118 819280767 475195431 610550486 168654256 150316219 972986148 897246714 517483412 145172113 968856838 981615213 213160466 270046385 96417619 109498701 182418930 500825710 550728050 152374758 318863481 839638902 332592338 744363604 991599823 467903105 65758493 515159660 862839350 221579996 58278780 45909433 69025282 661205335 271384744 93747598 475364470 634365584 421857778 82619010 943135367 471073783 976600593 281124124 211475331 822158670 984154780 37244280 674121388 114250517 786240162 496628133 49565457 233514147 594364161 381282918 513962488 30188693 905776862 160580401 204954385 299233832 963911124 399528125 931439383 732917963 895959531 596423822 729603374 404974587 210165734 38039336 847576061 655884909 529830391 817046531 632846450 15012814 992930338 435756706 698012081 403260914 263916403 191760054 232570134 733752000 871175105 676372151 294918170 445397691 389189414 846265807 116366202 880792202 710226363 296635856 724440068 158711611 63259891 12723301 141902371 983589021 851159946 264800818 421906323 821553638 106407615 557278043 312445484 55779663 57380046 872842388 793090078 902494879 358365349 907647536 203342337 394955902 546441330 208482578 919932906 760054413 698499243 975215024 311622744 768583321 961523864 485807432 58980589 882111432 835473859 135370739 94572805 127139333 610607811 571119280 985745452 325868825 805018175 161087119 949870477 971197607 799667812 92536287 951693889 983106795 835509412 56331631 309854966 995644562 116353178 385960902 846292549 904937993 94612851 880177076 340391938 170654637 202631151 271462724 72564913 666280580 842033177 391259008 387655469 855140722 431443231 396217368 933726328 272428671 329694888 764343572 879753019 2869851 333590748 613137489 750529488 229485106 570358911 966913868 685431954 467917019 3584460 726514875 387450342 880881575 556099401 665505541 67777262 294835380 831826784 850408266 677480768 286724235 593107354 8127447 174277315 339386942 683573800 100628006 800604017 309676462 949256304 66160453 469120646 720761563 256515032 52517332 48660422 212746340 938721532 946821629 116143705 873958308 556323272 479455394 81912895 229970221 993762862 247152923 983226842 956885250 983982493 84671206 919284393 541252668 778718708 838275860 987647569 697147195 25897850 201103545 861604085 77319009 788881585 332619351 335400837 994602499 56233439 426376850 312271754 13630648 13720729 660189785 635930646 977619068 895965216 814789117 725799662 308003547 609097585 846685433 431062944 562135915 461819454 308335757 226956189 913078444 8560161 795511617 191854300 761082999 212313478 613567671 816103625 27812652 339979298 464675820 413956462 923672237 553226570 163668351 417970453 230861499 327363088 170747706 382425087 506815719 796545507 409782779 306728095 19805246 998992709 19967109 736165887 578689145 103742109 252084142 950483979 915983792 701550251 780756145 9467708 480044983 293958588 900441219 541010292 24329071 932187756 757426339 928346044 749453814 332789975 785299938 332206447 534295230 935780583 164173681 844513491 915885386 21732245 66514488 791202420 45152691 328423614 412130689 274462573 916350518 444297968 181310464 877633044 873578845 210897758 345655536 714944086 575584612 216088177 481128115 766517749 676154411 627476496 475764976 204562058 799102965 326919574 448770830 30695941 804878456 622580821 578911158 181798649 118580189 461660301 605477566 481982950 129933145 475699088 558542290 238303511 424088535 273870568 274801959 214112269 686495209 361567965 985044837 737543224 376629857 955758385 748128263 114791193 283002020 683316178 53059475 323517713 796910421 10645608 971045820 275547228 276055033 955133676 530128333 211927636 26308257 775317906 426262065 878198552 691572223 26554622 821298768 670237543 71826436 585830534 532304618 420524891 824176297 729363802 24454614 431501094 844670883 298591104 86026530 534845213 795010824 976890909 386543957 111184758 287228678 916452279 584458475 988823780 261848026 93370181 931862494 394147361 622038513 953706687 936166836 31615626 308761188 105649448 89932377 298515121 258869462 531663086 373752327 412785057 713357718 331339253 128929762 477396354 731640567 739645061 456365673 829189642 214950507 162005399 419703627 928067218 338781666 671610621 444643870 914927435 128619042 622340434 90622592 980404441 711996412 914555035 326047059 968845807 941327626 402873244 625378081 47263703 579706272 611116995 161444841 511952895 362847959 60432567 349331628 439556640 188281176 85218861 357882799 858750692 353598509 795190060 133281192 428546596 647856233 403763948 521857419 120231618 863578594 27396702 123946284 98937180 537248626 253543165 252082056 675839734 212700380 976831100 375969894 936287248 769877595 132607063 370860308 286877547 729209935 176300583 787915798 601668555 844255131 921836747 240987093 109887052 743111347 45035948 367488302 9203603 758668035 739591452 745248940 582198289 177801703 161808993 341932011 544783337 192429629 784911316 686108984 737977952 45965260 23422700 631586122 885123240 314978280 434999624 587687032 185041928 49148644 300694903 698101496 113611665 278477598 250203989 722194891 496705310 757039754 526934934 463200960 918522297 617275572 653320857 719671477 436763734 213059793 336467073 550931333 500688928 45207108 39466360 297953974 778954182 550070953 126470827 797599387 172401825 119255228 591144824 356341857 960022605 997995295 139268488 528861331 308063437 872163743 549260518 319608926 832468146 110587325 987096259 959531468 702063973 614642021 583172135 208804874 190868006 763537894 182460383 519035021 189922792 973975886 255161111 512694402 917823237 643366772 526004116 773613839 853197453 457708486 586486739 106339057 476924160 614990018 348459008 572431171 916898032 288587101 810685403 23446002 663887404 184144763 477806191 511197941 292218917 699302863 63704924 621132534 864701927 200021369 834068586 914782620 92634348 24385641 222450486 370904102 243152052 466266142 857324208 690494261 441974953 699653330 874064794 725926661 221379558 569218982 262639231 841394410 143618473 33616779 55026681 359511863 795507888 849512097 602150370 406810880 511431107 989707165 903936935 871535756 734006621 975393264 542380020 135098823 174395248 671775226 271931834 65568927 500065944 331609751 561006214 335190285 695366708 809639717 875325957 724974760 87747320 906744692 754080636 437690687 811660224 266064202 108935239 755087244 104894967 643005632 891619719 52311376 902247647 608188906 798411674 601137908 735875686 960762737 314521300 213331049 99517384 717098292 564759575 725466103 452038094 414303467 129423441 170976214 434635607 691115498 508092201 45779185 810351782 680705761 440275105 514553822 833076749 426256169 817469049 378223993 101007048 31624517 543520391 175562383 44858713 540070945 629943103 510840417 400682793 83168833 55849117 168622492 748790209 808230473 350399286 446469913 737871205 897877142 524813624 45557857 1247409 399204823 901042422 269495621 94466703 536170878 958072302 765539845 114842592 379435092 753627674 278120102 280205630 214220584 365672704 531288650 560835461 817122276 583625886 704837020 147323338 814175613 880436360 673378844 856628788 463829834 503913946 348796629 466744566 963676483 338289200 12196630 464724119 502519226 215172913 412992851 400068321 272338295 124886703 943504752 854231651 94048896 467715930 129379783 161311616 963620511 252808928 734609015 535542103 555076147 90550267 194155900 861107422 472407825 890992297 764172081 465024040 460275967 545094192 415310023 300236284 961126675 625802910 508263232 987888737 699129317 279595459 289828439 69877866 902627554 459740015 195930043 63254713 920820417 321538609 248033526 653624084 331148281 416321708 330356203 945526110 606683464 145633658 482262510 764248412 200662064 313777249 144520775 353208595 520028156 9524037 192323844 884351054 998977695 338993078 258854435 889865718 75128929 266163179 704557343 427626879 872220811 245357267 249484803 39664738 537500899 380364746 729671572 920144227 569783563 915030533 144130852 582460429 621894675 990236769 915866899 65315196 993993707 133186553 124271528 458609419 775132801 290854849 183041494 3755654 929023300 932563286 936759121 476979421 725452812 931748311 543985148 968608308 45859915 630484431 196279543 481423209 824416232 677341228 649587965 321850844 368317634 729358864 159184629 960495098 141994911 679718638 132921706 814239101 628745321 493343967 966513214 914954121 84035267 250268942 914914647 477650235 547054463 739448950 199021113 794988727 376525134 660389263 289149009 678585982 66465912 567385083 742287936 970515357 566120693 893014672 430147297 440219120 591718310 515572468 683261860 548513115 33659001 212758291 451438861 826821635 919946695 946448568 784508311 630759134 98346417 827461980 335040549 225563539 558394252 599465442 173125738 806759515 677182478 28825365 210902195 958434043 813869212 983662880 95276344 613902781 963207957 505199425 935945491 939406531 296341662 81735316 943182779 801470401 924303816 981511832 534695088 472291528 585088551 138941932 613239581 20004908 989702454 605440162 100539610 104303517 439484798 632308552 807047836 471214992 305559712 590949682 954482512 709236551 12691354 301575687 712049677 26965509 107413901 937118003 133641975 864002164 439413935 633776728 150587268 740507553 988063685 755387298 126307901 6981319 560985445 892880967 221649100 539146327 958944277 617943341 198926739 73339104 706264196 220608561 725913922 784626637 535154783 202732955 479096049 271516420 331110063 49169301 159176924 950814339 975627945 296974349 847245334 543852710 841164116 90795753 231757295 495622941 813745819 898111382 907529607 170684129 917730012 962796436 308327053 241566748 651203837 880267586 40698744 451851619 451842936 728536409 205181287 812146907 351775621 219747854 781294884 887518519 751492069 146203326 14735879 810843508 480070934 726015673 754416789 997750307 700660158 508898203 602002386 418601080 605642250 363432421 431056432 690348916 301358816 318234418 7669522 455202250 67364787 323781816 705235283 104142032 939863342 425841038 729443501 10461403 178607704 411744576 164916243 94313946 680367759 931394019 687022333 595264321 236390317 492714033 333929725 29927119 655014418 747974534 184623400 346027802 128740189 116187485 322285706 421618871 24559473 626696773 462910605 777576543 215690980 568005681 978935389 851965464 999934699 52607278 809259386 810304880 499176518 927491070 696195708 997226217 479901350 207424521 761522128 746437709 227374656 445120003 603009136 695038080 923151975 113773491 756741285 190271003 347981812 428769134 754286159 795683123 208569055 649245694 411293219 651114577 734720922 363235256 482061291 78776551 334895254 690645305 483889298 966968848 127333824 714852139 702658634 826529981 42025330 556622664 727382792 769409676 650976879 15738365 367668741 190314236 593461934 47397940 700743871 231898204 825585005 463298347 910990161 282625739 545272568 270253571 418867714 861842724 386450791 864244263 17098782 440663768 175650165 917018810 435969581 496553187 786809303 741661640 591760082 441605738 910728419 518146717 910833378 973154001 924281514 176968490 400566018 147789831 762761689 358969292 560389883 721415558 595154294 86704142 675987515 710197250 484119042 847569661 211848223 14188909 670917902 110163124 568488798 187351683 462524138 861565809 338852103 322108189 976829291 443720796 331830658 918644835 40526668 570770274 555769836 523371009 846836726 570966581 4615074 710334689 677055140 740235403 912276625 31127227 405089162 435218266 407080470 307530139 843252136 50602763 870871559 116574459 197575960 247170547 570977126 600494189 179200631 580305232 634941024 178754591 162688198 871120336 771401682 350136324 551198462 941401889 767281872 196705146 344298596 359441494 877152261 546025411 249847354 154910993 456092872 873920675 727607474 922506060 448157960 842821878 27646954 222523858 778475146 235429076 939476844 878046645 147498213 908930719 776455677 117078817 494748853 518786380 585718070 727934298 645105021 78583290 494696558 81900934 526328071 855822101 172732563 629740255 603583356 58424229 411783201 772652038 113636404 684978463 850779283 102086715 486922497 718762085 748888378 454616231 776022698 800184513 162057932 261942080 318900613 272684787 799934011 483289602 833633654 850761596 297313879 429145812 398065684 305817013 175412873 518257772 462865776 252484314 823797309 339780974 94777305 335134484 262197295 986563536 858752748 457339005 49885068 237378694 310949259 688665796 985673935 359471573 659336002 532606786 502524458 316988620 113302945 860240333 351582609 337530049 302665764 840957456 351052373 823887119 864654306 239838051 560143868 262789873 254478987 235121822 343093127 644971741 695092289 83788525 127447129 232159118 125873249 800826290 667996814 816969157 743947411 937126489 322737695 354758583 938446835 590721249 253178776 721853995 280616387 97390782 787032353 698553376 576666296 990281688 756726549 104811826 984867838 716449824 334317421 57285628 504619511 144544175 144518784 398693038 76102869 767165488 715421551 49996813 671973142 131895455 925068845 556591580 576849609 367627979 449601238 21076136 710535864 610090309 94838927 114022466 428662323 663628298 602121324 42794963 581043658 489198724 275237685 825310321 666222001 832120784 221434171 338660008 349024890 674932482 79008475 759484056 412162829 807885761 972655733 56834474 860119517 899441181 369524885 907372502 95293113 13129633 118043793 876356007 665900436 760356561 368849375 174379095 223594042 267898089 617065909 420070179 927430494 48394803 904601713 412637444 970019494 887464591 711044781 629482174 248463388 79730594 802975591 288907594 88222434 699390848 195369573 753870686 807973139 399814853 74245865 782250887 181621856 432807343 848672195 754470336 408602311 776823458 260621369 835723263 108596811 773667638 7842807 749186865 650134929 19362119 553038681 51531931 742722096 904684578 535132843 349058002 114936887 271007072 170741974 557046607 776582474 306789638 839744449 687420376 554627138 494824214 588515498 971289280 153757073 957573107 79853599 671792956 748170363 991284855 183312620 200133655 553148530 400694117 899193899 866932534 637808095 492763399 586947696 564325031 945400566 848670840 548893357 461854567 49670449 206973488 518489183 520044847 945644073 930730216 20754222 989519536 62788477 899470594 553910098 305225991 110731215 6697160 115308870 353127136 985877603 735488222 395861177 283601078 773946311 303240732 100295905 289937790 341869752 269944694 853549754 74554300 991793069 557050194 169690585 834806865 876482618 901745919 995656217 428958500 285993920 849458976 42108096 352745280 193826034 681240818 219717874 965865829 905507624 997518696 607671411 810811274 835283937 902617187 941445000 664630000 392784381 411068875 759950795 948425977 498732223 172677692 47599262 191832428 279763529 489483050 547395190 129428352 535669595 393566289 219914919 721384223 257662890 802653963 697409623 436039199 390045965 753242029 390447708 835685090 727566576 184665759 133029616 79257490 708462678 973503380 940969725 907409679 968895163 219201751 282883813 818362061 656046067 741112360 160064641 771448530 627041333 129259299 872831436 194407335 410915635 24357937 891214990 918496773 24795421 429208346 191290466 776427448 993839822 559301364 381742166 7269412 268099796 60829285 844607092 816392919 275787134 830052815 234069041 765616270 204820846 547353773 354743227 45591737 792057988 463965979 403652358 395516524 883812475 622944303 618864077 191182920 398879804 34680356 644897272 477095107 664804494 483467288 827098546 129787943 998688339 637370640 478022610 43006111 456149710 518178372 159962223 664811200 259366215 219918341 580323173 609830257 357210087 706616137 513304153 431307445 211749431 589561054 647021962 856457638 792355850 691974763 299558228 13753532 561386219 603633098 700051435 639082552 330719280 74240481 603978877 665130704 612587141 103604200 205610780 364591235 421596113 804249963 582511149 543565560 708953656 455611088 604493683 278971666 932522675 251723500 338845898 637316745 639694311 801803253 285307500 893081259 621221654 505669413 864114694 479629522 895171546 963243647 921422290 230612116 531232873 24341548 627358224 787430484 599375166 526482429 301196528 118039722 754965271 977328362 830041780 86602311 243929476 533654211 945114297 446810809 238966882 875043920 125451242 212018500 814875436 250984532 447684609 338638946 863093373 919149425 173563882 165004560 906234383 237722499 871857110 280067566 630682687 373797711 691424705 775122914 729022428 354634613 201861112 910355698 811071122 50755793 45533275 36940334 379847896 607904551 135348370 309642587 384105214 236138518 89490579 976246917 509467942 931261795 557118448 650257781 822756269 934047412 147860674 557865093 153692153 809225658 509344975 214140258 109735016 272032541 973748888 943759256 10760432 320527135 658799743 261929240 262806919 196475136 152846270 786864953 895305234 636563294 854085854 197654416 766192799 223709823 357377002 765640023 767095161 841600318 690402380 183686398 112567576 792122864 248359931 420770437 958757422 463505576 9763698 317639704 114400658 735177786 95837981 499406493 636800737 248438962 541652128 652769726 995917534 314948366 546748250 69108136 613522253 209966064 536632580 755171055 960288573 287884879 790533952 776251998 378782533 958340637 865969843 995191723 415174737 624844875 48985223 749362950 196066726 250021731 805965393 853614756 468991738 568516563 68967702 346715347 69028835 262292349 697246322 390637775 234383809 312302321 238188465 990991931 410665395 916192540 886689242 572517266 721888587 414331969 934230721 585708431 701429217 609010717 388797979 70585710 799168401 765781337 802141479 129351091 280072018 762035898 947460328 953949651 303938502 261160495 90582824 646457037 892152146 592170287 952369219 414264085 106159730 405197363 996712064 146972278 56822022 788465169 361156315 490761268 724677912 190930026 759533391 750188645 48057132 986048857 957855723 742286548 958262269 609719354 594361231 113790738 100016220 466871591 881799442 771921885 192525372 958385784 823779585 949509243 816997545 436737907 821094817 972620609 372494183 542839038 851654699 515067661 988140576 221561804 683560007 463799904 552437332 95840398 268198638 368844330 937093727 392176686 904262486 398084221 244150749 802808628 7809730 582996868 515604040 235239114 695138774 10739862 876537498 850172162 457923699 398412534 927929866 367370977 613422721 812771141 462336980 156202800 935879566 695676942 520209674 726114100 862034377 741031925 726807916 629454386 520222778 807917070 124003859 129118380 323268124 626650231 326719752 404281456 176796954 19858119 38464820 148313448 816227501 353711686 727326815 532174091 602859410 824412175 746623170 141027417 152914444 580337128 604567945 502248673 79367515 635677286 60474841 725896259 415036942 999945598 553679980 808091186 415652435 895495204 242812148 859377458 316989104 660961136 516373054 880768077 514015168 802664070 740953172 539187697 948706616 346898036 196586647 576918225 583142732 972402675 864138338 914430329 610604854 175753220 345251255 58677948 864964315 79017947 27889424 514657380 750408072 927979993 717779604 193455456 551851363 166015704 157733357 530446158 990375704 824154901 303483693 235652247 953977760 424110235 759815726 91486407 266751180 755525796 92787717 341720506 160990624 539883234 571470518 213307215 529231975 304603624 623060121 25701186 875762635 663975102 543453762 179306953 715156857 104937775 239398755 4688939 308202793 755324347 122656411 747093005 806623199 925316434 342395876 877638443 353080104 187377983 270787122 631899123 603465301 93888797 336408687 829369663 193865350 735450823 142258868 152229433 22050090 80388521 88251595 632991061 968520858 121161080 919375882 203288357 811184045 86429819 345444527 833747321 117342446 789345573 403416871 692864705 450115664 182030350 402034734 901762634 800714482 851600810 61937006 620643813 888355693 978637472 933869006 149401756 426598550 738382511 251779398 54542862 980351761 588667466 198601357 184337031 206067617 404053014 539900520 188105092 135570482 76973459 675511651 5485282 527465613 336227336 393593150 951923966 259363241 389735117 789567417 262492878 437884768 429406392 844966603 543891573 514697099 425647413 956844062 341787320 938994273 666353992 227216009 474449103 310044907 975953384 395901755 363409515 124384663 250287590 154953160 529461507 721028835 453827485 619030538 915749986 93587248 755485536 334011992 846035118 497686423 18685123 955044407 474492982 327296798 256921065 548259055 95593880 928756009 278689226 771413253 47006741 78416185 388765586 542858747 147075802 813909174 836318117 495001598 678327781 246441066 313238792 489127620 361447404 116900744 575588189 354320100 155322450 322665441 123038747 262568831 793897554 114026957 191751432 644031328 71335960 725196157 191849358 716540940 413058735 427288352 73762894 799139677 178748020 695065992 883248571 58629467 409254133 917031480 827769201 690192649 688385826 502785718 742837638 844851987 543831600 887256563 739154339 867293370 606727078 708843732 916411542 730891521 801039383 505764574 799584552 767103510 321739644 933071489 269010897 732225269 658594428 472009474 871981800 330498714 197811286 397130051 566230708 848825044 707642816 179150942 966070510 907486903 108060297 343938369 889095089 206636320 151478602 108175044 381945922 25262703 914265398 147100882 182188021 167043016 910229802 774849615 693534835 452426267 396586802 39429765 488618220 94696996 431723119 527113335 109347118 290492521 342459682 634518855 310621463 869646959 368148997 49844489 305504451 188114902 892481540 885922582 621061058 972222522 872067411 526717045 529685685 787116821 1380962 119175497 946858996 163096078 773996172 49863128 402231649 13302328 87555595 118550101 942092046 259084871 844482240 529737195 642971620 345334001 732604708 333349968 809960893 461048422 823244847 320559206 236681666 687417066 876205383 258045319 701603891 160383131 796304282 180124172 560051066 798030399 251762094 133491823 424669703 829127458 103093515 394792350 890004815 314047605 989997037 390402407 719373374 278368539 462390410 320513479 489166839 996600280 518781428 821556243 365000316 268827978 852331162 630504613 708427120 315027760 251352738 263987409 106567461 579821470 502324913 122865808 414635115 87087335 489000073 476851953 940410808 390807422 995897629 903881153 871740986 880550423 309168862 598012249 1780548 108132523 144405821 758479740 65121752 723098571 890128314 706824809 347158253 155776144 185878301 656194005 348726668 677499620 665984788 391433349 984497310 511436003 103894116 192130360 429399598 461514901 220596050 873357742 500967010 206169039 460698382 829333335 70173526 813768400 726917878 957334641 192701849 267716754 530433720 942802665 724441559 93550762 416314157 764580988 904552039 693740894 477902021 460993024 389020173 415906360 657695372 40114629 307549234 280341193 94501198 276086486 794440357 413737192 539158122 314965103 178565167 108989900 204311628 716007931 53134640 841287174 4864929 636631347 379457378 905561330 181816067 528662779 715918955 483361114 634672901 893869716 910750511 706115762 394369045 160725280 650586499 856245118 159276988 861383131 549482810 995432033 222588370 520165174 110217386 894809644 114300253 547260174 764702970 334855418 320006154 944255063 584006217 185772857 160821636 201416020 387732151 137980441 472201103 35230351 29361815 678203250 900847815 329324107 273526714 52027672 926243117 741717979 525253158 582821256 543302163 84958333 825552611 813555485 125773551 314039186 759573692 118020701 984718101 54091248 72664517 173283930 49564644 144606626 830876952 415436683 982713268 897361624 529496914 332436546 613297652 876329499 369864608 174770818 929710756 931956138 929039054 48955183 896810870 150989857 501709660 857709287 974116500 531753337 25877923 930291164 691900348 896575525 226533253 742832956 461387887 753913629 870292495 91892477 926646654 639769522 915189452 308593541 629924072 606161710 224891875 470474887 993558447 175722649 645825341 471350455 101116983 866296689 66191882 24741538 712756764 396655043 272249766 945622150 663490951 759947561 783180060 985114756 839273016 707285807 186090056 253886376 86262506 149695972 874269795 447354926 114376573 31949201 721427657 333575856 218361879 87863144 266423779 192492629 931814453 183095023 78162689 135890967 150835211 535724623 250668113 293702052 584463103 342156253 445400863 338605642 447322333 869475340 244812858 598181980 195464328 213311976 901543785 282894698 259865369 717566819 54502728 455378535 867840758 564876089 173685731 750649249 69553755 800545681 392973476 588521298 229541290 800363096 73440757 412260618 729778472 141785462 277542421 700857791 821048395 183976641 714295780 35677966 840634811 502701817 474030563 331057205 381587258 714982273 704735984 707637769 81115305 947275172 680842494 274777415 463908461 42120559 377110687 88139923 222206988 746534093 91448107 48948678 682424744 151731117 598286056 789977575 777334399 813888663 265198714 811151194 497747936 296593591 977120871 641860676 842039050 663497886 884137300 225819530 57824750 634939123 289744703 497022091 830428582 797699826 463031282 620548162 261696586 272873568 846920249 277645124 989302742 968339841 353583722 300556140 135625671 160084151 64201450 894238088 761361047 880022759 306639182 485720441 547322132 979822628 891058835 978555548 554452535 411161848 216143802 206227997 439392180 375003787 154468702 840100739 187562007 630494659 770971567 430596878 584892221 557998549 432219086 73843262 397814572 230261288 2601981 84986025 147827950 346577590 34548449 666177721 877331216 992732237 895698964 942088378 209490978 516869430 567579714 200779866 65620455 264483590 613032989 254940875 763473313 47464220 600930384 913427470 133779574 10733260 341789582 668518086 460534371 264110250 17260449 66452201 176574900 116997254 988689775 669949064 378004465 705051024 760868082 839183369 981213920 634928282 657689851 361221955 188055237 548668310 712316130 410096868 44497726 141454406 969060317 955731819 942140487 364612543 794890068 664718261 560580354 294138395 131021001 197490339 551612429 210565738 155809622 48913145 669735380 624925372 633776822 963923773 31123586 587800613 71695614 35811079 126136312 177137762 754903259 374504549 488623276 728869825 195141338 849328029 939915295 62565718 811496946 252452002 896132263 483616928 854666690 431206558 123352359 729090167 889419326 876058438 329347589 968047251 374910774 363931544 54370602 652793738 91224059 412333152 422179900 902680999 984380969 539788090 349603361 764263362 321716054 343807112 379065982 440126538 191211396 409565501 453157589 355960617 134428882 682876082 901134072 847964060 890788398 595133544 387078969 252412146 225742463 12674900 289207933 979478685 831385114 627707979 649144224 735622004 804108991 126216349 707593358 985071920 756723709 528843435 939051488 591897567 143433247 352659253 79541555 969069060 629247478 703848302 961793721 893304892 741721011 307886364 673415735 56768917 763104769 99959999 437592815 87423768 111543704 469153354 240520852 490960189 61818271 320201882 106871018 159466457 546752410 147789109 160553345 250369713 227822324 903471529 655621377 755334356 719655055 291248660 728629144 613241281 315837613 211018577 190573372 364464398 29908919 835832054 348891242 717307599 190536464 202362097 530119703 281606634 25453798 951986972 927135676 478091954 284886648 637218296 660209740 241026663 224177898 48729108 588771515 934164960 507726049 846544562 849169044 537819475 625096030 685388011 190928729 54375416 126798614 940403765 199092411 291104737 969851630 139697121 658812866 240444121 101141920 726911000 579515323 92535512 204935673 137249020 235576726 153867239 707707265 983740043 426406827 563528120 355609164 706501905 21572064 688291642 906868271 836873469 923283425 514559591 796488563 763625798 301145689 973103080 833939392 567939892 366092172 416836528 163956100 104870083 145135038 536301763 593543206 526726830 181456407 517922549 838534852 439283020 583858915 818687836 351747569 754845554 944476711 180672620 427859912 961634955 461768887 150963789 247086577 874704544 249391780 738182458 449642725 395182018 475816057 223511564 849781190 179724596 532932242 465416866 340193414 345548486 222944534 281717215 927187280 214064427 373642925 331923149 471379313 532270514 177558164 832356054 78298085 538641645 715694775 129591534 984173382 515104701 359978592 179875903 328531711 259645716 690050045 311300350 257438259 117204571 247533655 90153885 507499430 263846645 94602479 507663317 596113126 104343870 880533707 28775666 504380905 254999820 156445207 643584303 428941228 800586936 764272310 817731731 323658193 634408965 311099771 281048125 541359716 742290260 478789925 219374435 941358312 535632823 154367823 325898336 40528660 458948363 118438015 328402931 631647502 881034704 136004392 140775089 473498392 430158620 674690254 681128939 229528377 461325352 659099404 539242165 266030238 415480060 465410478 931812206 378776555 718229245 602719297 366806495 162092354 566097705 179275337 398634868 507795686 459276660 803289397 236514081 204126854 372974986 538811190 492979878 284393727 163941066 563222921 920035110 585681581 15208730 144790313 847225314 84744062 949089694 642314995 399641943 883137039 713022046 869296325 656507661 443555289 346998307 772290788 41537544 763894244 252206196 169447484 926911964 402461701 347456563 689954698 708921796 517386727 552942014 374135953 685357236 237454288 970278290 474128936 851123637 231757084 786057290 752453681 272932042 10771506 324566908 656036081 421681151 816311406 740441708 60841151 434869229 641572718 561968821 30904127 337257669 676775902 591653521 754527262 768643704 187777771 74077863 924712779 887962492 173382638 629986997 979271925 48786894 214653094 673275230 285150255 78120938 197504422 918516718 563719423 690746517 265557058 471772527 962201405 929518730 913688776 167210746 81698366 620584233 681331664 444935272 870181986 651277646 989634692 720044100 769979796 333937992 214113879 95898003 981620621 532507599 400905205 644154824 889690938 103666496 845075825 65025752 285438159 358206162 62211985 573964124 109000134 108565252 456048738 412633471 882381744 394501 354601953 733642447 53164724 609065190 692142435 880387028 595353005 632156867 621026811 611515166 392809254 486623470 516607932 78842327 470360182 38391072 192191548 649230956 350826379 263021111 91331610 532130879 600701077 515712333 663055921 45572799 65486477 528278264 141202445 110472892 736130754 577830505 94151698 791420377 260683550 354807942 473748800 636067439 42208236 527604082 192340104 33061052 513553433 262968514 465571421 433421924 812125940 80561928 373689427 252131890 175361914 576286862 733218268 837423926 445981145 499299589 738956395 519574853 537695257 75329247 167894111 972940905 258991011 48880252 543142184 688250370 995677379 793103890 959723470 707757718 767990915 518035300 546488869 475578828 134287152 302202704 612385056 567176252 269636574 689007726 600071450 573267098 738282332 975163653 493140901 635833682 538162805 608810767 464299317 834364587 200841832 29202152 669460499 395960322 179000393 592009409 320983971 372806004 539158969 915001269 21540052 217442655 328043393 283244953 765549970 268364961 842292568 548909234 493286471 837762097 545699650 464811259 451831644 899330222 752400425 18897043 192028006 263559383 586528836 989393194 74719517 581100097 674607322 371933527 146975764 844525215 976623050 243568576 192769060 92696838 861071154 541616245 465893820 390045238 397626020 181761549 588690901 785745576 744584986 304736676 149796426 141669774 521211235 867300918 97406036 141812862 505303235 777829057 734170762 868060758 888468934 874833785 147526655 590388538 719182820 487972017 922760546 389812659 357573690 868284729 418372394 808593464 749802201 7667548 812434095 150421415 886589074 294166523 814999462 839108881 484310972 124994244 316423887 293591339 307596303 625593351 899153103 600808026 77558833 615779206 932430529 827986381 714471212 915181559 919556511 78989560 244725121 563994342 449106039 74043457 644485775 608631783 658243304 654623461 541312028 239610860 187270108 651261067 207454553 856331263 294875534 448120134 485202909 487818425 263175558 293711351 883607915 794774754 730524622 970836447 147005049 637823283 574785505 104097170 685485288 335632065 798628698 716904300 967937194 592405271 521558606 322658129 676463063 166350452 784932980 921410792 544505596 940918627 247189323 160429564 60168899 192467687 608202548 73786144 785414697 241464174 3211523 723398845 668904668 59401045 448432249 324798410 972508223 248677570 319652316 400954401 206899970 18653865 863978345 290788833 606686904 819841344 7148696 467699466 145852318 38117736 280367400 21246670 626571041 811931591 926458922 543025891 333612361 244584643 61508182 485960303 479345160 426396835 747847176 930095057 212811476 296617798 727563872 418410045 897405849 9440182 547519418 961236600 773835128 844792159 794667810 536549513 931016946 808487721 421028592 18996324 451110575 896832591 366954 900117050 280805481 408970678 603922283 722069789 224819481 301916685 379843826 114113385 878779914 582999224 725303801 30380340 995135068 232209316 852932522 886119599 785407462 982529458 804549779 941299532 886166967 120419039 74929070 861437927 459233323 938831130 234559124 772351748 657290689 405424236 120154481 69880159 138213352 179278203 982483648 120807442 973238058 244575110 654605483 62180448 188130234 400145680 531752880 486483326 746123561 891512861 535892940 232109957 304480785 941912517 589631309 839248207 404644124 712728807 663960989 811270437 443445221 534546144 129103507 74563755 676076458 693487626 670261363 66221942 183272710 203013920 797313949 344772566 380346734 621058418 189204833 763019049 426980765 553085920 529769728 360306762 405709786 474546474 751525275 7854650 308810522 618446382 644670733 409935795 851018777 592780396 191283751 89681100 172200608 249437545 581514508 203902421 404792288 354540653 67814927 112080523 351117801 320160998 670269288 149575304 284843978 364470843 568386223 727205115 899011953 515622524 773734940 393527144 84793211 713664126 441635116 540190960 781607296 552315146 121546867 917386708 227155340 554053575 622797674 658002316 752730952 664747184 34009770 496638695 562878986 160392953 612875445 455396126 41302397 992884018 692783405 654845647 962183861 186850405 559607935 839045676 690962596 631925359 733530288 301413830 880455728 205949024 378003657 36685367 285040859 296572319 624923827 4623798 585862946 331468927 343815265 547992600 235180330 81870219 242272440 942619533 945466983 389793988 175087156 133806769 160377414 608435033 884153110 781890390 223109469 830048441 808636484 103111318 865042562 280553352 389230135 624471717 562599452 210603155 593491730 58862418 522860456 109194761 287827900 474711861 408305283 851493129 997199596 358533076 292361824 932038616 354004710 882711520 940709821 805567707 625494270 703939012 418428585 880812870 878396283 465802525 820261270 253398644 108790441 183111601 240025793 441886817 891481694 118427358 186333525 296729872 458970800 737404160 272920785 831931804 348095828 635108066 923196795 439749356 733049508 634291927 892502103 530325512 212597328 557033038 905098613 560011988 960428903 237037688 569850113 851152241 523846089 405366456 127136627 864517878 444979062 136833883 518733241 541348903 834564612 867455569 839798786 445282674 964894858 623944617 719508923 938379217 785461347 883589249 229707786 626024462 21406324 977854243 874638388 720495758 617857624 673673301 564987949 849080928 700921924 655537246 914776927 564555271 373671254 381040441 351904091 132007948 588011636 993704971 469070130 19078881 839955506 626677170 782142805 546583737 331938600 375647300 943780966 789623771 573587763 984843700 24166540 568411947 33139518 636422355 516499001 938578165 949967713 112336094 345838818 139087544 883984727 729053041 407531471 212072990 311708941 817049177 406894601 161503831 59354599 631262344 857046244 409106159 534501777 713927305 614677765 269440030 333532253 730343312 484243587 328624905 76025800 474854918 932157697 988802476 360573579 629405870 602602568 998033108 144834714 470019711 640789889 136966693 672267689 217804382 809177630 572476620 13489651 912277361 832438806 18988216 327379617 995730304 455701036 535205515 573377657 256337499 253797834 577951265 532802411 742784636 105855289 730884626 370245193 685191982 586050113 723602894 874937210 949589993 443643818 327867166 194265245 760871601 172563345 179322933 587304081 674289298 664916192 599224778 867832 530121784 719478180 219517980 832101205 140761149 911628983 847651852 254910513 541987213 355876956 430627046 37819328 813962159 538792075 817265195 593633980 42012786 638072653 24743152 919724987 581655541 491778323 109744351 270805416 201388307 129880990 442938717 563541751 576588179 877299114 131856829 982135190 4229951 214081754 804496067 353438301 13642272 313746754 728574406 953907022 660362189 600220601 219917772 194356355 608787019 752568619 314986267 440995982 76132139 887680639 26331530 677198009 633453945 604587705 703148551 677624704 604614249 567040472 653070192 863234118 223198843 172477259 801739998 782402740 390097157 477344611 105410557 492516701 471441416 492403608 764044855 144284312 68181825 283142725 370623406 105545632 324235565 874680970 525857432 559959111 647092210 547512687 465222296 848037236 461079420 727713423 64248561 658582624 313622304 723122348 25877123 921649428 824348278 848287474 808766864 772602071 166001986 226974339 438947339 871362362 508317010 496692365 589293415 39853519 330811748 685546354 256688587 915052406 92177666 765192936 808455188 984447294 12652645 136346247 673211557 576997008 805755100 736707137 203811305 82008882 589889512 466661592 493445811 682522574 852595706 27135071 486324322 351250487 492568522 63279772 403308335 799369933 329435646 740486816 937602099 802809791 158810807 318556594 264026320 328262659 862527482 739076812 255962251 976066741 983797088 127884859 681035407 177328248 264947109 266154438 727997311 507000479 941819451 827393288 295422360 952664106 1935305 799564449 148869889 743286819 583157315 935084472 628462599 436800338 49647205 304684649 45106423 382464393 752805034 371959419 464715426 78544162 221358551 977681971 639922873 113373810 773456216 729059810 162181732 563903761 340565739 726705173 744873195 717628278 892545611 32251374 383874299 56413493 544801866 557758995 204189877 483001991 995920124 280408451 401217621 897985114 303210991 68411651 351081385 468081337 321195928 214484807 277128072 763939642 676882213 730039796 941846561 848865109 829367827 84471761 790785627 70063594 723222431 309242765 404940809 297536081 673482774 542485098 121910336 293222348 571930428 418364044 491154231 184341443 607034573 846494604 123387211 692075400 414366332 867891236 20322052 723917410 739217342 529478282 948851304 117927947 5235832 179344907 942390219 472019389 811276039 264068109 346211114 939271273 402836790 642523687 831167276 978241989 842707283 594996621 936309720 659484519 684858555 702406735 980758701 168747137 401979202 255883452 806930641 221044688 804939651 551697870 26178421 919549405 471508602 111618658 694774348 361412229 425844273 777920525 839795265 478819623 918530237 43057781 970690420 292286309 311738443 331583528 523838338 919291217 861274529 635367530 233544991 219233737 796867695 481658162 581406915 769418075 340303981 319160152 810564852 370700393 489865833 133526266 415503549 103132277 493991967 997281041 255882240 385685192 557121573 158927976 370430407 195540148 719014026 209270418 33493060 732511078 422062930 57701206 954816680 245347764 348876088 406795747 862888184 325886259 332538854 782159341 534673229 726549099 651873144 684048782 327551034 963595223 133836661 549053549 631028236 630766147 231773011 648431667 12600708 506544729 300189680 498576461 245653094 461362829 652411788 592880330 828490969 898728100 718452327 533475746 899436859 385216587 218078907 167442625 193902222 315376174 501752650 369824065 429907236 290189822 733764885 691812319 367440816 955956800 720709698 629440494 828075737 150309849 685865792 135097908 45818578 504789176 103710499 226194025 886246043 477047815 785600016 54379326 749864147 296416810 31261673 204221199 539371552 543261050 852000961 656801869 310201351 556256464 664337574 213350581 898389999 7195439 435441279 321366073 748625447 305338014 339112270 555232224 339894387 393734324 605042694 506686331 391277156 433806271 407329707 528829979 538285280 570184765 194394485 840548960 945154566 125337476 60428326 172489010 471357676 374699178 623145985 665099955 114616394 406545467 258816473 394417996 205889229 541859995 160853261 506959340 968059495 665028146 43295279 701617881 478634860 975681479 960907566 170020865 130482547 178220044 399700058 516087560 215660582 97927668 636922761 874671921 125789187 908559349 85403288 654908585 939160001 968114194 823682310 865428233 171443920 143406816 770328761 473387934 328486505 912806314 195048027 970618886 926911770 578458725 817703828 531320472 677867251 56620592 440201488 835092839 451743023 597291465 506052726 944951524 624459751 158259448 104586509 659993181 941082507 832235022 281705312 646345277 361092942 748660671 261358229 508012356 283671118 524883728 41377843 532170323 107773019 560694224 42188713 169723642 559654200 603003170 39725788 219648945 394527983 91497268 196007847 755250936 351480435 556869287 811929108 49350733 540023683 647780141 313376203 128164093 812427856 239955141 519196401 23852745 252564847 632408012 238566464 835128805 66736703 367584220 614553892 225811649 593945120 705589782 610485871 991206111 923477009 918497311 77259826 485967552 637569447 898914040 872137501 552332292 501381020 599201989 16518129 593307910 975270025 167881746 583285382 165867170 242561311 413153224 855544290 455934323 88169380 663597789 869578765 589491915 848670444 349032586 867825989 248749126 600841203 281496455 89227482 206961786 875801588 745679578 524058514 114757305 923079305 107249669 789295867 918586937 469812730 185317631 557257839 671716657 350873082 957296670 685401956 335835652 338754852 106524993 971782572 902289843 146495210 458911469 686442814 468950854 595441457 633723801 348117204 200261412 218956212 738506462 293047758 738771190 932555383 403868027 538424018 116905769 400633001 155441235 886797234 407719303 688236014 860923550 865074048 894613946 547829609 848259182 771251163 864982153 197470753 49276911 631633916 350834742 56827077 452405843 176062408 183483226 228246935 538020354 321530786 987619423 777595081 175027060 852036848 318351473 341591631 941524396 342289507 846052982 419733337 298486483 296832975 324315895 923646160 213167623 851761878 911274830 79808497 109069766 636864605 990063872 286963157 162189382 96900628 624331218 55604631 717299164 191429388 57979462 997545544 886349578 919900786 187681397 638283440 464692909 586861056 921279159 329460678 156874815 850687823 575996690 802983819 77553050 882814060 43870526 693038259 63346361 48355264 877874374 299862871 515717387 49166607 606793471 990726951 579026695 776877684 955988827 463043016 593490897 424260441 381705485 422481063 445026568 751275354 469207062 702103252 104686064 878928159 728407401 335638716 84484630 184456080 182921724 425132007 207335396 397897582 625791631 992709699 641152653 723092644 374351711 339298353 41110893 371934160 617537968 458904564 326529769 495336024 142425885 894396770 590931948 754004347 105058774 782027766 116766841 849812026 168534006 357239803 301595565 572730484 954807598 414330157 237301764 584381980 803231811 743344427 160737668 101036053 71733779 542862976 125310736 532265233 96016862 568106064 203941596 729522415 175788408 619266543 892152304 565128019 89778631 455089199 427464163 443234781 676762568 30669312 760101443 263368374 396780906 298301934 413760825 21675943 148070379 525666937 747150340 797204267 439104100 791033874 240933160 707408121 760330814 309951025 988549017 939457574 550154747 143432654 314947474 178872682 250882631 420518756 91675606 285341153 287320928 889832462 924638495 643343649 847588372 518205417 153584699 373452701 76185704 404902025 414703460 388711866 122866201 967819324 823258500 827580260 343103218 707648904 174496489 897899539 67935169 715240318 184753733 377624456 336992413 814377147 422735147 585787306 378643558 202233464 760102370 123276889 747522542 315247591 773228678 578969577 887671892 558388440 352230293 161530682 45094894 770624113 195451182 441997549 838061900 579326818 628678804 463525693 773733502 889979791 31397638 465082315 152477264 153327495 334664841 289400227 827181299 196674582 271202653 796036273 496980148 781177036 729936734 148990207 841502171 31127515 223082069 257549736 749409076 218308479 702292171 972493376 39280810 969336596 778267926 31399563 949253593 317457602 163957035 19619359 37184264 46134874 881621131 417590979 759090470 749299451 781740984 967407040 670062001 781609119 943305203 85611912 831835818 625973109 78463790 271572307 526463181 66231180 18929621 910626415 42009086 85040417 619897150 70422930 721242141 379756997 599030040 957870550 20132012 96081969 382168226 541578431 357642075 840368875 999638850 186436919 939885465 974875799 699725098 7788945 713817016 742683962 845981673 603275133 157135327 890203449 914701083 391975107 239757707 857594097 287519273 132724737 627668256 175368920 995118514 165610488 645431191 665251453 286621335 204399199 151660361 77947326 644034329 855215334 177786392 605683248 892161818 429955863 283614321 59120237 725729429 334041699 91038274 919755781 406481823 776661318 311066347 738865672 419841830 530820880 918469778 137104997 593984254 503471594 985326296 592177122 76498642 297866503 379428804 370920515 620575845 402925901 102913558 217414620 273438268 536424726 841164824 231175102 873864279 20959485 284804170 907974515 948289212 391433081 436202775 567087591 68098804 272855108 815515570 570196590 545947292 626616441 32933584 249702155 277126551 104873596 731609398 619411948 564615845 744316704 170791867 575957974 794037542 802314836 989444796 428121835 907853706 219019627 902635534 613637914 206635502 529398510 606559268 291939469 269521866 85432477 434977979 935957783 289352196 728824054 464180794 434825859 871492080 755602380 723597520 412359812 868501181 21228121 94382668 244580856 71843039 340458467 751112027 844329139 195830663 53195083 831018396 966024290 703102277 588807467 576650290 835481505 445498894 513050243 632704608 179421793 673656630 392879608 855371198 92113172 336364173 194132979 624834831 173411533 671028290 84463062 409162488 792563521 883334573 551019572 937082701 247190060 407436045 974177956 485124367 505760450 261319780 919967311 675893298 575058464 773614247 500666796 187519109 102352233 958365250 760717613 747521807 478688167 723493596 249212878 531376412 517336131 202318876 196549956 864553697 833711566 18109380 381635094 649932946 733119528 419624479 903951166 134723553 268133921 973008690 697503380 943457945 767063626 846925026 298163338 36489175 380091461 851914070 414909000 741048864 953113620 790435205 44294247 982002157 500141475 489252619 123069458 108785699 252523208 817251005 678112252 158854641 178548874 641881880 468739509 110527149 871994392 761927610 611079936 959791079 607940129 180046710 897798555 225629638 190157094 152248434 161801001 381045191 613558086 273178324 343193532 903289586 986771465 29760787 377147158 807031832 404197393 336112314 150294413 238799500 302526865 449848715 479499687 928760102 10588578 466913683 450594589 240159204 421819676 465554187 506878607 839633743 628704824 61645858 669482749 950756972 123469005 565337560 448893008 584892146 181198340 675154780 442933820 411106590 328813540 436569806 747538731 778506464 703530338 849179330 140830370 14976676 390500532 648995934 479896628 116404711 969339635 605594618 849377916 95388005 384856873 977055224 463414919 79297859 898310392 519159119 531464950 131600271 97168664 765639340 635140910 346458195 968980414 645932284 519683995 204385293 458290741 168712583 408686454 77639729 368107031 191320479 876865656 518919476 993970563 689762075 11233707 573519156 585507973 429008937 757467787 603463005 617617112 541726135 989085018 309432178 284102854 335636800 85324792 473603510 240931764 572135539 981245751 587139067 774703699 708826528 91511767 667160536 870285090 680232390 675420996 912555477 480613694 472821378 774742416 985065087 763681245 720472582 541694069 374193051 336434926 913508487 629998205 795435754 912204614 560688211 889722980 176554890 562827167 929106132 171613308 247042659 560280318 691940224 689586605 145375456 961148540 635179294 387996774 936866551 604606778 242827243 250122644 734927856 33254371 198750617 736313165 997612346 43812337 472110915 749804264 698778553 828394837 326766361 307241912 414591084 828802438 950064665 449546558 534872277 631262127 127086662 412272791 258770689 491177929 829240950 989957545 212760643 373210835 111349830 301474437 592846535 750501390 951734017 161338700 662165067 669049581 482605323 399482615 570498054 615169323 120310686 582814620 626262880 913587587 144847784 960053369 844951461 894558089 781132990 390957780 196472163 579598380 605836222 913316077 664215450 529627710 26276634 79753854 707927266 680329551 542149461 968074805 768658052 240320081 63304714 65172455 445077428 355124799 242126471 590961291 959695015 459749604 756810629 387488024 939874450 788421955 464210463 253574165 723620448 391823935 174767640 309180056 928215025 284611027 287470137 711737179 945973062 735625588 381708452 987412491 402999744 346456507 826137309 210382718 649112011 182425033 991259205 55699198 990527480 577965812 912690401 302169502 493123588 32466753 819486485 179055233 825427310 59450539 67936201 559188215 294605758 991335139 848298236 21826406 560962209 505495633 474288966 95739768 785087942 634610166 869543495 277365874 672752285 211097034 761610670 902307714 166387588 574031112 793231856 772379372 95951886 71810155 177838706 62553530 843712453 208318401 671610552 466882126 896015752 154258658 331813474 955570525 907464798 868328887 153629422 287387205 562814592 273617011 49542128 530107871 222925529 66871775 502941095 128788750 652852099 92178821 759393032 396327460 905623697 507503868 255271516 199335417 356312788 116402099 52559292 212251331 297962233 70908266 532458872 985868984 469967762 563415862 635764443 492863103 511634586 77218642 133246082 207494054 805326083 634037985 711183414 135836555 573252256 234054100 434688238 404917600 671214472 243801551 12770398 901863996 713625764 545080181 430229571 384088091 831193537 764658311 819672619 694208357 977641856 381071841 175844407 692534367 621222345 982365930 239771619 691332210 606307583 691088479 804827330 656344014 104080768 810877002 163129998 347459615 966343575 910124560 978573067 33077315 394731601 665213044 237778331 550093328 1815283 74016430 609543290 531914120 777700374 451624810 692711097 45727848 516474954 844222245 204022558 106141626 593466931 919097766 764423189 828452021 5038635 225566 754144588 456758293 924811876 655986085 672116593 936337706 120317789 45448387 780255337 391646877 760634378 651969450 505554847 640929196 275615604 505898804 275205271 105332214 967363143 145085855 728109331 917785695 819301343 896373312 579631563 433092328 195732359 9607293 243530269 982482397 167000391 241803924 635104797 864946817 333024337 55987124 833837996 23580050 383997696 36088658 180544952 42905087 329071734 409464924 778263823 193121027 827964186 196155394 525081049 136741344 652508952 605266435 818213541 449077108 24288718 589656324 874309076 723671187 893835532 558260783 934106032 53117186 984497841 287382607 909332440 378672708 584230183 750737450 851338370 661231000 783057380 401601178 274896079 864685409 375523316 101807614 170751991 206524755 668418000 42819388 966557215 885239789 59370766 993075082 99873245 282262147 539823183 825014938 987813445 938580711 520793588 374343721 367844390 171386873 371838980 488969325 238670867 613960398 343159963 112739734 502203636 341697857 287316903 977102444 112988994 447156659 455596379 966981793 821788161 81801507 552286410 910027051 736258488 809640796 670963574 735253934 618252982 949852220 399981251 412519641 731061103 354483577 546084439 203474248 342079431 52577941 780602776 116341382 522814586 776990446 938075202 394891225 358766517 625154417 55863401 748290666 744579092 732728354 683799718 382168881 992642176 34627043 351958591 135068659 64957806 986527024 136536240 166450644 333301031 37752129 769114413 41774031 139713682 172518348 750604999 344452367 560225805 632424868 754088492 375960445 513577157 970926642 730369431 337407790 19156713 179336667 685799617 574214283 98609012 486645458 653379729 948372569 791531368 462040830 738755431 467565882 74615027 889924508 36065048 820553995 669754809 101052470 906176924 870613016 433175841 712938924 218790766 593298334 569335888 935658073 464786944 591682284 402363608 142743890 485137262 109070083 810403553 123394254 953386377 529823305 678354748 949356784 262197637 177511017 715745512 313851773 383670855 408985023 9098710 966667122 15173713 374248881 866882642 611283556 943022119 63302433 35962808 876536491 996638509 456645915 545402795 737617588 427597215 507603647 939760613 282986383 565926137 986526216 703766402 347653028 727158727 561727628 660004718 108752533 136406831 962949455 657508458 292322999 945885550 94786054 94245428 376836763 618448685 200005569 876752097 399494132 17333541 390458381 33316089 329509726 962471409 604449015 326461463 164666119 880246877 451921247 545951295 242315593 778109984 200730262 419288576 802424086 418761037 859502486 518773166 875542159 159621379 869926930 936557140 515007117 259526016 729191277 542452969 325210584 211492759 668451880 684436355 258148329 453519792 329318306 454421567 309302338 155252719 5447656 257604985 315638856 517970292 433203544 91170961 224677541 639211971 997614620 328901842 945099296 524450791 475678530 379104487 519815802 241591826 591022530 574612568 42143801 3111383 243098169 58467546 789339873 426826871 40518451 438618440 88910872 425080664 726045498 491207830 271485189 231497294 201071611 504120039 744928049 675003509 468888400 732812598 561984948 98145356 368564999 145419900 158621659 631877500 815391869 357087139 706109651 254071428 34665011 773068717 152640016 879870454 142894549 65217763 675430506 233548924 605733658 994822686 421668935 812010738 774835203 180526258 837316340 136179260 21194805 862258995 80117299 880692459 153692479 217558658 780414672 689908466 458194183 305556500 882891321 82645244 10526264 206776133 686546358 9213816 958023033 831917547 249016073 89096074 107157824 871443706 277951472 750402345 656974856 279905629 168714836 673619098 268579942 4070694 83089547 985253743 284395492 136103220 943238783 799394200 116908451 542184918 929357472 668697892 938427743 460468160 502228902 601273210 884365996 684353001 766853351 938161662 249331175 716753631 533505626 343593789 396582628 555452968 472000999 475172960 785701078 519512443 149870591 864587767 151735633 778042898 750382186 970391834 520891876 403904128 506367521 641457602 602327849 527967474 448370845 850501133 617766379 139590742 408319031 955492377 218876040 523384385 503708774 64267593 210799644 970038494 58996262 6384573 271797136 584256851 201155667 542882944 220519126 236753974 899266215 191674576 143306781 331404202 294750600 870864750 38886361 578292780 890498080 798052445 25642463 310938371 346071513 719246696 434741440 736778690 734768410 720727038 587251654 948659802 665587003 841529493 13232027 779550010 376592410 34003257 903600610 530031810 991152554 209308504 442652068 992921979 526746757 159227891 485117788 256887175 979618440 648083092 392063530 561080456 382034590 952898299 394474319 249929007 797790881 533009978 93462531 833488846 213132938 133955125 301221633 412073496 246782469 839822497 568196894 27674601 553834063 464867948 938624700 569145404 932148581 568078744 362491362 7142745 726286070 286598798 605994461 814264330 870442403 54362738 577469057 767747674 41984509 207013144 798391992 738298399 688498376 10347894 312152402 786798721 636056353 941962267 548586706 128345379 209377444 106075637 465066789 952295278 478062401 165224714 224730722 287697780 560770186 218887979 221310815 629072146 218489834 653836471 461159292 303785607 138288349 319388290 420276004 750958698 225850483 433292440 39088598 641412398 738929626 554373597 997263228 343889472 184787463 208568096 8426897 169457016 598790487 858796337 897329120 272349933 410892074 353710267 48822441 450690464 994703495 902987706 105826254 418797506 182191031 272655527 345247921 921735904 603009241 872810838 583300648 470169679 78240020 993429197 133220467 823879440 578129868 231779244 213712059 341858039 32221295 150796886 621436588 699917491 165430506 786977169 840545438 101906503 807770395 425433131 992490701 657066518 165907887 804909859 482731856 464674950 666191995 834640688 198788834 941191494 320667289 747214892 709893662 851038386 796121674 596723294 546619590 562974828 781037735 374675985 18662406 437409767 150136236 617785578 48261914 147871394 55178348 432789435 328405760 411847264 453658608 786824726 642789569 149442024 729212457 304348944 9331735 682980588 720283915 249026976 58495719 642660215 475921743 248388313 531438476 895945604 912694228 13005081 906609115 818533564 172848517 974745911 574391163 209150848 190358752 264758354 237491236 933309905 245259457 979311236 66522903 651268429 247752189 300416877 699084325 113692940 629690219 539730013 452550887 758663955 23152787 715747820 811971672 682969475 519583211 890347120 510635980 143720254 934429645 223840314 921081954 266514973 538477997 486740312 156717561 310405887 171864524 449062811 517148155 999981677 118192841 547817543 756874797 555668315 472908860 654288020 963128639 300343580 271684834 885089062 124434089 95047469 159017705 675500000 685482933 121331599 936399938 837039547 995369463 103616308 996342855 39665723 430319398 447852296 448599881 979247428 793093923 454788443 649906127 457944156 11860345 813213813 227666217 877910566 105520335 156285312 390986440 643068851 42392437 176023501 229207061 603719737 609401189 695684304 697279781 793064458 918615518 480972075 353809030 462664450 749292704 233180852 545741729 450318083 123065404 519385854 817139109 64334867 226466490 828497853 373501632 855042937 198995251 692615192 813882590 447770638 22733410 713948857 591927229 209745887 537507324 717356455 923738183 961791232 256439955 380348057 236928514 349966930 954256191 788402172 615248082 694753366 837756646 926334757 359078681 368026315 225971201 102655399 591119556 760279200 165844477 305510380 773103165 63906682 676849248 985552596 221515399 996470327 317534651 215421982 89139881 457666889 136210367 272671876 130059414 522236378 137610573 690113233 48405163 892178908 949256918 676034044 557992322 155643918 308251865 582447048 800092317 113844383 875602318 265910458 380589824 947474794 232123248 987870321 299714945 276596299 878931828 548504820 235984429 179271483 302010522 437116116 488251289 72050414 144305008 837122503 927703208 273476543 416075881 990841855 694277449 748125161 536295868 823657905 268616112 527922154 913407932 930873829 161991148 787018555 369690303 174736434 20108287 425550509 198171405 86279639 808076611 48202019 977048200 55468238 374406052 793393907 742580025 674427062 825322310 552970183 293720952 665995063 535958444 493519209 495692803 478494704 803007562 749970272 645705396 125089485 398105344 442395363 373632483 721440598 115075513 592927280 581128553 459180392 623337398 955722944 190319263 743518399 787455587 617196398 491511577 873147364 837478170 331730266 465425786 165100681 718088824 691076972 760521543 992168127 952259465 106396777 264964689 555146486 306381399 786414953 855913235 997438500 36028738 905453541 33895336 696317212 49599236 983336269 467921516 88714109 515133453 812823168 440188762 389131339 466974718 784356715 510541814 415285547 205425280 966272474 616239699 375531217 757008354 251533274 713507740 365535261 639980285 567524931 520998960 17885209 140442312 116259138 528272426 458984596 656769624 89608832 950877605 168812097 90933493 86561433 1177965 176148576 582773912 886499004 717075671 219434656 571630942 628950875 632908753 251814017 516568672 64805021 225414024 98133360 521662330 369504027 517543258 779355441 531331894 533786714 329545680 379079980 166153591 527255087 237753868 163851411 421010573 904280033 573593794 19539434 434826095 608820746 676263878 646485247 741617821 326733942 973858310 330359342 932675143 30187418 809622799 978341884 316177944 326483921 719179899 642545189 703446072 138509589 601544750 200119872 736230630 236261956 307747236 659682092 82781797 659666144 716314919 566687042 612770327 121124346 224212123 918279812 994376089 532052996 957481134 153687859 178757030 775158301 645254003 153979614 386813930 177359401 335349512 793460194 286447222 471265165 23283506 40100039 142021476 500569813 166607867 873782679 82802738 539456251 608730355 252761189 634545036 483774101 961813860 321473759 141284121 123200684 535867078 724128373 552998186 754808193 495864775 654375808 340983732 523151241 426562138 150758494 773734249 150092593 142815563 863415515 811383026 723052812 186218147 771615421 169555920 535148134 475572536 746773184 765316369 842057493 576299902 519910013 341710649 944155079 956277409 189113583 525615259 439292895 906007969 540358 99618182 563990720 446083964 983989805 688520216 85187491 917109161 773223469 879161732 128616678 785615803 436760351 665031903 622499345 451381645 710161466 727868546 547415529 584740771 666217638 464991343 235343913 401307956 179367911 594187463 250416191 29525854 555574586 222325601 355186943 734049575 24435436 197550812 985976519 49329520 425451459 530926728 158671348 946043552 311249737 910057387 5397569 851076663 267304546 463118201 58294865 889892057 823684422 667048090 796478380 699198494 872511140 606672073 990978827 722173371 643134759 151168040 127870613 551024474 902488108 283030751 73997078 456701263 642218222 685382029 867108829 240506693 966458136 131124987 496647561 806877913 610867326 59034699 456037115 526365530 658805574 125982673 357892879 456897484 732268864 135137656 855382190 867236545 870400354 495518838 846567251 355381251 361544689 104839753 683303195 599510267 458795431 546651999 781350302 752645827 552410022 426896332 457145810 559413378 332555067 36998974 187196978 392987025 843501502 188768779 164883201 676468011 453601302 216640021 471292069 773917078 977600956 108886169 402425582 155564231 637551650 686376052 814361701 683617939 774543743 278902593 663285009 335278446 291564579 68304209 437997069 686381968 630161443 561757459 299301692 727514998 268091175 654488721 540999364 416005956 490170035 75424435 158800054 442613070 790685153 626214258 669712699 651144757 674534580 989887487 167174874 954178996 367622883 995927535 696775359 249139533 487989912 635149895 252195563 651429671 643677431 623760730 392798541 238896324 848795624 663516728 738663481 160326466 422956923 219550930 97180120 233296306 962628592 256177472 464181284 238978030 891649552 760365180 111221444 682346722 253565949 217261785 18013060 146049898 812673462 294096246 91733505 93156132 579691011 263774308 750354225 229720341 202930920 617883595 294377294 842387997 597751711 196891025 586500528 351197703 242497531 936381654 327775808 314475609 54296782 79265610 202179902 713854481 591283182 137202972 890379264 745628523 232237652 9818801 79729807 186412264 580990466 85732583 253893175 48612126 555688709 524018951 449738822 238223974 864377057 583460328 90058730 401944087 686063985 477728397 765349890 915114920 601442583 223519544 78219711 210406177 206343650 959067899 646012571 952243590 151264100 861090228 334172794 189240315 136662690 636582360 905472361 777230462 895155094 767540049 500177586 315437597 965157099 134111698 337559287 330205475 383938202 348954087 935605807 543318125 534572159 124296511 201324309 498809213 753560178 437329580 870451048 475033757 150997212 461165611 148331128 680346077 785801768 395690606 41806629 173106700 884895933 547709664 104592575 375468020 795004748 251632962 864472913 357534550 471821766 721848448 901650529 939415257 999336440 851625783 144058198 901471284 15182715 168245495 359225875 97835311 11182229 365790880 453895497 522302613 169022280 135950790 675379063 984089195 931136611 285452751 468412040 78454074 297231764 772349962 758413670 929887471 604055054 736436136 263255681 794646206 191550415 110916792 584650352 907795152 25143119 469385212 567331116 939507209 695026810 644636986 619101172 594824317 624408192 679585171 808616506 814928270 369766953 527595084 86487510 813372791 89455912 289728713 742640114 553441261 668614312 948509771 629405476 818441515 968585973 960501428 208373191 378648473 415087739 885186350 434476682 543049192 463601279 345603127 437980603 383895958 151198738 66473772 572488980 480614524 535675485 556154714 545174693 335608917 250500754 4240933 632094654 253801508 523115652 240849469 79278268 242902176 546092736 595924395 659841599 250601873 616692183 723429552 924342875 662097362 19912395 317178353 357980544 977248519 295685976 69684750 993444487 627884517 776072614 307967428 392001540 39942949 102231165 427220473 243995602 607672103 346842828 374361254 39981533 773114230 977720951 101795517 213199256 163435010 713461418 76455643 598783765 727359574 540076620 394136488 490325601 336095470 239735230 573494599 166523891 635260518 931189876 312099078 99290533 916235209 607704318 634155752 75823503 909970068 844137461 234784532 964659478 200876149 571575209 358231058 810931931 550495425 612696612 588450324 922335226 808907406 53519089 109257774 310479656 442694743 162382625 796710574 804673321 128380184 182389474 372795363 876305286 424900874 306540014 66102773 866391626 661612743 498102098 39980915 296569580 644266231 237678040 847102695 727864577 999923866 247245032 250481665 645035779 869719762 89393082 358699821 713627624 643590356 834114826 808640311 575500670 380347388 795170247 975553977 695635802 697394813 629288714 269582066 897846198 511068910 842722081 371921705 9807070 224330751 989363148 129091346 816543736 38025668 97710228 883283625 861704452 759694578 879382375 517352106 899303970 937478894 689820042 321250590 488675203 458325893 609317859 840177745 522059373 842306618 59835152 293214653 805803741 251277140 256633959 329778995 332052719 952924686 644789280 871139728 111967159 659306413 260756329 823368050 899317660 478528988 384476802 899474392 245175319 667068984 632313473 710016123 574487458 850563077 802726358 879374014 986048947 708055907 288345471 485783036 433591123 909882265 823611652 721324243 130055782 60342164 339377728 603678545 62816182 872643743 84186170 922681646 676355087 837106374 617782174 935894974 84316571 229127949 503408289 94235511 586928237 917309563 171929835 609898145 394983388 90996581 660609886 663894914 239005009 474520198 928574652 36871580 965116091 82475243 697605979 278584925 731000813 156595759 692574355 683613605 876112483 800839978 430913685 276417658 245238913 970085717 982653838 982843799 314184574 658749644 703112108 121157630 837448886 360018027 732217092 886990369 396942957 837826017 788095760 818004732 267705349 272031687 641833642 341592121 457233194 873851166 807040698 817516253 512980455 276297798 914845500 795829645 17179542 640583275 471033369 140901751 921909112 74745937 186631783 203404037 768042342 970279939 79339637 373033656 658126910 970508573 307086934 613249540 835365992 821288448 77779472 130940398 812326539 812254578 634124660 602602469 928557786 726339574 306315800 450903599 602412477 225146440 649481853 665795753 333643106 427913267 74355244 334013239 908048230 905653631 48868408 5870045 369049026 313460915 726450326 796609784 779265600 435201423 120975927 149333051 556998134 808535374 937947756 253136940 23804283 771703580 739575019 415024281 338758784 596380764 725847410 166135499 991227597 68294023 98352059 408813911 673199086 29152790 583202390 209027920 218176604 904106034 748063781 601334569 300531481 478399943 781537140 892558495 226465121 68932456 600754321 92699148 780251453 45792829 901133307 844424144 926198361 244082252 346433983 450128651 605584474 809434306 563258265 85351158 371464496 412746500 641053180 760797140 207330010 860059645 213528565 369667764 623821448 353001632 716855044 103004366 732983356 287285695 133152942 488230502 91811148 698875122 783730939 384948418 431071117 897032402 764206586 558545892 672797825 280761325 645675100 614828500 582191069 98099957 910877829 212976822 326948480 766816105 699187833 988754619 611488915 170717836 95998389 309582013 559168289 29600222 807931296 591018077 293663127 125895455 835111213 104523763 145685556 638099785 744742824 701276034 912544847 740017117 233707132 282247617 485662515 494552230 575724325 506997203 531848258 338322218 696663530 164944039 876702159 250653280 265934829 807646624 298750612 264699287 214647428 237444167 945432408 248274548 336046622 103275449 636877593 294842733 852534375 992048982 131308508 724992519 89810459 939084768 565069964 849162004 365304605 164452051 763099700 49225669 396564902 360307441 602983481 209259986 712084048 387452312 609358797 838283905 314829689 242583353 802021142 509358145 749003768 943337979 266495222 60415458 379945869 154672984 585883231 836965060 189591187 321698274 843282489 962662221 158284121 23200955 923599081 134410726 954274113 22517732 892958699 997780404 685581791 805076663 85558076 301192508 840433759 370085795 54797568 386084336 277184732 839872701 134294456 355913974 202638252 414447059 774569965 178194482 275270192 2931430 632177337 939748893 80318327 612276709 533136380 274001553 932047744 41115833 580076015 377886221 531157279 186030572 328714763 912797162 875638657 255079431 349111953 184656854 325046978 369119792 346615500 58369222 582218599 152959703 517514224 510949040 337635148 465829602 770652982 346287157 16595125 339592976 212555468 371430144 304154746 153192160 135983367 444300443 854301819 243666012 722526337 775657910 870825687 892777792 658579119 893067663 210230154 838312217 836585855 767141236 996445975 572776999 409401615 266816289 72054833 260264361 586779131 868292865 61201353 932659909 713827363 178699718 97495450 45918923 471103550 548815759 88914559 85550694 476536797 993118336 36673057 497710499 785649946 865644515 101175250 436054931 733986585 404254311 519580915 4058255 79643516 509116924 405521761 588897308 676923551 320352898 340251868 598602670 73952784 348234475 321041267 653811889 500855595 265166780 600290623 259843556 298931951 525182907 886881263 637998210 953331580 414953898 427534599 464480902 421647540 151382715 95994498 464903774 357227989 395448754 355727156 727887035 834575900 60559293 156368167 228580349 83339135 385208202 63609844 686022769 642712825 489679423 539794749 538623923 634477739 592212662 137695996 892506938 827002041 586964280 776925010 423307198 380639363 998821459 712426713 239080590 467733883 677807468 675494491 937774729 128646400 902959023 54328804 725478130 676696571 640661450 553486753 652944967 734462865 899359332 608124886 35263879 365566138 448253221 542560725 989389209 80386239 464852957 684573407 738690546 148948963 440148510 611497912 487735183 494038222 689074972 574292967 287698718 775049715 993526770 521070829 537013217 982525104 877722399 167391010 753137740 589523628 670977534 556500499 306964932 64915259 242876103 378453225 674189634 488046373 470908451 869962751 82280892 904097209 40732668 836778537 657927819 180992272 257158428 567344847 729058670 253115874 790964008 535647937 497774449 542063753 813911050 880954498 628743136 735401531 721201116 118060420 248278647 76108414 538096434 772222828 130621195 874280571 629438834 59624585 839870392 65530473 346578690 542597288 287963168 735181179 771759606 504023593 958023284 392799677 573887455 862696390 357050926 987425589 229747491 745119619 314616393 862784859 842123323 783038004 190010064 414298199 6872782 200552262 430990657 121208194 564749996 181994394 989023257 225935115 382530653 412786415 361030066 358797038 70294969 834131749 243704630 113904107 251559933 891180323 772002373 312605746 542606064 685745583 44824999 740745667 769162867 491329258 396245236 802900556 64595287 5904452 172507398 419332282 852752449 935337197 171298713 747315006 380397726 212406349 379776221 67261133 492160642 639797931 623642812 489799287 989135353 997238713 202133668 270445764 94938320 726406742 335575961 239312687 834341202 238289643 947690827 748145657 257894862 498108612 98326598 77254917 223405358 238680250 226522770 614091015 153419358 715445482 774709686 434500767 887503360 216148725 8093463 919234802 194747356 284377969 562283678 732029448 831454245 681300536 389620130 577513047 922434083 843912751 980320556 235336155 727395478 171929138 978817723 482224118 1739535 813680353 318864609 797793055 841215068 971867295 284234096 2595254 482056248 304662737 132756340 164561512 93761059 36496999 371682529 980352359 854102919 655060487 426500161 590215251 30150080 511845972 878131086 915976475 228917728 935198454 329806208 782438197 447677307 599129435 617899253 21477508 612262809 123183266 804459526 819293595 322434285 117826613 72299248 765514223 251849726 916146298 767859270 813229471 945314880 558626298 855292361 675460757 928365829 480400034 241275178 286435669 500814172 119692433 561779754 821137244 675458484 987229444 895055302 905280429 459448023 997134924 872331588 419033990 165199529 318344027 705348869 873144357 326346444 638320126 604054345 280517978 833795488 283744663 328028746 125432656 715429562 785674490 269419701 356135751 60861581 965772296 902145352 34563890 290428510 126104980 842203015 596697626 271787165 255978343 609066800 353523278 953474936 786793929 137298770 210181862 960732666 605008388 469710976 565764328 980210310 316474353 144663088 49127966 298515708 434254907 614770146 612374004 624047435 373153509 292277635 653879345 908399288 938152118 360541295 623314810 446929097 507891119 714516355 277855880 808229258 552920374 424782695 249210203 527720037 168485999 425686788 923147380 994967539 494238736 40685018 425485639 533480144 329247517 111406906 7215908 924746153 165969561 884416805 169724537 462251806 193394029 658738102 337831944 294862599 706405083 986077950 315541823 945102554 359015018 230669021 926683734 193136825 390773051 200073785 118327238 738830789 982309435 931207169 673567065 502171597 567877088 632961641 757377846 607135514 704246609 315662983 65579876 502422913 928857591 115352859 233360830 601214538 185247837 86641713 872022898 522931212 427947172 788713471 390574892 621068079 73743798 966224530 263480368 444231722 215765639 32740952 317164205 147587375 206303598 878149067 24353624 479241690 983092204 464175238 568536843 114454143 233022952 810017661 129817786 605000481 542872760 729354955 363041031 963404720 44659821 514935469 505386927 108864920 489088810 440007154 356473776 503442916 635560259 461384636 492700135 700667531 869638805 685227919 781755270 922735400 318117024 250200334 36634373 270147993 193080390 34741772 427806857 655417355 894149653 303328754 322805223 103609049 790505698 604254119 503147024 42056072 810886603 904349164 991530637 504476842 236236335 224162370 482690516 196717817 268496586 234095930 694229904 254774313 418523061 787839651 419347110 891579224 499726358 766593175 84667540 135276187 991988928 417060627 720686747 1676326 302001170 75908252 842545202 808935600 276432062 826270317 575722462 208411288 827077311 634154615 955609523 121008898 219408538 894016340 445469368 992567382 445508261 344253181 879928052 73136694 337238583 724262828 322814321 747946950 317029375 465846790 552932975 758276520 355584025 487805165 239951561 2587377 52705398 45259626 260341575 214656853 896908926 47868267 460480669 345661259 269677255 179138563 324682017 959955713 628056791 383517895 472943751 757968998 985554346 906726997 409076001 516616168 413747869 854405703 15199448 48867282 707346238 765545478 220045222 471513499 865393681 848287180 941565403 655040759 507986116 154420058 825684066 941349913 484683091 529317707 827991011 630893484 489390324 911105904 349255718 764334366 153783190 394072380 578345976 839509011 820379202 622369022 666469417 459071488 594945062 155127627 262928623 608660816 427583571 861633335 861880923 335194390 937676125 130913261 813468949 933849945 348839604 28455483 751554611 159487314 486507750 602758154 460398522 17001235 939954346 237209955 384759852 687891285 445028795 500230112 388733065 912413635 456555091 262393427 5237650 628204980 452643047 127564225 775062377 934386368 741341635 271665822 777604764 313174217 736755986 488865252 697041476 863212702 624852422 168140624 831716542 331964672 10355356 263118853 334847887 523353919 501220225 562325637 811532915 440820557 303782137 798084369 384514784 520891039 57589620 248884605 436364576 600738891 982312343 533541735 674979470 474485290 398214905 910565593 131222648 562961821 419335357 116466082 8142131 287715758 803570801 726857698 400368756 778943557 783441094 509624669 293979865 445759790 743162904 352372554 82839567 7673366 125409502 174808205 40335523 763470406 464009557 625197958 357109744 380677154 561296607 369733917 786747089 90317695 888661120 140528763 258251445 429597219 863458787 570498597 743604235 378860466 706722650 152991967 259845500 177300854 279133118 444224620 540297416 842644585 297385901 717119618 270591825 945960552 653254393 330369716 159513363 894193779 948866217 579117262 276366685 703490421 316636958 439140420 500033028 484794226 506629183 712902837 816470161 876884149 534898233 81682676 404496582 438358303 610661665 341246699 954123137 860336604 857532861 618222736 786407924 437592464 189462019 51492794 728539201 941245607 396238848 804845285 487225929 585591325 123951690 163882097 348874750 161818031 624419794 439426107 80831613 940035248 191857867 487950609 510283596 705773096 395621616 827409481 383498241 998081134 509607011 548400032 541683811 525125841 664940654 879359658 217410032 346690628 874680887 145616710 256401568 907289580 467684917 148351248 832188575 67075589 105596799 375168137 278151007 69059980 356889272 779735751 775059485 490473595 966676090 170307649 128205616 962273798 306087282 402052807 824692952 946338753 866367248 146663424 371270902 6179338 698574076 294321273 384308561 21868090 683628934 914319509 70590740 465784675 144090961 460881743 26185454 80983584 585398943 586943246 467478487 353270553 830655378 436282459 54978505 660889193 569830119 641218991 188676062 15167465 966168684 663687244 20335919 979931628 338096651 369120846 527670893 658976535 135162744 843756143 133208511 830003627 988619641 908666909 646569599 991096101 128243202 496919135 889589428 280223452 699969202 56554143 926947042 585069796 918303077 180461623 340669168 441082791 159830546 242979644 199621775 727466137 988507840 424636939 260413909 173642494 268296 817296625 655224310 509804276 937456234 768329905 132923161 587295360 901806129 2791464 500724964 732212587 160861964 723947821 455263485 991493417 8878912 601128671 211961155 496079363 768057343 123432289 62298344 542755211 416964224 585755179 240340891 161446779 917226674 60609685 11818744 625289792 661426163 902391312 278837858 237485869 449700173 858365545 507503715 875001811 318302373 964543005 130717011 188369943 964555018 140590244 638004133 722344189 127682457 113199220 319335750 594535347 381857052 43527552 177739425 923603283 935818648 548180707 804259373 928246904 679244650 271761998 843420772 954252608 953780906 519362447 954736080 131783644 288007836 407984346 937581320 227001048 281486910 712572423 412430364 381434596 605027407 639442207 927037954 912535848 767232398 346812054 734325215 495440768 932972065 62245738 985514337 807861601 735107704 394175560 680554806 839692275 794918677 83837333 596253832 287488261 293921972 348877025 31565948 598405776 505282969 897636865 78937163 872663536 157701731 324788818 504956407 7969926 832852276 547808216 521690630 42949485 247049251 341578401 395188463 474790223 482966013 290547902 74474621 604376553 412182175 281476326 197355117 85143119 361870913 194465600 68128230 405836774 649649868 689465911 355838967 771513579 490291289 6355118 72828724 265836051 144281897 441351372 779630451 407228328 718629472 483967133 337829154 71275523 110509997 305247094 474225560 856985669 226016403 120066714 859634548 663640643 202801112 90487279 897123898 678878691 303843310 677315430 708745331 854129446 602349053 780407353 923431511 807213068 127569440 201968812 287889187 809619565 969024599 928199916 906012637 813396744 809255064 651308387 279066811 135724858 548544882 786468664 927844992 767018186 980478498 678831087 965592975 849804807 513659037 112435684 683169416 502120771 651428137 442828031 558659412 640667777 373283764 575929290 709164324 547392075 93004884 660030886 821920649 530442336 339069011 235371771 353062241 507718247 497879920 673702234 508398154 193944970 445059294 776262993 638192110 400899898 927490256 962732842 518577803 434072445 901038636 523100840 58393852 119207942 392836659 90228087 321631192 215716038 719361578 340754365 802777932 626839010 694484768 380902415 711123772 569490517 400870834 77742127 28786658 509297974 190373445 766685903 366568804 442742103 541016949 953023231 997955354 791884562 680913001 924603910 822399360 600273058 357501639 662141136 151620122 354065000 950054428 919441763 565408401 907324582 903303192 358564926 132967798 813322200 938205774 577089646 663935253 878140920 394556160 330863456 500509686 272016479 203138610 360643118 823028983 255041192 248511503 686002065 779369252 687126705 726527432 445948301 960410062 846738641 15180590 228587567 931614954 252530851 201328081 519863016 612137473 917723507 636473505 568593125 561693707 631144420 12675545 379591421 121504615 152616358 605811665 671896917 421179111 251942092 997425895 169838201 592949029 739112354 947054385 479400088 854739928 98519531 780286244 117400642 367533125 979866887 736520791 578404293 853121426 678220746 723763697 866877317 944399918 602985558 78694471 546989285 366863744 876420017 702104636 66090153 737461295 442346294 146817950 490505900 404883567 153399333 864769903 452360047 653428703 393845580 604056625 719603456 231584468 948326664 706473979 480406054 853232384 848757233 380541670 77690336 160247293 331393407 612750699 789421196 376784838 665397380 141063366 82436681 55129379 21298734 173687681 721713883 25468977 953611431 173252534 423917060 296593410 814903524 926701436 747578233 445918808 550061909 172392272 806919729 508343122 271872257 369926524 945118305 171405290 297830093 973895959 160133020 993353476 152115778 381642667 238196061 676485507 613753560 302590050 818636424 602939136 936025291 472423766 16047928 654389490 922531779 495571790 598504208 954733423 10598513 522307369 733449993 387422284 120967812 613352393 28303012 156702894 882898527 971391632 304338836 865480938 315906078 573125459 781223739 563530047 12630561 238449295 866901341 479049338 503779507 970482145 526783300 187743069 332900778 150841285 326668172 297559867 446236088 221688754 277029412 250541773 539707768 958186566 71381866 656906191 629861091 893084310 621497909 853521439 681910622 294773950 880256806 619324454 524911343 40024664 557167871 974741424 257615268 709349450 282061726 584867211 259146290 921405294 534162834 854286778 595211183 589492486 85335279 575839911 22961463 245692586 229329007 301045594 589788813 633392500 615088102 877448691 238218948 722652578 842225967 979154886 537548628 336275614 344367056 757299216 178257454 636101925 813466012 391699987 189248047 316125099 67414400 473219108 836942220 520258159 708069971 98519776 87914560 204615249 912558565 193052140 356592608 184859579 981959413 443188809 78810556 218253719 971762221 195268131 719909777 899806479 518990193 535507337 616469706 680401241 784482859 5893090 940090505 905230753 889921961 184232984 234031173 686108997 393032513 126885231 224916034 885405863 302717689 258435859 871114038 805146518 976304523 867728776 61005338 446036407 81787893 590909698 138486550 503096009 123453939 661353555 505598455 992583558 908346095 673271815 300282760 493722151 67499052 155446189 651002024 96088553 530458899 30820438 284575156 597257924 733981541 396783316 451357049 227471109 990701943 723663113 416536238 85819239 817587025 887206098 566243528 340682906 30189071 626454079 990170266 854627021 264691442 360356888 969215394 499960459 411106046 109568490 411549497 681011620 618940053 195657610 341988425 675711498 275873350 911258326 994283451 162701178 867246795 966443158 624094285 456811686 222810782 568803585 672522913 543877303 847543547 688359873 989644921 489138147 941795389 610167741 142671371 645139683 500564606 418033089 468636889 286982308 136380163 239998283 544543223 88648085 855391756 308180342 993688689 717543832 852404108 731825338 767329215 926269401 580960837 177538769 922554423 682797385 95022313 979524583 597974758 109947152 897148720 364931609 916120455 780756404 64181534 676552570 340020007 576094661 297887135 807517555 851189430 903884260 334262741 913376820 758812214 836913621 583635186 356254256 963630655 966404028 76530091 760859933 732190144 383736211 946912183 136644919 815224659 87399259 719878836 766379679 165627051 346196795 425587439 592781511 187105036 756220682 213017316 854643209 260207555 98543241 604044978 887573821 203659529 303896540 485185871 553733165 590880331 392076725 245342701 906512152 271903549 381357975 951887681 539029332 458721666 234111769 65933568 949876036 764105931 838987147 465270277 189658744 933950400 40541722 832819498 254579422 74384858 152077241 280947002 502172803 444956983 296125827 923650237 131841690 922998324 146847965 679777909 127790783 822189719 97311116 194202490 233898207 589423750 213128825 2435665 830130245 127075357 48414910 799432371 854766531 71772569 20861183 289541854 918659405 189822921 105283513 278189247 302571362 693674658 220759999 233339887 836386476 786198558 349651947 112596348 303968923 975984738 483110118 814050749 913631384 355632814 803075063 10777297 648230139 110878662 34228514 351493928 274109276 786255475 455301895 245095669 770539777 704950215 17052996 533009336 176189471 640859168 724156038 852829021 217436017 673736144 717208813 667883294 774501278 118489964 43572560 974900739 303369233 771896966 724365906 773763149 343030101 841613926 952244764 113078769 13879774 113324566 893539539 537154120 465386270 31170020 984916783 79202726 989446586 112370423 934983962 491064508 781495660 337322544 733015472 568563473 84507145 731769397 500831982 16122890 102105625 521893582 269636466 726017170 710545556 609847694 656162973 174618322 790042095 135854861 12460822 505880979 74107364 687582828 682612614 69743991 841287435 413817032 512938963 682809761 682681135 775537969 501777823 93568383 265804201 136651771 227795170 812188051 385506276 866322728 364092338 11182970 330459663 664256008 279197160 652897440 931256822 601735517 600160187 154469125 943292989 720308287 23248217 549988720 93685075 723232812 25623315 173531880 998038758 874234089 790314245 67792518 158522706 587979978 661208988 34291801 747719824 128227815 733570670 352636322 109794017 951013024 843109110 790346492 952045175 776330270 499334443 450449188 259734080 791959622 557648496 559472678 864028597 419902839 170737770 984805697 741186102 813545841 300134659 170589262 39028021 781253079 704070838 817055076 469115031 284880277 800675547 458166274 665836507 739679371 706929521 660554979 619201845 941651734 466640557 165359355 492792017 724068741 877495854 608090604 249682834 335166619 285538098 26260490 995655402 560372847 921658119 85004625 568996070 356236588 260456354 760574574 843369866 661580474 170778247 595277940 511694641 200868535 924593653 306047938 81195033 348588441 681677042 18343889 945506624 459850750 889260824 557836697 522762966 519874515 69936952 195069157 228960187 24462669 30460450 773363803 919813082 1121634 633023833 435445862 900128893 889987994 979167084 773240014 759626336 529152378 98570601 41694072 767718927 236655439 918308298 281689988 986326815 740867001 77095746 464833218 125151587 523366029 440489351 98721225 930516040 457597420 227439698 411357907 799752570 547697208 411434026 586591769 622778782 713762942 786223011 728260939 405898287 833075049 530056944 620582292 973961255 838118281 77701839 621167016 700690146 208719493 780472909 892605589 758578185 934226888 16939206 324234899 82615510 968205333 513896581 285518188 582570698 604582762 588744599 84336298 157256982 572261267 109270144 128662582 506226132 828050472 299495823 743233669 32684136 670300202 872823535 532219364 661759574 586163108 518388385 280718299 765819967 953068788 286628532 854019573 802475377 252568408 657175844 180332550 657266351 249320810 798060168 901163105 372852062 130035390 646178493 496540950 806831757 904211415 35674937 651544172 590346496 259262194 141904700 527712440 209752694 331536092 115720877 8518276 26632260 95604093 319277516 205572524 565870108 910584135 458765749 756170792 99901643 274935285 475607350 801834480 175179112 74907609 616228098 625890266 591465169 291703026 580930467 597025299 850861223 506282207 87018532 496161216 61716236 481535196 707563822 680406922 482176652 79085642 686852128 461472335 242538218 436410714 615248168 816974410 692502889 428518916 458328453 689635546 510276123 244844196 448004304 853254937 990804646 802565654 963379060 995639381 502881547 689142602 503547084 8625574 811077595 455986527 111346480 52528259 164318156 778610227 934316712 53939414 915002337 317455139 17097173 715924975 406007538 365676502 191597832 208032077 897578788 957414353 727041514 665251409 63046863 312929822 679879969 162463966 688108792 464987957 906204807 736270493 392211068 245397216 768159309 68425545 371752657 75737833 43238841 547704854 563227158 110663890 5657469 455759845 212879246 117327150 291101757 531204000 914771681 270253207 320444999 691940819 489180471 81469802 459603383 170965921 154343949 855474571 294920853 910516112 64911460 868012247 140613204 224775531 836238640 353052820 560427853 874276371 960152648 48814153 918239064 324848435 638674727 292130275 804044292 831784378 644727617 236539094 659425584 978638832 465591292 911261642 593097261 117424235 307258945 570016775 144013224 885370763 842333431 299439990 2905449 259583591 534055849 325958718 264127389 391154827 306725871 652953195 275718267 598380694 9445235 51358848 139499382 343531202 866369843 514135324 829446317 113971326 430537085 684905758 226166269 869569546 844683152 285304894 455395421 588269828 89175908 674979422 65973428 343244235 408644877 170974944 590084094 608607748 851483772 32763552 222158961 872151058 853617826 913999991 920173601 982541969 632917703 383827302 225597187 364802025 171438295 416330457 561400597 340972612 200403089 231493710 300243069 542259552 799739483 480182829 545654528 193886198 81015994 73356325 12945883 887905215 980504067 35655531 291999508 83274923 107195464 714826496 486086712 213391473 316301729 975777208 80751493 439463721 248945464 143161105 77937187 360618147 453214311 402403764 601199015 734731869 504495289 570808694 716825952 96532156 851012270 499092458 609570909 963098064 827691904 986830099 96269568 71718800 269573464 560933033 221665054 554638398 512563207 53032844 149966115 23139663 28930684 561249041 524151551 736934940 34759422 845133 321800347 839155014 847155085 820354482 121567387 421078537 285087481 682186116 432379004 257048707 203957764 826481291 431938653 655288985 785180847 394324827 89591419 513048691 924643474 165230487 670981960 902748724 493768646 490860446 165985075 687006103 815553655 124195853 241816850 763680836 389786364 894293270 568659101 953664348 192761222 157989316 739055286 326825650 529637443 81251144 190701935 474932526 574483038 235584507 128962767 78411456 675268745 296581766 8289502 311350517 173019594 953008257 707485094 351356248 989486212 608073049 935795519 50584254 815364464 113590314 969890277 854771332 761375135 355542778 558171638 871209495 814880952 72928563 948157185 740254303 436434107 462581335 72920882 296459862 969865595 207590454 144607720 888384031 546621677 133984681 120012369 493064000 277109554 123299541 907412083 600829269 976788450 675904104 241871355 13616662 182657030 941483996 620855217 241210866 817798951 282899722 733737550 972438346 858545586 360423872 434943863 129460393 554485495 975210830 417859132 126520541 990758596 679597184 825317098 834381230 267040962 953192987 375386891 466261517 824627219 163957211 76627696 886467852 890362050 142548116 748121463 615303933 422531644 960817384 352796208 702509163 379846138 651957240 268493944 639744873 882427797 109195599 810516473 472009130 456915662 481289968 110719660 68434749 7969939 232034127 928953671 820922213 997414276 961312852 847567230 945828190 268932440 872968605 855373946 499499552 341442576 583869819 795137608 376870000 454451599 127115766 620976823 941169326 657152015 881573831 623364246 5340190 574288170 107564583 845392145 865745455 250807697 600399305 557928948 186156437 690815894 153954417 490606416 658182416 485596949 799137197 992267908 734845123 894519585 967425933 769589903 886811461 253539676 538931813 202914972 572701098 164216112 638810480 332793596 2688166 344843459 56922004 336258733 382725585 922117445 192279857 114428318 281103702 858186694 540967390 155558721 920825262 98208851 435544026 720965759 762441228 159937205 479015805 657818581 294450122 806321084 84682730 586695792 165348034 292786218 531509412 312556184 816238946 859288236 331894225 73512505 309704016 668291208 427129375 88763419 806086638 671142946 3695754 476772653 527765422 330732784 176306548 194159729 523551511 630922647 42818106 112534218 317128076 198850534 104816533 606751719 829358724 504242930 439417130 757751159 316035664 513700402 378362559 234123022 683717271 147497676 255929165 75047240 643660492 650520059 953109255 623232881 572579752 863851209 781213746 586585664 404210678 711882681 450339200 536282424 542391214 37712698 112494607 775667785 162236981 855592303 115857254 201115346 776185069 484841548 430018544 471446288 630126399 607548353 975102668 985291993 743946561 39773663 599682048 462040689 343730774 504288298 666377154 597000464 90064302 180015925 393634771 282853576 74197257 148950070 418199006 133286312 111549482 911615380 236715475 338908639 380165964 373192195 619198142 782746578 202392323 437785079 39060938 855683600 497809547 875398648 812133418 424634717 343964635 470181912 192757650 896283199 432188636 289219414 92785625 922944662 395111365 806738378 226670984 139090601 693804062 317184030 484904722 390292490 912775852 684285176 261298316 174878672 773489418 312972094 846261725 890628316 445791147 965984035 457212561 909167982 175688280 735367559 461070433 159292037 724148389 312735331 460631821 953724476 274683106 738080995 360585822 385771950 424642840 13485473 295921831 177365534 9195681 677399099 998985062 151414118 939672009 828139752 912931728 662549014 138496655 956994032 825168372 582099674 711261376 116450507 908105391 955302968 148359721 872932035 429827208 678521594 683526586 43549961 90029332 561054600 212739418 164865167 694573260 724716662 572647753 987254984 280359792 816159633 960454059 619105662 463142806 61484254 229164985 755736075 481569193 966765776 150584984 898683977 200301477 625415273 393864867 578340562 308428997 468327329 725718874 167348106 125944752 298132644 527695396 913070896 207438584 780807381 596250362 746828919 73526311 927510831 142225111 315500572 267239465 469138923 330208405 798189008 220481595 919631251 925189366 244515148 115384600 459448522 828951954 550997674 362042994 874621346 646372474 346742371 111695536 895306693 864249214 870699000 80974678 881541799 71317480 596051342 822389883 893747523 706715513 573313771 542452416 593679338 731510425 656073495 818190344 550137275 110885831 899314215 984699286 243670442 762138837 970728923 457251080 534185099 15591715 675166052 855664394 318912370 136954728 813036934 430191962 55019344 94600736 893766742 268907144 79244927 503231922 822688512 376757181 234856828 20703175 178942310 773874556 463661994 268892293 84389961 672608682 850547072 153820107 390093758 936993513 95713590 366549524 926745839 158226854 29944624 137805988 391571645 770858517 142808188 766714918 43659415 952243281 506877356 155504391 177525550 509872249 24449441 514532067 644505533 587555518 896591181 19848750 984473212 625130419 199673213 460188652 770206942 397094138 757370098 220408978 23269739 455323388 641003285 26128727 545944081 460872262 970313381 405893456 30427356 832692510 424608942 70788149 679918196 54874564 451276970 759034774 975594951 275173868 864814568 688116362 136875922 297785760 422694568 931544484 245411621 358240361 469831548 683135833 377587577 6817370 470556708 316107189 909898575 502253590 938818808 810251715 44836690 13283752 188173157 904817382 147950364 116452793 677135792 519560081 40577069 480682880 228025779 464019795 902376493 19745126 302243223 338065681 681902571 402438888 404885270 112947276 319576934 35134843 796974153 89679065 439445650 521138884 81184195 78712698 590635146 656410396 255203126 620495091 472896090 896448664 313604743 816928889 333486008 166914456 620713250 152857111 133191300 994246034 771652565 622123029 424583247 672595592 168208146 83693429 304919218 351403365 376683187 51176692 397612686 863645857 787434155 186317826 611080137 467589592 758880480 743423604 10192958 38781010 889614649 218373017 303993357 809111797 391842397 549221690 834548142 493291965 172351382 188074205 222222029 418828515 456721405 371258962 17970952 585329868 118242057 446242819 368495488 106592956 149545716 669654051 652266477 80919712 709087575 514953598 505926493 878957234 546099230 615641590 822212611 425148026 315662381 55816899 992223697 588938317 789974977 299288310 486827399 615175391 930800419 368229069 139713642 761599651 896320988 333026909 397240998 161798012 867880489 497897048 957955593 382322335 861789617 796767579 459397460 723519566 777231791 19478356 299517493 781693554 217831723 334433595 832975823 391772681 482327276 663335920 889466881 5636564 388555978 467843309 15359917 222980944 851730554 179061322 514980423 883744557 205430312 499241008 509203103 850577710 916149144 838403313 594662061 718180668 57603019 318534015 352451118 479662911 129569348 231214500 472486459 903913519 896015433 411494526 147545735 11673517 64896707 135831670 85790089 230476875 798572232 133023040 150022115 904290198 478238897 905929181 290991575 235616235 38619993 937359697 398648077 285906536 331802647 266253946 441186159 44935097 912656679 847430621 645755704 525622663 708369583 154350106 854153523 54124287 915572247 631102359 485234619 981338155 787671994 614625596 861098993 890047333 683824406 494866924 505184624 525028727 829544609 656049026 91702798 397629502 571889365 628692790 867559186 965459026 872483187 705939249 10856420 66989420 150740295 17929331 412608875 315459073 598932742 203622864 6681973 419254615 263542057 548946468 743390473 368801292 775957676 550737419 208112508 787943196 831885907 883603424 271379654 796489554 653787779 995264418 244980793 374777072 702275282 878949930 284666055 725278514 549360623 786017987 587737827 169502641 411860343 323991032 688083225 383296729 935833115 358451051 975077431 923303331 602946856 805120520 124573475 996595261 672126538 130483077 63800578 140602336 599757637 940450424 93665097 372623167 624538804 751266332 191936350 980748781 515893334 543296533 527031118 213835441 526869774 259133733 602005232 705361599 187735996 276634261 701267570 167054685 778341421 232990911 697395867 323542363 153918937 209301583 569920944 388184396 372477432 946087750 355324071 997223294 101199097 390838273 724482142 715611821 681627055 778399978 708522563 263065716 231552227 382220477 671894479 784921448 505956500 118608208 813098397 295045410 950521367 595194972 67870656 946289574 634349567 458398241 730927217 819968263 948755612 395877895 706691283 258697033 38665565 595909662 125493923 101554401 936326471 595764336 238683065 729924897 325350949 194414741 388402893 873748604 443747761 343686814 442050723 349276530 428565541 596235761 657158373 934384266 204205122 249367397 528677225 317769967 778498482 893817919 249299475 537778311 724571712 428849561 989564914 840499996 137639635 550094038 750274251 761983113 837059360 32111115 130652572 39394167 738699401 828650668 581479146 763422556 967158900 310976752 927901854 170933714 460836135 961526865 977338270 373320601 61468397 650789527 637916722 459877001 436927167 744644083 416301943 190279160 17739492 624571365 480273336 534170713 66862253 964467876 301804646 529710756 647296857 607825803 466307043 129558844 437831216 707240475 74507117 36075697 756491218 308032757 420693677 173996648 92851362 680905950 885960901 106569927 357088205 846452531 420470283 802052166 195575688 813803638 561831258 3333785 412423162 571084099 467124242 996329712 492490672 490718226 715854249 473708786 717286269 443944016 86525959 813898548 227338070 15460659 755159098 329837206 778218093 480744468 140576557 748169575 780224501 718383044 530953946 19974494 115518307 884700701 366458965 519081426 763615211 666326360 845833569 254932193 332119533 484583361 816613760 910714116 182258869 601039181 9861240 698152555 97975308 295960973 960305799 507719839 830309368 223860616 76516807 216281166 293387983 295332314 74865422 602340201 397790125 75296420 36072776 19277587 218358661 873503500 310684747 142849886 759110148 140156087 184736683 175732570 110762438 518542016 337230967 423277917 29021141 428600049 360545303 728338620 649237770 95585008 147730879 711195801 966333724 752676335 827610313 688303650 303535559 404942002 434925253 643801947 669248075 575653461 954082703 266993417 87312085 128914990 673545948 777058681 605771605 871908681 626970704 502307173 670088953 104205227 536345749 585329880 667217261 959348451 977293595 798310293 793383384 353058101 815008108 328170821 104935222 704388975 48962609 697847711 754012436 964286975 872901820 831723382 684871912 252434013 629632529 264287292 611010300 399314846 396670615 311373530 986757390 248096729 740192588 390139574 247476604 630740762 965803998 763051464 137175079 146746205 701235268 187336972 114589705 515095897 95231515 881770216 36206366 137774276 312297952 26607515 82317416 283124422 209816480 482338360 607196358 50323734 323241893 989528444 759243593 823808628 532326718 262758592 639405124 12356554 235946815 137108597 146670291 381692546 627652873 79900335 791114838 322157068 146438341 498925179 179654050 743910325 166153564 605759424 641774424 123917816 795774672 243664448 148960210 69772283 525853650 15986687 259974519 691615882 422888544 74271408 234059673 135812075 705367598 901697162 619991756 991449504 466953700 550377358 926877331 873291580 989339534 794092033 618548623 855168286 981414166 452260477 689108231 69626831 161837278 286409697 181208130 392414448 145466993 107179691 646201746 558465767 196808340 948112955 922031524 625978958 173266578 101985748 355098891 47674835 171902626 47720893 336457338 802778880 101915402 959168092 295760826 925670520 33739386 879293357 616838428 796439398 539265597 957130183 474894807 700245853 845105463 125967366 163881896 230578816 960318020 870663050 94243022 51732079 359350622 943969722 368611606 80804531 95970945 273311883 521349879 219294121 703911797 468027272 262635604 963184891 143435759 539177610 78002966 434992878 382026897 813251434 813772616 421954659 5456101 996343188 669212687 383945029 601986803 455726106 124684273 361835733 895222011 416435422 444169155 837016583 191757635 570421697 415206509 5948443 72152114 478363692 479506894 977433351 916505552 517199301 252874273 607682020 358216940 287059975 146210869 683605338 641416136 48050467 653862667 162481481 799834784 740595710 959054526 813794063 237134573 400743582 890532221 590891412 283624084 540818463 878183705 91698306 146820955 389224101 667559904 98343716 133536516 276772663 866884428 295864860 563433645 140839660 153659512 97819764 908594746 939628222 962180847 139364507 431907853 884639513 725159220 333018560 132897652 809564874 187217211 306706996 801215142 115610528 447863866 957576211 636802600 229962072 464820903 373096876 26826266 614051060 70986540 608226444 347601837 893701198 542017241 728584789 851452947 798690742 714574437 711511106 22905573 571493723 632806092 227171708 154362513 879874346 217274893 338221517 894130080 587896673 780528020 592953136 24874417 756907308 190615605 374261500 621258681 835743146 8305482 868986085 908462964 565573737 470122316 177264108 769762381 544727902 571664833 981224341 228706883 407528634 802544257 656328630 898201992 319819409 180987675 590545754 379982518 452680787 891063063 992811925 933774283 230494973 400554221 901887269 272248079 740536334 704142008 867699336 12896231 576331225 625919684 324534159 861895063 310305488 682036256 295756755 602072354 131819535 83612758 601063718 441243272 980628824 642836054 152043080 637652197 678166060 627503358 404226495 893568499 476922936 485467393 425358416 50545562 887673889 140068780 698023656 925338875 19605272 391228948 285630657 945681923 819921065 399054419 72844236 121953663 89194174 810680943 589824485 777109181 74440563 197091484 595675609 888764847 860510143 475296553 584141362 77123770 237057304 713840455 781399 781990356 514743158 556376233 884965404 998150684 446644657 187566248 111698737 792572729 324384772 499539377 181278052 35132673 592107697 556262228 65072923 484511019 432366902 689734617 466294007 404328735 317368136 946182584 520939736 93143021 47503334 931674865 928399086 837609247 993211893 109212089 291213072 353356260 200869275 286364929 561409069 75046045 348118743 93172011 985002607 735469821 920570249 782869961 767421741 803349657 696842851 118091829 539442687 475385432 899342173 478595426 709573167 657230296 223141299 606321403 274358783 43302232 988932712 761874830 639633996 492640355 281042586 652550462 992024026 703290554 21978463 871964727 189749679 233088220 549523977 258207667 224751973 362804345 300756201 643670987 528227167 717521139 668452564 415199291 559665919 977257138 779729059 679280575 52136470 386021981 249036337 456428962 14840383 992413453 986903605 864326969 517032443 738733207 765140595 312265565 424211375 24263568 890244519 171676554 729369071 141579983 621877086 58794434 636029168 125542522 11658618 764673451 158157258 407902437 988196018 411098775 584433637 446699076 347623519 884648067 634612983 38090711 768296290 218717673 627328735 868456760 14245200 425491547 567512257 62879265 898483190 907334482 241193871 840451581 864199097 581868462 240963824 225740425 433084564 933589043 862164814 185434035 856867626 239056205 376310979 671364822 624272563 393284232 898289723 251394182 658413601 252414720 91997930 686229720 262841502 867523723 382009529 65106808 681944635 572196910 215138076 296615387 78320281 499962271 87230697 414496471 599822326 209997227 243774495 555538895 869483521 170129870 766583460 769492079 358715889 566179906 818330225 309378846 465262022 12607494 703502577 403501262 586454256 264537879 441431045 537820348 856910381 967070527 911168425 902263056 623925274 598228377 104711392 398658550 313927041 958162596 213036772 485318706 339374026 207691463 62783767 607921574 393745965 410561987 344806724 791499492 33742444 367022428 265574392 793886304 992822430 847621357 555375239 435535202 180966879 555049755 441496770 124879826 498607693 362122743 920035219 108814700 49655381 487545381 359035645 606279669 349254702 564596852 169960147 478888246 209198803 942867303 504589686 7098789 155715092 58414941 390258321 417500932 311012929 105496207 70123577 229162961 806459325 346742201 764283030 37621124 456474963 906514704 587851288 700474199 342741515 263754184 459252709 5815652 248437720 526867529 641021910 751429338 750951141 419352089 601662050 389725910 249639533 696094173 936922000 167399977 20863721 997679206 876299629 179334171 465182960 262573607 708171415 171176855 927503521 939082314 855577180 595315989 309391919 546558131 684147643 825800366 973768718 257616178 891210369 639687531 452404263 238532229 242322636 517330571 716059451 316635080 235893349 41945580 442250268 934423983 602009029 91961870 333280550 602146192 986508753 955471173 685946618 534666389 199631771 492201413 303415318 620865228 590747799 479023601 85828372 772057938 977598692 98566278 42083507 629830821 110639018 715312417 485226440 699900235 904606600 101778512 763609395 711191935 489045497 67890559 709327997 429726993 760532714 125759477 968543041 894242999 43386569 499321420 882783235 789648388 339322601 321383096 948225921 485971795 398736000 600530355 483150051 528950099 656825154 560038564 8854085 503104846 397339960 51471906 9091407 126894027 584999994 597431284 356131682 978836150 399249951 546662587 702975979 46858297 528983566 309264541 363275202 735011819 975321011 356389164 163324132 217433158 798367731 585873331 698914695 812441840 210556988 746774174 660857303 618590786 165623580 33241258 122014926 96470396 711237623 820506627 812373677 706569227 984628126 48759607 757882599 490470169 126274675 951185302 440144372 81086563 589431080 565604677 992225292 638963741 254894954 526060060 401800299 426437426 586586262 634507396 457149568 548468630 267492844 557618073 435128142 908337518 418196454 889047173 475778357 867295262 615233773 878945833 430522436 981840915 562739153 98372266 645300346 407754670 577005306 928448766 386137361 864910473 589259448 171325970 642219162 880762003 120524892 842635810 832710905 230456880 600200490 337925352 710513101 691426612 984714930 632376527 695183820 387583297 325447437 179901537 9732421 192560982 567934855 109358398 100572829 74745611 317079108 230189657 845053649 68201729 752330432 725260636 315854522 219006620 604741820 773467198 962287095 958604309 3761571 93708641 987721055 427250813 158855945 71500768 616518936 935072931 244366913 883332670 358552415 231314006 472300257 67028919 975497605 883021634 485687683 55136407 833486894 21804915 624957289 913385038 818522694 722630491 835426512 762104666 83418935 203454678 906370104 165508709 629966920 338801595 516872937 113998081 995939318 358294633 806896795 181999904 124437794 714991758 282882693 588543998 630210335 536351952 72519800 813643065 958932381 660027512 290432843 103940602 974136576 494810592 522103711 638569323 600485633 355044660 123009941 231238016 224920342 701058661 241594857 285518404 244607448 517832811 305710650 9380307 557267933 656268566 987274784 758040319 223869630 235311418 939599819 362578524 783134533 942041993 488016135 83353017 756329391 762193199 237308579 126481943 450031638 253173513 641865355 833126057 694212273 942534994 78838626 187097048 370409017 865276914 217337846 827992133 342013889 245174602 985830780 961109 752257108 143584506 638842983 671540776 420711837 264667397 9621385 104339903 559544642 841069967 362702087 835412906 782227189 915163455 961763850 630949788 78079085 12108123 989823527 417346410 763137836 33250796 206024012 977208506 903128385 747436838 577167987 23153665 797576241 195269099 889523858 224878615 250752081 981285525 705727738 202717495 959082371 392983356 805455458 60175540 727321573 352897232 342461595 583368492 838170375 299184106 392191179 577387025 60576803 794710959 141945825 269856014 974227708 131177982 124698568 747577383 529694269 553616382 804696728 865845948 954009158 398561743 32747947 678262985 786117260 130062250 390307965 602939323 674751079 996660825 994712620 142194988 956270758 425207777 270066791 465236542 610931125 97235517 535031930 97390008 866928204 60219345 951821289 415081941 321684343 405567213 44611768 188661368 838564642 984494279 375546630 786355171 582241172 590822325 727211029 500919647 637973976 232679889 389666240 873617833 141956346 161124000 946685615 22430279 949910678 434341044 928486430 642946068 351317446 191921504 883515177 133250476 135369987 488534007 934720414 952594536 908682632 465010935 348959964 374576965 438314153 986338986 838653148 541708848 892103423 633257167 573012935 807174876 5022352 846680652 440027892 565469312 963517160 241355768 984044484 507108274 339060760 144345201 39388571 561551573 735569663 893969266 63507070 395976630 470459072 803793645 505004641 103801553 615637919 87664242 157052727 343690318 236303130 92768433 175309796 967830051 193003831 53897251 102451670 688534749 947268750 638020155 772158315 225315461 539633742 514527890 341879897 784572738 510456277 817734092 869251909 724236255 525936979 906093161 113682662 392701599 564334640 645753001 637113979 834341476 918023316 447324593 357400124 87308504 133062366 155681216 659401819 308030802 254735902 727005426 960391183 522062695 794116038 904185040 833362928 25429278 92748554 98051156 864509258 324531051 879202387 415363826 133736379 647632614 735912689 523845565 24753728 269028477 97093995 987754159 886512820 951847746 153815285 889604151 196059211 874691498 148939355 10436907 121886052 489627826 995007703 781101144 648377938 76480127 411412146 844690529 586258703 447088997 4841691 423427055 362943783 416088970 546462291 317262644 639283500 353110781 499617202 715886820 604638413 170849021 609238321 729579097 388045391 437868421 870262078 100824816 643781312 557905107 503509143 362389769 248953323 828087662 879716562 688212400 589930940 755668585 487188559 272698910 447370661 493555457 322992085 424092392 446745059 868350546 226571058 892476909 444204900 895271346 251979102 491556024 655728607 677570488 516174455 420546105 614853152 46310842 322229500 591927993 912710323 146859321 104220643 223163244 22877769 989120058 246979867 734389812 142342838 856080737 447934191 777762972 535968441 334629579 105995346 477489429 263707940 280032819 287358719 671097590 653677616 620241684 212624606 423476543 274514533 309183702 510010409 141236706 524953913 148833428 387283947 501574994 290176678 471584129 953245144 763677328 408798147 509108883 196219715 765173124 672998927 32745178 361116329 897527438 530124207 70337425 586526852 902062937 130538674 451960801 725477523 340119152 20506597 181434155 690589501 733446250 391875710 33169276 824294504 884168743 612485154 171774817 66122726 713548422 296141588 985837248 823565609 523409028 889550458 544758314 2620826 433388555 616572827 649378382 26969944 399147951 194425618 867033448 944663760 325415848 602002843 746450776 203961182 447696228 157812146 618953189 564400153 11195854 940476392 3391842 563596848 935907823 819131738 456515145 323092289 699505121 823266791 326623368 801583255 330988954 46495632 519228590 178660576 929199993 504227925 929084471 495770306 752641766 298414441 112918560 451164145 622647381 904519238 996486720 944112658 373095837 109278204 893514955 819422560 657093579 827901319 287236352 210083910 701063000 618589970 60806486 288785116 120712798 82927977 73710905 485058483 346480589 715311553 638243174 474988005 811256025 33335520 113908486 935884222 351501266 288273832 560111798 118179331 769782920 620098238 869546738 412835084 366725698 48810466 717490606 310712568 24048974 351575855 809748674 308338695 671060729 9232186 792566618 161444810 769345579 89972093 472643071 227562369 976628308 646425473 414248308 318990127 898431924 509503896 830014035 276670534 434983293 300547493 745307576 571470711 790165128 61168228 982506909 684638483 338589795 284083353 907509844 514693822 792496002 176803795 480144368 357628563 493973820 356198174 929217708 725462285 448438587 199005834 601385946 505979819 665952720 4176752 460522393 227243796 397090787 646986 963609304 605586435 232236090 189697695 542005504 305805422 969661026 817020792 574197032 127049576 494950248 862558582 246983947 967412388 150381007 844487039 855001649 177422458 50347746 368580987 65043017 937046260 47826394 419764026 268794551 256450190 122968225 640101720 327819664 512083226 877375236 509858570 236768549 635303650 132648899 913080576 4252797 479877774 783895266 465660726 418481463 379711720 957308310 228346314 397613520 185837662 317126621 869134581 585851738 778682192 216921640 163971274 609671317 562201185 64234047 178221923 606360405 713190368 152489014 976521996 528151265 14077673 396796680 708962293 149344256 144980318 20768747 270119776 926984773 466308687 650808452 563813514 386517056 539609524 664157136 510346635 458823028 358462496 436338606 745019321 46366995 910861578 186030813 312106172 954428190 366974791 13353894 317887698 69898115 867795353 669193472 485788053 115611358 204829558 279200338 92858917 249853967 224005943 378179339 688379920 938998698 533052931 426775954 896009275 567424673 782022891 807543409 412619452 638540575 768945702 976650847 630828721 916021858 435041740 645950469 480026353 246447462 405611634 618208806 993525220 150386795 544383289 784150081 981693158 684470117 643783624 239676893 768951147 522437408 638213990 363247496 879316699 947538216 141940431 493105974 228004377 686019740 653082583 51516893 358196720 789767863 707071652 164979263 506720986 382016005 441168069 439429971 679063646 949918240 799159304 909151214 770501778 603045713 825961245 367437217 587119217 619715888 780421247 348004339 948109526 410415147 137696645 132087325 368252280 491550611 861260043 925376379 746877412 638588919 400778 280920397 998083794 701359091 889471491 450788784 775655140 773844344 368935926 731147776 9322807 512236830 424760538 506679533 570335249 745942226 58151933 277207820 404931169 835973973 950537330 763899083 453728958 813967684 63604872 424728055 185541189 452878353 105729335 384333814 185906920 494137725 855347132 641875629 988843960 988005196 991507903 900126696 646199197 309043268 248916213 953656276 40447278 909450314 280830342 252051113 734281445 956413864 229953643 168989122 892086440 149618005 490756006 253079530 979738904 513128966 722117927 656308481 551002398 265423215 205721647 359240687 464079194 759813201 646439796 694951722 171157846 479285585 589363428 607175986 271434482 915863018 821988148 806225833 157449009 799416027 60897633 689306411 305939879 629736925 881668171 448275362 650778472 941492055 601380140 577493092 822664206 971973416 536844461 207333539 62749908 980881683 541121928 658989102 51732729 128231954 475427739 307598597 414388663 469239266 71433476 552025746 345645017 370590201 562665470 5871756 659762099 848687518 153159835 7334346 902673727 806334973 711849989 527782835 615257484 291388068 111552594 816636189 840541250 89797300 50931421 755111816 40624806 846502637 59914918 841416221 195554188 776532927 990066606 251007485 712260557 74214241 111746383 433226817 764586465 105816008 259862627 101098556 824806356 680701911 66199844 188594712 961273444 122511827 6495401 118390389 147963494 331711249 962780640 239218660 55588900 186316417 37283853 737029791 946123715 238454185 151575198 274589180 33569903 910987988 551163047 140029119 324725027 933285093 154993843 992407540 580959787 427516768 49446458 357423137 270503050 920656421 91255352 376882150 237224380 641165289 110561435 598088702 527241123 339265825 445291171 534144839 213962218 622664482 19379969 587190251 954826937 563287951 506804953 692301715 232408327 359329387 1245387 621928575 708743650 705812373 118061579 646862050 297215543 312277565 35353829 623707132 35696476 560523626 386719659 58856051 505328259 57702816 736741493 938929327 582155991 507450142 79749551 689342629 601270793 26323941 929245666 654387280 328698254 825665558 427700334 893742886 413138503 738722571 277144887 786697610 577184245 757972739 265348625 644323344 310331783 272612672 350232610 645003512 996230442 661177920 268371886 514530697 13121786 424426398 609055539 642828536 751016671 680971264 442757457 776863995 78446093 747898705 62530763 712715571 354291970 462978329 555870979 891787250 433430653 343557889 94159289 736542955 130943201 538052459 77175490 671920820 634639029 617655424 119300970 989060767 309983296 212125550 329521101 140641317 244892698 688498574 752501823 702967605 778274187 154493158 649350804 95628287 214041860 226421800 762255748 452878333 727469138 957266362 538031623 889051313 109391158 584462174 454701675 521119106 863748861 102473815 597434918 541957127 321899007 738227864 90952521 150225205 748912888 116405285 967533148 792945241 954830930 579692400 379004344 844616035 428654265 479495794 416346453 689590531 274815206 799081183 748358494 979149605 732909566 153690307 221667792 200446413 283515385 347237240 331422478 251894521 715095667 278552734 656622107 26679500 638533779 558313750 137998069 154680452 385097943 317808247 36858969 695661592 3336249 470073482 737517511 745442443 508682461 194830540 729748647 78199689 458524004 307663317 77998024 224970555 512312942 462873775 358516855 691894552 612520194 404846191 45936059 369158398 174414704 382832883 353569138 952696320 399831428 376735087 797800179 776914427 152414263 422190875 624765522 682854647 942773047 386988605 338440239 799677973 727429648 649919142 609042522 787677009 955976251 960744137 659726341 191690722 69046882 724305227 653758147 880539808 16258038 649942358 579202226 841944748 98626070 972508524 481303509 286438254 558786735 818546042 720143507 712162467 429505412 713852009 602094251 909935564 41703610 306129759 580597728 592638499 76135264 108721326 625793108 334903339 692954342 852586493 330248443 269602273 398083566 644636939 718939263 735458384 159042197 185198219 277494067 260783047 322717562 521305151 370157921 527328265 773013981 561649030 879497783 555266129 292786512 395288509 493786836 357054229 961354672 86599104 965131622 179723156 440191646 613991195 551914737 906433472 183716922 758722891 606151832 987394526 602945526 859551061 628024727 461835390 133577604 618421386 855696509 870078271 372775580 760224373 509612622 318472492 982694200 530373088 517731273 650022969 617923513 632369186 270293427 945309218 11757255 413918961 941878076 280849513 372678502 457644720 99701623 451942536 622419446 623031607 748807355 687485940 764508165 505324215 868986340 504535668 865814834 684422774 903725095 280956389 978899453 350592982 902593311 465060753 118650797 96767490 126262811 411465126 551966277 322642298 42564079 190936857 984739846 523297126 686857403 734287211 78830347 858103589 938154502 67871715 499158481 874239518 982236328 432739644 789973640 928272004 214211377 458361731 840245805 176667121 426981357 729736561 425214785 699583585 962247136 706955496 576471902 682862414 207749295 984813716 270317858 802687357 520721895 647667111 487107972 847744 189723151 720088914 575784121 137753614 664009081 728045468 901301033 18177315 456479719 647087594 160494707 215146922 137598315 384247231 269074116 251404731 861067849 461026569 797712580 136602851 187658777 811796744 252011078 446923626 645632072 569553314 811345781 403928921 967257803 99686998 903225578 901590165 79314248 256812248 365609900 348572974 666862400 957676113 143071241 61804791 703997772 580494321 740207548 30666301 296860745 259965546 416503136 185315388 124591826 461059601 300758546 330627521 267874153 24661341 862988115 98201423 674947261 85577928 230596139 363416439 505439587 651994133 316693766 496448578 701438074 414444965 333835518 263934018 113487338 688284430 48586969 125092536 193364278 480940824 668792000 224681477 101852567 63816544 939573904 611709785 341241560 997660670 459384744 838797534 810405596 715345997 420012726 702751394 183071741 747541137 455440017 169247828 332440486 264850481 23764779 12535449 667907283 28571403 867498442 450184192 83249424 935867989 284295789 796290999 174854545 830067789 234603560 486464810 565273293 730255015 45483074 678480602 799370541 266232788 204953935 540552969 441221500 154681432 344354577 227060498 337603015 346668395 392266162 361415063 469287945 760890956 205257117 653273427 789604204 19761069 548500231 699375549 768061739 301784529 504420458 223232781 295993406 645713464 919212210 456618598 200011641 66844041 824387646 151277180 155504119 322249757 876085360 795386919 443053073 857065452 918642257 451465414 29929036 678062839 191195724 432319905 617270293 260130944 491088744 921291071 217322675 579900080 859247257 782077287 578986177 966641510 87823861 946700297 311253926 353587140 199713492 77026495 496569679 779306129 736122694 970833339 259362041 227614268 707505329 999349497 510992165 684385266 843627871 606381303 837397158 183244491 934695168 652327651 440175076 837395804 113757932 778739944 553361804 917417093 169464784 7265135 296315840 371294565 723784749 879913596 348848964 503353772 845370761 623578244 545461023 248765383 47462613 69169153 10864160 669818278 639905612 616188652 972927504 864761613 926689503 403926787 87841049 358705968 508118662 212652885 414364834 248543779 253071275 569102755 140245844 264380258 703296986 302602143 970561241 508842392 874112092 245427319 779653501 692857746 822584060 391072388 954114183 906319873 535893363 931938760 812064761 853186716 839149445 489827914 957782987 922510621 192423009 170888257 422172904 378751346 647026487 687242979 17638041 48745658 608049118 881530268 379926023 388660206 716721386 721202118 141180273 197082642 383166528 319999151 659227880 499226549 352878842 965477426 390866231 675267741 957997203 428438347 432824969 106619675 310163643 594660213 748157883 456032913 298786322 116481968 927644018 287007469 435448417 60880174 759140784 406118168 143595268 102158361 616650813 184598414 187672836 468112010 177531468 535930028 738398359 676602896 150261803 652877936 396097734 979231789 92986367 845770650 529325809 858023535 195159412 711475063 109364855 94033433 719857832 775797540 465762438 23620459 248873283 943591265 925515475 118598400 629690649 58990072 375835318 712423887 531774305 371611656 693475483 867276088 80342891 606581814 119049116 700138344 371018108 956433927 953583641 202789661 636034060 434627050 857313176 299251887 876798296 663971282 863923997 348275729 963704224 447075626 853273860 434352823 849568325 335729545 558395339 350824806 535818684 96746708 552183936 596032898 197928943 500942647 374869483 298420989 868656696 397777580 26025733 860092027 151954757 301917977 991380891 283229997 592435202 80232900 651280754 846440730 52936383 994404461 824590129 850925745 780209203 766440318 589284787 150777967 509050428 771683862 547404551 568338545 814945640 502374679 125140569 478519252 54065892 936631642 831617176 586878965 548707874 962090649 553046547 759335323 798035284 525832300 738402003 525905753 635025542 125340211 785701030 503738053 421220302 832904851 813457606 409043302 256406459 83971750 574470886 683170880 328911965 359216560 25182063 246289209 586718191 427969404 328458132 897973280 742216976 373405010 743420616 247579433 4741270 713192309 229133792 755109956 946957271 299618980 815998037 79823300 1867167 176855671 791078073 175691249 133753007 442817101 316361157 977083402 29641403 203722332 430128315 869746918 373034177 869827756 669203188 341081707 329742160 522144684 904083566 547588436 620686033 970250470 740780324 806476894 352744710 882414505 343965617 24007044 604372544 190849093 544772327 221337984 590519720 565459559 957342880 816309788 149679417 260263498 516337504 30665274 633321273 957158667 722052616 509700983 690977349 909508282 143924081 278974792 979987438 496213833 148797297 649709166 439025266 232933852 305640641 486199861 417969543 704903946 596558375 286214009 930073567 583987817 384653960 935715818 42563728 382716857 630419119 288384627 643122769 41684404 820506214 278263060 416684517 590810635 951412468 822873922 633799179 613445605 100346548 242775465 349603322 381771461 507743801 512087936 730908487 755891488 642635294 975659690 347239282 894433593 27485462 680877916 663416572 750025471 884018927 614346358 678048456 244922762 938477710 677922706 11716784 937639626 791750271 733737100 250945819 379100993 694920786 383595966 320096751 629225130 881599646 424464715 65290184 879283553 169986819 43064028 667943135 175290045 101024028 630792505 105159118 300772608 781654176 888088937 590658716 416436186 276793786 596794514 187739719 942172724 233539944 934704531 732768943 834171333 426112047 727291144 581044116 44121390 550818578 844268811 39422593 543970325 322011672 752678252 186881863 940847576 77151004 578009590 751551619 1708141 233748711 373204292 934010661 97190081 986120930 979248964 761040863 810387893 229761254 477638972 292283965 919992981 79995998 935315239 239441379 188330712 294160325 115807586 98246759 244052906 42264677 766182335 623425513 800816055 95637574 436552064 945388752 746021911 752734214 965510790 445577480 361446537 537967229 86477554 904188970 62268794 444542881 869288357 806552232 652860562 699319400 923076133 685727189 267859479 848076689 56575300 600227601 762621510 648536882 528103293 883195405 273608327 30457447 845387384 768602992 703387263 764533439 125434668 254154798 127411541 971908645 506850472 720932785 270129494 574744538 83128106 419497366 693637548 718434163 955586350 866139964 404997508 564556009 22265546 256782969 261484388 833035854 224305139 928650243 23576965 997844399 521273712 898919082 403754361 545881169 864410077 649650264 861212572 388729712 685933796 830811510 958815352 974020963 100392849 119464204 149038904 937820385 119864520 789948576 172104885 233381974 90248970 900475852 224022549 893195448 174471675 360781903 978157439 217472397 440811125 587218636 777207337 506426549 978571054 149638166 1243140 996867232 53482860 199294329 572744867 69628338 704983459 608533376 732238668 854776914 634665291 616465422 144293716 28439796 915107576 983225349 476060125 394868391 731269907 112114148 654882495 361431455 410579055 628901628 915578312 644968 860430116 322862814 458880938 75334272 699395987 928392288 949676861 521600365 949188604 616648351 993143369 318016064 694327292 587648694 794997988 778844091 159493180 493482540 534530990 671743257 782268163 69660817 606434340 319241599 204827322 946409075 389544237 849772981 169009661 438789830 305558711 368694066 76831978 702424393 467081632 683175022 690035825 37532635 83177252 170818420 299986813 254368375 665861308 324703791 493354779 380130530 350909548 266968053 519517553 439957654 899028794 428821553 71903325 494129936 859993199 857885203 287307762 369403945 963700554 755663881 485356205 171790490 416458789 727089927 694007688 491441795 120585894 789783000 401148123 640020845 718896282 766850871 969489977 357438542 109158501 763264063 957439640 993979857 620575937 490150207 739327186 702499831 509525793 78269516 859031583 826987684 597957784 379929770 264845869 630949957 636122713 251703888 936364540 808201139 719600643 191722187 36006514 982582481 215763716 450736966 357585209 232568011 191405651 924760340 815636064 187971720 760251813 844826203 326986148 156370012 328477006 309896047 590026376 468125600 552258635 20606007 772756547 649391846 626721191 849599808 153019902 14843103 613986087 322473577 153519611 615895535 588371256 132097407 169228223 862326235 780632694 145314771 158597763 848339441 874784388 634568376 903459508 497073251 904702919 634177234 791587737 241625094 670821053 235260660 253305919 355729616 936789181 798999712 143165577 410898637 86526130 185086362 120840649 570885041 891355212 871318609 656095691 337336791 9756070 787559982 835311648 317873166 855382309 345022047 256418937 542980385 210433940 148019548 59160941 126723493 654147501 447203885 845151546 472788429 862845884 931274509 342581924 438334317 424798246 183704843 353244691 222062332 899362118 6484800 714076260 539519200 545870664 188289971 970509947 640472380 630584922 901166665 51187336 113911210 200476414 89460859 464213849 255705975 667799219 156599029 839346110 725285745 457837275 562966240 771710473 252570091 589607265 984949018 145682580 676589113 866485612 971890478 30202683 181013597 767670528 976037218 105715422 895982076 713623701 878759011 819082267 413350089 239186978 473910634 640912818 521979980 622418583 940831438 878765001 76483175 579192465 500169770 510241612 546048031 19231443 351284280 447559876 890977412 340330600 838670657 864918606 515436625 815979799 285930365 175849549 938643342 869199735 671312414 797527891 726058393 958509016 102890162 55379490 446371649 245203890 337653536 577012280 199908963 291447718 215288387 453819694 15704463 53294164 609981621 297384682 472324135 390903285 343910642 717541937 305787091 692702428 617913890 945220191 2119814 866420030 670548539 523997831 603720267 480272668 133903089 599960171 707448368 977758232 645483499 875081695 617710571 837763701 663390550 475657031 323538561 194980521 84874911 469876006 977547629 888179088 739960594 564398211 601157911 402430853 580885601 146878486 151965842 743477577 456587996 445267645 114600202 844508043 30765381 917909887 579626222 745718394 699098578 304314908 833100352 21269356 293171542 131950273 40557787 739317284 223262864 140052579 677719758 951423157 779843225 282144870 939865885 174201592 221455608 306331964 525322037 350541967 737793661 275765345 25745572 668837354 290804023 524768552 443995728 892787206 250698217 365719355 739204138 64236155 605823958 364631255 876974170 35259326 382742946 329806603 702066969 91327378 38630898 856228680 162706142 763376323 136196263 760774367 258564643 854169239 29283183 193187088 163400232 58134072 52071850 185169063 706593228 26982274 969177346 45212403 123512926 265431575 826928807 808115742 541320107 749117740 761244487 615622580 229425089 71079159 87025980 343698138 383363424 901935444 335540405 348995170 429863479 97553367 548869993 167776072 334563123 903396255 183443267 837960971 334810782 836846696 758990509 971822813 643681456 956543749 853967781 196343777 596705191 954090359 4491580 742098599 577077032 191894726 816509268 150495433 313097739 244764718 145483017 849226472 475807534 878187764 246571954 92861413 444194960 88858800 241412451 562511403 4290224 834484856 174367952 249874960 974382311 633143466 930541514 734044447 583019330 277210739 628213477 355135600 559934086 229859923 442714443 874290579 52329855 703255603 103215382 609202866 698373607 840721228 211497149 308069399 796693046 154999458 946454691 340119839 204352063 719551766 8260432 229262449 327323561 285038344 450667726 856574608 815677565 643044270 794874242 46933674 921156422 701719708 289259305 140912264 492377648 378333081 474307079 766541164 991338452 283992857 298550136 979432574 420987582 505349674 942430 268878846 719565878 651247211 661542432 86248676 537648957 961875490 85446681 310130946 577478658 418680835 717511044 114685480 370288292 698117532 71702821 151857191 113785551 835120604 67195927 413253759 649415316 959855083 532518273 34897819 44639260 146201574 709182411 368738888 279977300 970039995 9547381 809099298 282427243 744237633 878023842 842598325 373213330 183532794 529693658 140967980 373088944 656777281 501028029 376118753 379515884 634483513 9615901 351231647 200165228 3474983 844417549 369435063 852896251 585824306 456499059 801456331 862179316 19784016 581417406 289914563 265115734 228711984 669954271 80329820 557254770 414605189 47573987 354184678 73168515 379142712 321621886 964483568 164418680 826563435 407851368 798422575 752546466 413165014 30740771 581659698 958239796 925600316 943761003 699473636 520469281 398228581 194626622 239786232 608267158 657197369 751761916 133653652 158471451 959157281 403785574 145726397 364546141 94454321 387647006 211203269 858575042 523806818 196236607 114497848 351181971 32215841 974554322 204208946 889263798 854500784 521004980 455664113 973797262 925702992 841059630 816984454 21685189 458160922 300812445 91185369 172522687 349633416 722983582 340550938 909924265 944143388 479279814 534612367 453748815 637162759 211914197 532509101 231872911 50537298 680202170 538525182 390408136 347083700 587586856 849036819 224588369 893434118 245093880 305070396 680325403 353414691 897478453 399260161 459081782 399216880 489894272 737609109 745395299 985488095 326924457 697239912 523371222 451362367 543274575 764187561 779647832 576585383 759645246 674113483 12694479 662855110 991599328 150942117 524522512 70536273 499939854 296555763 228415137 2755375 250650691 778744701 979219919 365610604 310676444 117936114 875726283 997216393 499613925 586580538 93109165 36162716 29828571 947968180 58162326 992431405 494832486 608785495 411515428 852892875 381613690 85529478 322065069 163678358 476194428 775651396 238856944 933626396 51837412 762957703 206418785 811923636 357155882 472798692 767004497 955884668 517521673 206794808 854934599 10639025 343021547 340702160 974955024 523143964 267709728 77173424 998272244 128279563 251664761 449262539 520662019 570518649 705904265 286544051 485638643 757952397 285280943 919268564 400744848 905668528 170131780 932456555 759529841 691032737 12002186 594497698 469808084 589449831 738305986 163118860 575190205 774573880 22719747 487550547 500015462 157957351 946506899 785464582 962979991 264281571 351540265 44497128 955132064 56573042 301369185 277487440 104643842 728878474 115529568 177714816 324361796 633344765 496471478 559478824 307183503 263885178 488435775 849553350 276498492 886297859 730096780 32434192 606890961 46625333 150765456 382424908 984328585 740678377 343105160 444367703 973115081 301892225 492222842 868372019 96098289 648890198 273211710 487859410 478999341 371503614 932176784 154912529 687297994 268889607 379826278 849983735 420040223 44394555 307542306 984738860 378257331 872566983 779553263 653917707 324903075 18630973 462292232 758123459 587449970 88579706 165073955 851537846 748426404 40597794 887401367 126196255 683186569 294533661 490169234 340200149 815698686 992873473 598959203 758276755 256950980 96748085 994911614 914147 357266810 58753704 152908114 452361611 359846174 160562895 834835826 601874152 805820782 495410833 563585231 312811332 708519445 484011314 129509080 481714606 521751980 257854471 349314896 110115505 16551527 768730001 558381082 987984522 105026389 61866211 43874781 471927881 848171816 128790379 174920326 173136094 177231319 518007545 347264840 178762320 425205811 875876771 2155519 50799751 829116692 999684328 727185835 698359014 45429823 641181370 388830672 11069134 260910149 850332180 691767284 484564440 308349224 767082 993011539 82049025 37908506 694167795 868899860 277095993 647584138 760851567 346008208 557182488 583178771 731526474 590914791 979195828 25113025 825763891 15927989 317610757 47134995 34963041 477414575 283104092 46713588 919774559 165651529 946380880 452591695 951552689 501338497 221522498 362664688 860389778 530470499 564802719 191562938 113807237 570546665 991881399 128050059 59567994 10083085 953566451 231538950 747839825 79293289 615639579 620059734 640592405 862976197 85101126 735860922 220164542 83594260 227933776 662562615 163709853 60876630 696369045 508696684 734784796 347740387 1185210 804349869 397318201 146183345 409796057 645267666 360278063 836435548 344621701 968771107 466365187 490032548 309946438 976890489 505849750 780768379 514745524 969256193 182121269 116703769 816025591 641050256 541014210 692024173 749731037 647482245 495046803 973454980 43729237 953408866 859980329 99276723 853403073 525844771 461608017 53564415 431141261 878319849 521951903 785203931 910044869 889221534 629424234 251679789 827270427 219238391 324425136 687489458 994612984 395545559 476625183 924502433 502882911 283851015 607196497 42147265 302992697 717611485 6748068 354232587 24313267 748493183 189920889 237618947 943169374 972167392 667281505 71179470 429811573 864670706 110223485 814040087 799445938 519571164 381392975 25564824 36461988 361801513 434921310 320156946 78977529 637453586 627502732 392793293 281554122 357453061 63360481 287540802 350972016 909347410 280533819 605873728 701072179 266178434 491493295 723892582 594446355 83923816 47914569 539087590 143203241 419387704 600830587 409780322 349104783 38575076 958090318 685509434 516456526 918358980 523196896 411436263 700514012 922008714 139176493 724412341 74339510 889236578 647193094 468223450 945191769 673492765 554175549 585020647 231087961 105437615 937171250 947774437 285880930 207257805 141514406 18210313 603213618 495319349 955888105 251176440 845214823 252590575 310657972 94932458 292269824 66338026 452256982 205739839 109293083 20639684 31671343 211180522 518336327 808254629 490588369 219655713 241810421 168756430 174602980 248515627 338800118 990779135 880078061 537005466 947716413 413354042 786078230 629981785 119222888 548082473 101036941 690211322 398861128 675522025 738678080 788473573 833148123 781102405 934451157 602735311 6361227 759848088 351944731 275795116 869573923 485544724 209370844 640244446 469908957 827869091 429287212 695541750 739438260 554728855 263704816 936626371 160838141 274475685 45093316 769105882 596013429 522222112 641558263 404628606 294987656 477250630 587892593 698413580 127051263 399406553 128680040 596271679 228882308 611129951 272669062 984352499 939297818 952357195 187129663 420276787 365859395 667244120 943590792 774695618 300237342 953696888 903886596 845713989 836467767 43228011 291702237 694371365 444899662 863558815 979136341 615895271 371570524 154599239 707175875 453207148 396524505 775807041 791143515 476739593 21450471 992572673 339267091 221245651 476231789 496073001 901272649 327810808 982642777 137156454 599330319 713259163 48023176 836381295 539981047 266440564 872589186 221565797 518366763 235038621 529089826 390511920 909853962 783755480 370140919 289920374 721439507 719711647 87969131 699969334 166478370 339468866 27727710 39023467 400624111 632245723 297323762 624969621 176924662 86177171 53118391 303052516 227542184 670716962 229175770 547293649 843887991 618149388 148063622 152640992 105032520 668687535 742427370 231402799 760385804 597333236 228050702 608479937 280154494 758361796 123402777 250938052 644687250 806045065 845653909 880955828 623021773 424506997 343153004 104340977 758525871 315598469 202556725 966381493 479706259 335663141 280038750 68271977 77844714 873727175 535606179 259690112 377647342 625545913 93620562 494044868 853593413 58416387 642851759 431624326 386322801 828646926 407796200 844410322 45238438 283327757 800102901 365904103 263732730 842341074 338134672 949685398 709922452 385289245 158029032 73954192 328039369 29896529 547389766 913619666 386267033 486021897 439252325 803482417 808108205 490724066 825886613 958248258 862450716 624811525 289310205 59914434 396786435 939627831 302703140 74246275 876257315 314411463 799047328 583656465 85958376 838427878 544963208 940091601 907391927 593786521 546860879 682933110 344147456 867388834 871282929 106615432 739897945 342797651 338468237 815589854 378188591 257443509 141275233 935387743 617060210 204030966 404437710 240690747 625867263 335071678 498249742 581902127 49488219 983878812 386393127 631693206 763188016 539681318 890187113 149584545 603689718 490869491 695537618 898257343 825517670 661075 845145616 404675049 321756306 293249195 785808729 54058518 239894496 713920574 364835107 58450318 764335565 335240414 226272725 168350488 12895117 338861561 778578611 170117869 493010773 740818499 988005909 300193044 866303608 294584653 518543316 724939390 42454420 940010946 955722735 757294628 884656774 778883593 693288652 534842718 562069878 963693010 925053708 817997775 792756741 634317848 141310950 877368190 46519892 80870866 162316389 48547296 719438509 388904833 245193114 891826559 129832050 955604311 793489893 333376981 911342380 584290862 933078646 598883583 749601496 205310266 961363832 867879145 79708437 53031840 893687971 260828937 606000198 766661234 793649040 755206051 592132114 428682726 548174811 468151532 481880915 24880359 166207165 183610877 898131411 421217577 459634167 937761744 276725039 621263950 1450304 363568032 417029713 901118588 260627473 13250202 776783320 841471237 927966653 453121423 713659363 98139809 543866480 815518396 662979523 527239445 586500839 535628233 254320869 77362003 49452718 878864161 609938430 523315527 473249660 876468184 604141808 740291847 733097944 75027965 2599662 758982077 619703757 219184 505340866 411919838 655561969 140816349 127753127 52872654 528027424 358981759 9062754 419444980 350310775 389781000 475216456 294579441 251958168 975247774 544858373 124435384 879439825 92467222 814538922 859581302 422266045 19032062 96184769 354430968 24930814 251803158 572271336 196810800 781824194 440193714 761264097 385884613 763950416 121183885 724626665 84503622 962928119 176154117 10984694 323886699 943160019 763855357 258539484 806047669 713916950 594833343 865118792 369099871 411965196 474624145 19860795 968655402 162793112 638499684 322046650 595761324 221028204 419206285 585215845 926897740 741701294 412916990 806259563 959884558 330278663 509517018 577948343 976152076 137649864 685928308 375884917 963663168 70052291 251480224 597438570 173514079 590694547 302060008 448701633 416577685 936558106 870083276 753650660 319236037 908854257 338864982 822326932 745066841 79876474 987359345 711890571 705500147 454940214 105527460 987867714 666711185 275036517 895170603 69981984 17294007 739991004 556934876 486247965 787070360 862854794 683614153 368709048 450708924 899185910 215811687 695018221 883481485 598062318 243249944 323326905 2104584 946216088 870453442 281008798 140980223 570820387 119886931 537373815 823369276 193693051 639034856 111255266 654369730 405849258 535206759 462181717 53023743 1557321 201891418 143026900 757234918 129156280 270595735 55803224 545439428 587497590 998243192 397821565 399764409 996773325 638943027 476518437 384860205 317426612 814257548 71767114 935638529 556700876 906032571 206045070 290896545 139254640 860799137 37355709 934022157 608210723 392638983 771918569 850445388 44381020 3552227 358795429 806263838 699465572 143093067 875862723 510850531 828035309 989551992 878784805 768969305 917891258 357180930 724056317 575941081 100736152 776317229 477617179 284294967 775570361 367565134 12027042 496598015 312441103 721330024 444869530 706039361 572832530 925472034 998501488 25742438 929250940 609502384 412215101 421053773 291180629 276282448 840793523 832787341 110459432 376593072 232166445 833674022 497596144 840271577 56901385 831817302 841055555 912699629 545103858 954939297 124965747 935338828 609502003 653212213 427112570 455765045 898705024 177900525 219035610 941838603 472434366 243468362 863650581 853044006 884628330 463328841 849485437 55388546 426401139 166156297 96164560 21104487 804608965 723520918 662462797 209861463 886110412 697095304 68507040 402667221 707869793 32182561 878193046 962502485 47150813 609248396 408727795 45590750 951227023 722029951 480482962 201922203 903511043 97696120 983477451 733714717 138201582 929593341 148767797 824394587 294969764 468049867 432593381 732135986 172703760 699209835 628856169 849034733 869820068 621179593 457139396 717905530 789280126 708556670 228411246 819104303 982238818 296807217 450169074 444880040 346283499 781173642 324235747 268871365 945301562 157405166 477698472 326092237 477185991 333096421 211194368 828726859 889345392 91832992 127980854 294753816 461512238 795074865 633827858 41661376 847938564 780234053 209636575 906143126 560950673 447362446 854779948 722669560 834841540 73855425 586786868 556219766 135625502 552578292 919202307 418732583 880031464 19177654 836401323 459773603 294422332 287692895 986034623 757050685 214810475 31997120 857528409 731125971 401984472 624649233 359000078 66771530 239864271 447705178 255693458 655218016 338843447 538901591 627286566 387431075 625576140 448244080 597925995 409182552 366825247 873011736 296661738 266006817 447590466 275357936 931328816 752291946 279222624 265444420 850937596 258514512 538268542 994035959 800048521 787906562 689174766 251175458 62271477 379262248 110718330 885533452 940351947 690005522 363728271 230788596 194150421 299394539 814237417 720681554 660672920 890634309 778132339 952426717 17461542 935240113 369375618 579318715 125854632 177384632 346616806 110084832 38067715 927445119 473059095 445422712 642119644 157725367 49290322 5146635 152686103 704132152 677818662 825760588 425674079 405746373 653156861 144841741 930375779 483998603 443132423 651401013 213418137 701798743 894248222 782699385 305173178 501067405 677187755 912618488 997348951 287119165 249465552 475381205 426561970 475632392 651439017 274573039 375094465 54208240 100938335 496362693 894416550 674811891 231425902 359318625 336004760 644562665 872111304 891453470 889632451 148745157 430879251 591018707 943710954 737548735 724847132 111362491 163835728 963646699 263600151 693332095 755591859 347074254 217083538 472570242 471424435 511692586 163025781 966406482 47325623 406560930 844231162 911908964 326787964 616645454 704624343 416206881 665565394 810887972 725550081 928276057 372285641 996024134 626853016 700673504 471544155 514227647 151712953 501640570 426310601 11729014 375976697 629452977 39818603 925257289 249734971 492444680 533800118 973301702 763428035 192278 310168109 239081648 437811152 595988123 892533393 816525581 948915137 261397537 35330771 299425372 493830122 719334053 392381140 107581971 922163347 267210700 127696526 342510547 218847982 185330187 898856255 19592022 173319081 190261211 343246608 957950026 487525114 935959387 401528557 64133602 36468137 951340479 350007689 182556399 6593321 910046313 509896326 107290950 666167230 938073680 818004475 595806519 527161561 34529445 438180927 511891677 269653338 720267554 960460054 243367423 839993938 155935572 277665118 310100931 723395495 861785134 931165291 985887684 183037466 75374196 322301594 828781728 363414007 611121797 658293416 469352415 816102937 296686238 113906498 433473074 326526934 771237086 5491872 625889703 534694968 908555626 450485616 549820250 423037889 621649212 210558349 463569605 202992485 168034904 442294212 376479864 71216929 582679349 700167998 839982072 860265260 93900342 557992601 154865418 276557910 627638711 532171051 113314061 403065928 877389353 536375425 406557348 425509713 621638203 974992761 227684338 380715307 103609729 688180862 4181279 209898748 211854647 637220253 997885718 386741909 885305391 11786871 9700172 715985667 903420593 552673690 717231353 228833009 588838043 500866816 299777231 55839051 969318547 55000085 570760605 699198716 361529986 788009550 992251004 233731984 927979216 711626824 759605098 65614635 30555865 194958787 980354948 848223366 124652356 615466491 123677610 170419530 433127203 121934923 333147095 745673416 102588526 539057452 356908582 608479348 19482841 542005884 75003962 542245729 989805377 451801484 984198804 828409836 68952174 832427201 81723969 909468199 258607815 775633318 134889898 106841344 782510485 118902815 428851891 522311277 838799400 123581286 510092401 367521359 146974631 836236204 650876054 311954684 444096297 395967155 3151143 671211461 155765914 74852699 313298554 933739091 88147557 484240427 500342615 555618164 16561270 118122944 78467784 454961674 316184730 341435851 777808280 383619014 495008646 560813576 301095526 411307913 622383699 357529384 338071501 846417947 76724801 839385945 591600733 649074572 882182003 710544553 876886113 566546758 825456533 637919823 86272463 628865895 96639601 465992111 286504095 173781928 896273547 730072002 476701131 656988900 332409340 486318507 802924968 274247433 31518049 853930832 870774534 972463938 670785262 469657610 771811300 990870383 616660036 665726115 930514050 241695660 232334401 181464530 856066818 96531574 373210798 476013983 838382634 68897909 521993956 779703717 227930813 7828268 910408264 571553673 282194748 97860456 403873850 256018932 958209489 657960279 346575650 673370523 558800507 308785623 471327706 451060693 659747277 401290048 741061690 359247390 807783635 914868158 861987169 706369119 768309794 319183826 107669940 44959705 828049462 132622054 173857431 356271394 937906721 17281134 75652364 99591045 455762711 843274590 913884372 86297341 563335412 967683374 231897879 295321424 784561162 556122298 504736060 843334136 428956058 822155301 285891442 62699337 128029602 535329966 742593342 708029427 413116468 432422172 26800005 546248894 218465594 489934042 159005164 833867646 977576298 380698337 588637670 599747103 727406364 254060178 541777179 817583181 337230335 85585847 16828933 714415544 857793917 593792806 412012772 391604766 634218896 25599679 122687901 385738530 255304442 602233314 22181188 312952737 433276535 161150415 724087042 566367131 34038407 563061789 870716916 307734284 524500307 577430251 617444261 2994427 147433869 667497934 381708131 759989031 671095314 905481238 835726972 780282811 333813182 375455105 395670586 207637987 458145319 450370151 158971184 387617270 681090313 841926320 212844360 256871454 728883961 77689231 984995822 899541037 808238478 826646266 247533966 739361992 845606185 261037252 288336309 826596728 445130331 123946428 810750450 600294472 757403928 269315518 122644573 154664229 137408659 396612217 191609882 99264544 693290021 226077651 216050454 642976764 512837340 814172819 36756770 911891608 830019024 605207191 843156267 288312636 30787232 672069004 699912476 656803580 508069054 450830193 675500439 509674615 780332707 901108750 900510625 835111186 133425547 135672186 958781378 273795352 406253627 425697371 293969173 539295399 975582966 818241091 322192713 633260236 612933075 523454134 47824839 638755191 450778104 801672333 14214518 674245097 699138084 93280027 582669437 795781324 601090906 352308523 68796947 45560153 608552189 141574849 444313359 285209338 217710458 718328082 593837255 243107082 685027854 459909641 778554009 253141386 902919664 244611392 859464787 64110187 500216332 420250103 237452771 659679736 300788516 992485186 945519185 468056899 2238152 371392521 457367096 474806190 54481244 198615974 240201903 277978848 194598075 994306651 662499771 787252462 662795471 520377032 189867242 195215133 23697323 902101595 291996023 313439466 363799340 74545253 747424290 939955239 157915177 432165168 859176827 245048558 696749912 968702958 970794788 584474290 795209571 59358452 542126749 983088549 3850376 844886587 783345304 937241308 401853249 882428405 977902022 884099676 490480321 1174176 133982339 282971858 468942391 221429973 731575916 23528897 892087031 623169587 283287317 39162632 996807761 141359058 594503489 92149600 339033800 784507234 206064496 814930514 227889534 714050741 885450369 815331285 340337836 27534659 103554725 13354413 679166090 362131867 143841540 97789196 942187670 997841193 641112925 188148825 889495586 28278057 466241088 363923978 906997025 585825351 19399154 728311820 593389647 550528679 67453837 504643102 595172423 57089737 281529348 605559370 882271886 497443970 94802975 866264637 989967999 93140210 509721811 588117767 948805558 872294356 262568060 791276890 504721418 719589947 536108990 581491147 403896887 344833229 178527225 211298455 261169280 628660764 113605424 951372361 25973647 890128537 767394458 537889005 4856461 975527868 660704355 227395145 689813589 297514179 630553671 96487600 122642634 53996008 500835202 811549146 167931646 146940270 35065268 872313431 818625335 318560346 463119013 806525719 827498035 115526111 949574061 31490054 100557068 240494681 879910964 924166858 385686392 162912818 51426342 379901735 889201222 891895891 327198349 707086699 109550903 101328648 267293378 976407600 563338102 650069844 587389874 645613807 522938718 789234496 248338076 641113261 158512129 77431313 207045807 551878907 827493292 36978702 235538933 520056871 573279711 932665861 541099241 925300306 666609155 248081896 193996122 111990742 548203330 355039387 815862320 422908982 468843008 621231500 442172729 179852178 943220505 942733818 379865609 310384809 204942031 350015791 361889139 251550128 72509102 792933920 687073338 239192061 932918110 182138967 67244054 472359778 391512662 143244684 373614590 157450898 110113254 194226490 16748586 693296008 977821174 447331830 381975260 349805859 687983040 131290085 64044235 623564798 372287006 398446106 31049939 102698492 712214393 888383115 614632754 30065123 364301842 91121490 56025399 897442977 586992513 726187743 514339544 829266063 722123757 969291422 607625780 395165796 928118133 796528093 109448211 630237074 994075809 464006502 836337560 657427451 107209273 452066318 242513899 840553201 176427600 666027214 907651196 466122616 716536212 428575461 878565930 657224213 835691373 429239962 330686926 287089292 150180222 536528544 162632966 583911205 196345632 30605296 95228949 929202800 157423249 259892319 415299743 814581831 818854622 442962300 309615390 967099593 993108465 723332416 974892163 176176733 835628916 595507038 654616260 649748934 625917348 120843998 38972212 543944174 679765936 743655216 666222596 110395928 248429793 2661596 137871983 413447495 969445651 550839431 819083324 794776865 225052393 601899177 658272764 948272592 95855469 816245350 110963767 843545665 143230836 867227015 590362646 304987738 251724336 17455520 555985995 145691137 875266194 171978163 589662554 654391916 125454178 630227828 76407848 177743372 686048939 171169263 955071537 618683835 924645425 747163936 838435636 949807074 166881720 311544451 557195231 183642799 175169063 534172981 333647441 794610420 750387938 433937590 116120672 807013682 926678979 551276290 64833501 768038630 457090351 429131345 898769213 77413658 24694699 458630961 904969891 969135034 23993871 365543398 711073720 504182466 337747375 138026338 776365540 504291528 616958871 448106779 517219040 590353422 649743665 942787427 419982376 825696645 365376882 42705182 982204470 462291236 477784407 827244822 439604956 6730718 689304305 842150388 74223913 34468204 687607579 950706741 529237611 451106579 441799283 280030586 568330701 878463255 909701796 641163200 700624750 905672554 125109660 463105236 167417737 523583974 340503988 959199583 202057222 666979177 681567922 493257131 640234911 547571635 354207120 112080041 636331175 611058628 191710749 931565581 243257917 287765493 216879361 290612822 921376628 931317635 716400026 232488426 534536524 559873363 895970052 22495368 618496612 864368536 920306903 184007755 2105648 60286489 777961628 206035769 670552691 877259893 660033567 672105560 449522372 509827136 387286152 977019155 833864914 84122538 142330394 349061818 101248384 184451310 658315660 831754215 352585377 442604898 366962953 594157223 446946200 972534815 455686190 764413514 563679672 7818612 333558130 553709965 773292203 674480417 248120373 649897346 924140984 605608127 105566099 173299318 273033947 37889041 586292276 888290497 839807512 210345795 609150480 233177213 291627999 327083636 721087790 87851945 933176487 981160749 942044282 58443539 271970581 120035120 878937338 294893040 945251439 864642798 718859205 460877538 938732857 87997646 160638110 543241870 648520520 369351158 636910727 860122773 707041378 778047922 801550398 270886777 169882452 214976597 473828726 271000734 778200120 828574190 890708067 200466939 245030443 85114222 326391110 274749620 28935125 447053780 711345383 727389021 945687464 106354516 2493298 635689297 470748687 304762779 509821284 572972235 663948808 486169520 680062067 246709771 578210668 908831503 404385509 694641287 127562349 625018096 779017028 37283846 806245447 430494256 20181556 468596598 615214099 183341513 926766475 690129531 430218581 896707799 666856186 712646942 341679080 285922555 598048203 267031941 167195458 583217052 292192574 483660534 619377122 603412246 297228416 70242091 680191125 603378005 478137495 993542083 43871306 863151706 718787763 667546467 918207452 988030043 187618512 733839372 451716222 607375433 957421394 926318891 913569900 279744184 99977176 286752187 365803072 829393377 226925882 863942395 310910444 392891090 381606750 527489032 743907974 641497062 123331286 534076702 323006614 194393403 532606701 355035606 918447030 418346448 322031809 113784744 741487339 482388800 357405860 496939308 308261014 967246663 197363979 310761717 548618043 727692693 218997419 414051022 724178862 913497247 262033802 919601115 784902218 202216952 593686435 595626299 806582596 316083504 23258655 18417903 554604603 778866546 307528442 315140933 175863221 252986959 463225332 881731981 495806193 252461341 775432049 968723922 608501165 174196668 89307776 380132180 332990190 739766294 370901907 158316313 903844771 241550865 326031093 554106549 314929155 494944197 514256960 655180428 21294309 48866550 708256120 334356245 965616241 410022171 648624842 654887824 484885748 894859642 149367888 22574664 940809954 131635039 331694702 63506765 124494931 950738775 139261711 726770706 692060166 447888105 591090779 890122715 363065889 446429796 755135193 599731479 623901051 690975292 111455398 22217929 546827246 474183274 11820264 917551015 623762972 745504886 826260605 442910757 991335001 76401026 989615409 657397476 505815631 566007137 511920019 792921122 919218718 921395974 565157821 463845297 272406684 352146554 523386043 846466668 784376461 47255448 706747535 979555178 436639754 206207986 176137581 260098358 323285368 106586174 502133992 891384541 904808820 668666925 802136651 943272412 136324369 994223193 928326263 716833426 570614671 995682583 686753551 702986884 90505088 896701223 531263634 677378744 566445447 193637711 42118633 473531823 907384347 864167624 671465859 706673732 974454819 264376721 831973471 942444721 480760630 569699017 209045563 869461962 66409889 823815253 197274495 853672956 274222079 446274942 108435370 808319604 929371215 196569439 361200371 384940605 6528416 935901896 905523071 418054996 186493916 152581123 720298883 364232125 717320114 320816341 39529776 483279192 350073185 511091477 11845843 988635232 874364817 794384578 742750929 974553159 875792430 324632139 914262337 54646709 840086375 469150920 783262 686747011 158519269 710127909 944909216 935394558 827023486 870626629 238435205 979761579 730476105 432050313 87034077 64843763 45332535 672814553 493402197 420051128 452592834 550474034 485325919 181212878 809297500 649916402 176009717 748618736 399884986 179982559 66738554 321879293 734474665 844888049 809141207 204982322 138004786 403750166 619828099 278877094 228112322 332532382 743409005 802924009 908549728 35957749 889007151 112724595 662242404 280375727 67694539 709430229 613815109 412997368 720706167 764012034 908302209 196138914 99262731 283944848 177597185 251114090 902637516 410046975 341003009 679368965 222315219 339500570 570275285 75374281 57402761 128638219 966151349 190001886 652362793 526911279 861753780 698024393 73659230 775989334 204726595 719822143 141749061 566178240 692739357 240327522 362878305 88480329 38105719 673492899 993181545 494496481 595560951 146808781 378185879 47740401 354842684 338379425 945993234 347399775 759604521 978312311 17185778 985405485 594795628 68351601 891744826 867072695 560370578 2443668 442697169 334119239 295043451 304617416 179821765 566874331 952748517 788396220 86301219 306369653 153864867 870714113 563320378 874450904 267728327 933347779 696937924 306052316 795886306 636056634 990239672 69303270 303603644 738828573 306617941 258011926 668577099 408894234 461335253 205292830 587877423 41673353 764489953 849367508 849386634 417811928 205091194 524666178 212594465 992231924 703029756 209638146 915222314 182632347 506215362 915614863 737339686 113312139 358587707 298511094 663478255 186033822 13271121 840263933 595330574 458446504 756079410 415935983 71682731 930524367 471331740 479234229 207651420 131472141 562588496 239347524 472468539 180397872 954831964 219002195 207662938 709113376 36386224 22998058 826754900 604811333 580548492 606589610 982339408 3159489 357563538 146161093 779041509 406430560 184444787 519151289 919446302 937632385 458469812 129046415 403832434 313982255 168978537 970811273 345488340 676998104 843340750 781511715 328234116 695871130 527606253 566316465 854782223 269631884 562764292 975638712 1147356 376276657 903129605 201125905 17699061 20856904 847513300 488572507 159937475 540808516 155620326 251919998 170744669 361404324 115674065 684664129 151336745 744059562 527691815 966984302 460936863 976656081 226305522 669124181 114796441 708670435 165342520 743659916 333202444 520559630 85526476 635458230 975055215 266277565 363344222 329909112 447116159 466852383 676658714 563000345 403146771 960230649 65389046 512520088 272623094 677906146 326451748 196666291 774692013 265396822 497105338 739108898 826113961 862344213 661503169 230074375 551918343 523280781 33208390 53723370 974328430 403378429 468803746 227079807 866284949 655621796 145118477 326867411 891674738 336037986 619877155 42609745 28281596 71533200 260110866 744923059 205771775 864544256 423249363 790866645 470713648 785331955 851756813 915804403 756971930 535751044 374695675 316770198 238359717 325272047 836902178 280216766 742070699 928744871 654806957 541521736 493909560 745219832 862433765 244672182 747653122 823534207 656438097 653619849 728251969 833344114 276116816 516992010 359624187 564594588 578990828 135463353 483255226 275788807 601991152 283471312 727908012 694034549 837139006 935062437 177876495 977799149 403870284 713768046 803796808 739384757 263356838 288334383 838437526 713291307 789241358 793067837 830225341 72315529 536276396 623538285 675654449 176466360 4961182 417714420 137961303 582528476 988906231 319523072 679943184 192157107 144845785 95678218 206099722 392389469 757621169 280656217 49340696 353210719 95643207 876628693 893128126 844646139 702050811 51279253 508321930 699680963 587264639 227382795 789670596 651792893 890944302 270265202 965063228 604707456 608611295 857759441 573468482 520836056 951125944 470299192 723398845 273851895 837835130 14182338 46002996 100024770 768998300 680391220 800876893 947932357 153387668 201013260 773610998 448552717 978907177 866266842 802394966 728525156 863186551 506832623 164503792 649847502 783042540 334483453 426884420 212085428 406140104 660838002 912696189 729483697 543284945 21717553 135714830 792800333 118724168 178758683 992261087 379285949 157335683 54993160 547540568 6560244 142842718 840687252 583605854 404091459 664100073 958034010 806192281 59718062 476489107 999126861 619509731 678048945 26274403 458324335 141730864 764835921 174835495 451438073 372850941 919672948 379363387 432321228 435226607 214422720 889053817 72041597 429696832 271485317 896737965 91363900 282770760 489912583 411686915 445449010 2393249 269282288 800976253 922533981 849345868 760549588 682952525 158438607 664414914 127349224 423808373 668332736 968615637 497353078 522481703 368565089 137289511 243974858 325118697 91663607 794595489 854526001 192166014 514824439 589493804 643456555 843355796 803595097 912457382 802398321 621950477 754199558 978185767 543220036 426746564 33911177 979229517 265143810 358987942 167345347 545188139 949015161 983679864 635008056 878802688 344411284 741925653 706947683 162857066 353052890 694089246 467459113 652320954 403457127 328612615 71539486 156668159 181257807 344599414 289929320 324893473 880578996 267082085 43287872 15838844 202825471 863225523 802720719 606012948 972579597 577425860 53320880 251037590 30450138 300425476 548189799 514550033 163978229 98768895 838023344 729163429 904468854 201812398 611790485 997655059 546418644 296352575 40324505 446924755 714523372 644098616 523012735 748447525 592731713 852817075 465791415 694218826 626187496 242429184 989072353 854169295 26660054 959864077 764449263 222601685 327404482 713508021 762074482 672067090 752563968 27504110 498004417 475320950 407604245 97435842 864131597 928837966 248823951 374918842 659213128 400343224 317166768 454200923 469466784 258380319 706329753 750025571 770825371 792897011 760017273 772468823 151972105 778107406 360770021 781420581 815326408 349101172 298538929 946270087 708067883 820510732 513530199 777418081 987103716 474679902 490180141 605536638 779104576 361075374 205466399 655062248 137593047 376657864 958823164 425274705 422288493 878991955 574641288 457219877 440339393 374594246 233571025 350474885 904020420 875183104 30730784 704713105 295026211 716888453 444615687 631177515 319611439 177229913 984741320 917921900 363849362 818684340 491384705 142353458 803377031 978251624 335890543 119784836 85669191 973348196 555565491 172122156 783643157 761724251 977287908 807721976 774051095 768056676 782501470 138041004 718165683 382607698 576494712 605554837 529312312 540222383 86634757 294881225 146654546 964376220 902526295 428829946 976971875 674506159 328743352 662584989 847639423 470551548 754928969 976771485 515835974 615935320 718544327 578916130 21274183 110511685 943679319 543196080 616286418 494434264 407645535 456303536 44560376 518449379 752039515 977872871 352405528 306706855 733131750 815682863 621481112 236481938 685919165 281118379 71476161 419439656 46542988 650269118 869284551 725120470 458067753 139341630 823917927 107561903 931712759 703072015 925496718 242213419 887619645 974987943 400236336 122549957 933506165 528859292 114151189 805832863 609194078 764887445 414582012 611737206 179011988 967238012 614907856 71937587 225232195 402568932 182974556 999400065 550791812 28452833 389358619 985077644 875561836 116433468 52084541 539570898 673646216 112625609 476604639 977000324 988811143 136201339 315151504 474068391 911763758 492639 605078569 674445031 369052358 331873089 212423014 13625721 966406254 253787528 697232826 993387398 841766259 982517021 701284563 575344604 128098112 270491463 376049129 751559359 835022007 115785353 717628674 566187011 105256649 489007722 737241146 409124381 923040609 758916558 788899058 296472186 152107580 857011512 530867652 893442731 772581316 275520874 846521060 408572293 954117220 805899364 208354446 761941397 36448007 280447039 801422278 419387914 877855113 748914041 22127609 179684456 628448026 136263752 216229348 707328940 166421578 108237105 883901023 718044086 172330463 89217948 123102869 49532501 559228179 180414234 169465344 579563250 277778767 141591907 263137912 324388670 823255058 504659312 759728080 110732963 344869408 467522739 529427151 22927371 357490185 66068961 712623934 656330097 872568947 923341513 843116928 208817191 103196311 765366661 54235256 390531706 575234570 30936261 815841205 228644481 70517275 750213189 210085140 552810390 287107538 636822455 77220173 49785789 975195229 558914203 331145574 40773059 958803914 541336137 150693251 926005602 307285826 334389282 78980716 185642311 318051030 139867343 208474197 661232350 726358611 527789245 810881821 769567360 756738855 20947188 832558141 600958907 798683269 498141093 451733282 230309302 979883319 899687596 298704416 100943898 588903653 454446315 660494064 19075740 662209394 222521893 464281834 255663717 456816732 352745028 274048598 346700267 533208276 613231477 122916403 46248543 439805315 201189876 380128030 631547672 836617263 221468154 590260856 421171594 439973721 880286911 96608809 347718632 222697227 739970236 924464917 709695941 624648605 400901704 895238247 341458088 659760446 352839154 374951129 523865087 930384916 138776586 642390406 1647676 829210546 912343711 23827985 676078738 776270152 951236258 179223183 250355965 382541129 650725929 85783241 855252837 225483385 595999842 762676918 561699533 720462683 962768281 15540579 974681192 574670988 981328733 993809643 477017689 102676487 62704751 908702526 344727733 334356945 341365177 661791021 167213774 756547768 637579871 245820605 973126895 877189731 960839675 207918171 761796070 288099993 624065882 390105826 677473016 484175431 228657674 474937323 140918599 438795578 547125408 357501613 764511622 231014864 652536190 463441241 479573114 872650365 437442757 434437030 32840397 760108517 306243554 799706015 15818475 363227284 533227034 462177317 683222873 613111869 438871797 663374152 273878404 494909499 684438454 981312896 109496331 164066264 39467772 392991276 175996288 203255984 482533228 467739370 35291373 745373440 78874703 743744724 51751256 261078007 155279882 913321706 252520482 39710510 561336590 763983770 668300948 384268716 435224213 749204755 639973505 764815832 357540473 906404378 946576215 922712849 823098284 489202665 154120666 461379249 337171881 437311246 986483168 977519845 206645836 28646227 737353928 928065677 64803487 769430553 631266623 449434029 269640385 993529360 529061010 721385544 473833041 599859918 977722223 973650189 544874561 631635714 864869667 718231682 335868177 430124445 261622073 712640431 11918492 921828628 467887265 251980058 698523887 949503571 12148478 469383636 198729169 468336726 186313411 365096183 212251322 501905217 235407204 228416455 687194156 196453347 19126310 101380100 198862555 980669596 911068496 634061010 767034453 293283888 185096069 601591436 832899531 502047570 534117723 666120814 515219848 67392073 578630179 437185350 245731258 485662163 489323016 914672097 713463376 778257933 527408573 683543956 868122131 499433047 987021008 803973203 630721184 86325318 327941661 429323937 898328031 998472627 148759090 76611892 602305745 57198522 532342173 983833902 531733972 245936884 87889150 410614280 15317281 552716932 813158678 534141037 916049104 61260924 364743027 227018262 872033048 546103802 485772673 293339461 662482097 738178386 669810730 958745266 540425121 533976524 963658934 193926187 424702413 230126791 414856481 895148894 614610397 20647866 187793774 277783095 653380691 322937616 738071951 833669523 278857099 318350130 454509549 359998865 140404736 445204029 869655248 307773537 411534349 591610518 66886628 476195708 962329123 465990101 383515224 141448388 782416344 439445922 111757185 167932194 12443733 259683658 837137801 513966114 919830916 432820157 461314463 608628844 471045593 262999956 568856688 277381513 66280408 968409420 859334731 607277954 459711028 863680705 682201822 102734171 779016802 38512331 119949785 148091510 306649982 533360504 855118647 976146896 573868777 658265797 629660071 883346625 902324950 927550901 743550310 149613528 620140753 746075935 582595560 165730935 616128901 586958853 925437740 17241833 77325086 119676977 793443456 830579594 951015191 965538399 44125401 373121613 808579860 387283153 28541513 919615648 358676329 728559417 807299101 716067810 857363025 671110929 704143805 608885348 367050467 699040991 576272389 305167726 840739793 326961250 82039447 111261331 923594452 129597257 3783679 583984227 384340112 541323020 124884202 620719811 70162973 412686867 131509812 615362420 85483928 121679394 290495362 57240390 193603399 80549824 309226107 328461702 652164034 120634794 999183815 672126608 699688239 178807236 752693598 326883759 183825779 700565632 903457675 418257198 552778700 891176046 836088041 419531084 549087761 942776796 708941679 9186784 103755248 824447124 124683348 182279590 494833055 702933727 945694891 75754122 146561333 867163553 102328566 446546037 872051784 131307717 320491661 658942451 448802505 646901371 576091069 462646947 750612604 85642506 202767630 28287567 419513218 110577944 129564755 767865617 356002122 883003883 77838258 250561042 330292210 375947907 295550575 488074928 459051123 202139330 937031922 22799805 860090163 472211112 89092151 639391995 590041836 841615560 949260135 665922747 829600365 810910404 997427077 229586245 74611414 492267019 252940290 920449663 867731117 904132565 721797537 85821238 346264866 420674633 309777434 211015884 110225258 163639541 279369498 637388452 764361885 335827441 202626344 182277527 972366712 407866072 618142266 391456952 339304503 574613251 898980137 469684658 352217841 191097315 774955952 56083161 758729965 565479546 392447204 810562916 994657059 913286313 664365632 786127645 368620963 246798192 494716517 55809756 20521509 147204218 178128488 82289706 898072542 877594956 428651686 333234037 701737506 612847400 384791715 346741408 976394283 153710721 580051376 352168430 664633811 68763559 247568217 449712237 537730710 954179528 483324244 621192997 460578622 259664925 341574903 522671931 81329453 70875477 507561377 311410224 113340061 257248683 953287894 684050880 290801541 799789230 870788943 944480723 960713168 479754411 227142169 403314285 963904361 789330671 995068481 469977030 126707236 157679171 323772010 341913585 57285107 848190596 725072844 662853395 888777748 712060444 444201837 865583029 669542325 314125846 567402615 584290803 594311269 452443221 883243141 177222364 144382061 987173880 53214283 983156045 996099441 765227795 335138003 850333099 178601983 202176177 740325523 799043936 301342151 222105344 197778510 252365121 999554255 572744803 380638540 277387191 641712741 469354854 943525494 213467970 580418634 187883446 209353686 329784351 974997850 668459967 258347911 829057499 27050242 207153769 485135795 22192840 47043410 947468661 934186338 376382539 718599740 222125356 26601232 727399803 412433618 896419041 322063139 386436642 850987525 435973051 87634416 437720622 372544279 246582630 343623277 63304752 892280512 84775764 967280429 23087350 675974368 349159533 590656075 113980037 211050416 689599094 235267022 687508090 792280836 41143866 168619339 13161378 728886966 139048902 832832826 512774660 811160336 722348546 905290830 319268498 115697886 562067347 490213465 399123533 505383469 737738903 802080551 240656826 969963992 644379863 276747384 676205327 765562278 150417763 649694870 645266808 146599421 596594919 219432834 250020567 538287644 321033414 170127740 732581297 108284250 760982494 435970835 824721998 804565031 559929606 277047468 523184582 385184844 415715584 318808586 290649310 187846828 537429650 154024017 621664146 151328144 12824158 500076471 806855535 707510009 47956835 184400671 424042440 774650030 380323040 591529306 879614839 218800910 635599691 280989218 497686564 948129076 860579381 751440378 397125234 451561545 420676924 666570689 608405229 93627578 122272355 682365311 979263786 904977241 265264276 170267489 248783342 654701164 578231722 476481394 956321304 781173744 661785350 518027902 819247288 869276135 999053338 213041351 120746486 509296347 761897233 738656453 243206152 774366591 589382660 765393234 163764523 330058564 178123160 636235905 79474231 100059520 260136433 252823837 404554637 585049096 487139732 678240499 291975446 744203458 34193751 71894324 957870499 437648167 622992795 764532463 455378819 702559624 422207916 378205423 710779914 518741768 559636858 811021582 121010164 319454937 167642064 842038078 374280372 121221595 650595490 984518906 478808205 633683155 637130452 513768090 496263090 433873874 905398653 88813173 923725055 551618949 271365350 826404666 428445208 40357081 332045940 545813181 655992023 614554887 501292213 13830813 628482916 694135904 397526417 869522133 392242212 914321671 628519646 149630804 694972696 704043083 611091700 183734826 521847210 732551615 503613547 425349747 21802563 484965510 374850732 597002985 992179723 69479436 610231462 691558187 237219216 985899619 913690666 598437488 499503515 526675008 818928795 128564061 418264122 283078706 704188281 789834427 831096234 288905932 180033820 786975782 372116928 649633836 18757812 605285978 344735239 945366101 68328399 209470762 901092117 27224296 760375294 578297958 399978950 96275950 628666181 213629504 579079388 760006794 920530731 468768515 127098305 765464364 481886790 626853455 927942895 435804575 999215751 722304147 828790688 650281780 954845485 25272654 599173889 709432827 614322880 312830281 635414194 666343092 702394209 486890816 440149177 151001632 644379565 942339257 657334342 997350144 152674773 627001939 234326880 730007482 42614012 778761976 975330626 848026606 791270611 367747145 556612343 125204673 332054425 244876439 198291950 413484704 176006429 385016763 444492106 942231444 187744092 426675587 167783893 177997367 93008787 488697144 256309419 524836414 644337939 478606985 939763743 555478475 318299593 866432122 580070569 399154510 341546854 476960600 809698470 638728860 762105517 956610924 176371573 750855198 317152693 281113261 891570316 507998314 401252333 267646808 949188932 861928312 558173825 485667499 584189368 712697931 12961350 13005287 291047410 990365055 631172525 686900421 384478301 203293959 993116702 805686602 170589003 347836989 437572267 258634056 496810626 828231525 296010064 159346276 579203841 834055773 85670527 728497620 679444032 489175460 811928966 638385070 864367075 915880222 818588468 739513917 331407213 883770949 613880589 429985913 195691350 509080379 926911632 779263152 296502028 549331697 677647986 784528831 682660494 160058616 269845746 935622120 42730915 160885955 497331045 293319458 223508541 898791763 931416637 252032911 276325372 823303725 982167436 784736416 707712972 477377173 404963183 8714207 841916717 478523839 491845046 774274874 967100203 811612629 293077820 588303094 214304874 176791651 479500146 920211527 500875055 32934248 707468957 412930617 394596715 289919075 684958957 887984102 39529820 824025706 796365048 961166754 546107454 87721855 86678525 396743548 142544323 6624730 184372776 983799161 698774891 461666580 476486140 833348451 836669082 291886111 53668063 864269358 185424726 353090564 794345995 391067646 275072688 854211111 581121044 545551614 896280718 759380078 135613482 738532022 400827726 152507418 615572864 307864795 12231024 881280544 143750004 913202266 69755353 397574863 350859286 94913855 565960769 924853239 583400794 478662690 356650230 884470901 761905267 81096975 385660944 623747081 412016244 351100258 788657572 491584504 68508528 264102438 7737223 289955445 58485838 104025645 977045928 612545605 511600671 379271879 470559411 867718110 645526904 627376647 531147619 912936640 726894881 312972679 865869597 754651497 698442989 405188092 36377827 39875721 655801240 620026722 954547890 38206693 475442554 433787020 732331212 495551754 377457903 363019221 899115637 52595813 483326974 839928438 450491028 184131633 309606419 595904940 692213591 143566571 185367732 9958336 676856236 970991235 589210475 627438228 98486141 713132589 877286709 457829846 80557232 82473954 72912406 300007354 432945269 963141708 330272850 404056882 602454074 980836262 385289146 628278355 939095079 746832021 983768849 666289616 800915229 626742388 694382966 399890980 194680446 902621310 16210415 259240292 730668612 862210542 483713368 215013209 73755406 582380005 49432326 321582484 832654618 167680149 54154849 485616361 424066056 170386253 631766226 727396809 436634131 649898700 273007016 918816253 886614235 909756444 165906738 368641154 485511235 93842204 572339280 271872307 649322274 922189005 720487055 719519917 495161648 813165667 936183513 931519110 39915410 396477776 444967469 811474596 179425486 3344796 25548059 269369043 558795614 766242198 348335584 884066619 985876423 864241702 921379350 880090978 38604194 548759812 111696438 96200954 29432683 782226745 331369792 118568580 914144025 716840019 518255874 143009873 806027513 379702741 93832176 868221771 488397414 996468330 101145985 934988245 249268534 408066282 512380115 188502613 959978142 606706149 760251641 239765866 164593507 435574831 252590535 383803389 607316404 430549852 282962646 967379187 874090186 602407680 261637062 571007089 421295514 84691885 627700721 235286264 365805857 849583162 77769887 122917809 336842527 525442136 716980882 860717651 321525490 896874502 180317101 566269795 486016269 337455304 607861706 648316204 473832352 797347865 790309240 326716013 514361019 405286786 87866518 445602435 510864515 818385864 833444815 667391519 630355872 59402898 168393288 912459899 4502278 980020050 69551590 40429382 521787602 825362467 352698012 915635749 868651933 709675979 428025558 298145827 554228636 126845578 513605973 948482444 742994118 76839874 641127271 304384133 974065691 724070035 880826261 743942346 71253509 103155925 535618333 827032660 837438476 314737649 3783859 568677788 997681312 355009614 425496496 298925340 337041728 569599836 690860507 403111927 40483107 289128799 262266486 366863767 390221915 494015263 399902413 327114994 948494439 303722537 747812279 616310132 374369003 979799873 447387291 765323861 666568128 467651980 141399187 649392676 989188262 665341500 941702393 347296769 508693382 38698513 37011215 771755631 596443659 991776883 250697298 700976811 759903556 410723271 300813757 22031162 380276214 428354485 752411843 725170569 714825386 135384364 549790000 107651175 755320475 797941825 359008240 881723619 916670655 556467380 7765394 776773551 298601432 324167453 12973539 770056120 790820684 196085052 200437817 118915662 909742545 626568997 815744992 460366738 793704991 941423191 562650264 735874808 257014819 913789339 990593144 467186908 627614071 107581797 413200452 1510057 564716697 606364869 996593148 408581851 776639828 711437594 895219161 16054479 603997345 554805475 736941067 628525855 701594362 935419509 712533991 777765840 432410538 441067719 190018499 597047738 615647172 285811867 938765863 269106145 120157901 399900885 744327145 471119690 638340140 377729439 825239392 837591127 417183107 946542338 877798278 292127682 481069522 320274697 892247804 279555648 580477628 346354253 266282537 717561423 941449759 561738313 615683745 176956076 555253986 931530638 757272224 390371739 766243493 487970400 698936428 55407535 644997412 923670744 988828138 883801584 676113698 327026879 785725906 547801223 148523814 156146924 135208533 727352141 101146350 275943605 898121820 565846986 543584812 228535091 934013854 428553442 489795165 958089530 33875505 5932572 746893714 342710710 552328136 185210044 547199356 270666179 688667170 296804902 513831713 737358934 872428837 237271589 976849083 117298183 337549850 575496371 277463745 633526137 165412153 662366030 585704889 549192870 483065769 433618858 31029476 975535553 178885907 361085884 288346419 719455315 276960521 39491653 638266795 858664928 583938509 912763678 708075222 865110600 679509646 322631072 263894856 886981692 773105202 504549588 659882875 43076623 729293523 923168165 136917917 291411214 450188947 932357023 808643639 985452378 596258002 699954280 918439641 106217207 467056360 995649439 967881352 987484546 174471083 672755635 886516247 209903116 122410689 842513668 635618638 365054910 126636345 149970820 837375404 523339589 740372294 653599561 580003414 332430800 442021923 587077859 971173017 284904246 976000451 279623521 821297099 781804148 976301689 490238697 702109226 579896257 298194867 805286118 691301692 387227023 757806389 391773492 279484992 623657584 662414750 833058456 865875398 638086016 772923354 96254169 891674707 490189296 513048323 840369755 997129306 368925797 600297181 394277753 578047226 973037743 726504939 15340746 705037929 949404841 526330424 313860937 502971087 124860728 602622018 84209227 632584651 628838859 304964507 55930440 399080847 758461709 532619781 784447025 973639219 509816144 418701882 854727892 429580802 712195011 80632845 627309486 109086826 5162858 556210353 916153278 87764014 7463810 283164147 17451649 311812943 245222148 843662396 421690871 456059664 609445280 114226260 646358052 447518954 433021091 590019913 929478716 669535933 268846263 252718360 868885546 410034565 907355864 232482954 332120493 924389949 519946949 934163046 912158976 49115362 555174011 448885691 116846086 943849534 858532158 278762263 172573050 257606288 69221184 10349183 766684709 291133416 956998372 38018083 374026088 607585737 796305321 297776843 675513363 67441564 273671010 827606016 533683952 681225166 466447482 634650986 63392215 785360228 465330456 277323365 710670489 980519160 395949658 624358852 528530652 24820522 920811945 180304118 567217280 253981487 857653500 109008954 860279336 437772837 245235195 875465590 861541482 651259526 431365427 463025993 348134370 777068531 37431717 120808324 652092895 239438709 160073364 103477394 315166466 632225384 932415877 604016365 612229141 844768267 966792742 755382386 888712158 346118210 557549931 970248930 254140937 796771519 728493099 965077529 25203045 74363930 32862029 374311196 64008177 464117044 249790468 941424199 267938218 917619487 494276467 209579847 45171445 24014946 552151625 25617273 665958655 715094912 521969804 228424624 296421250 144047407 194810808 251855770 362392285 145007648 546268813 506916605 887724666 8757300 481177065 45290305 167429906 494368185 897254061 597185062 10413211 818291268 875035486 585300772 279505480 506026252 787084900 306133608 915778964 981369280 371488287 435366670 911059078 533766882 627620959 121590464 959088053 226677272 17985700 582773970 891131893 966957035 195593682 193846624 551817201 451700745 730486442 588965761 30828840 887032844 495237812 596181745 572569831 619546367 85189869 302878887 406942791 799674997 622774815 808404745 485012290 281630030 70905968 563589971 223064250 232203078 506444557 380822178 645340434 824222138 724583144 977159145 915128014 414707070 249696538 319218101 11906437 634088427 646923965 970306749 739986774 707839417 603936986 675756214 357401533 483589129 226207317 767165820 408858256 836357100 746787197 434865993 519943794 952988493 751944349 649715940 635453430 153202626 944215031 400213068 441942686 542824897 565272133 334406524 731854324 468327316 16954337 940469631 793930430 186355398 22099844 222248174 785305971 736860188 784727290 453470416 888137244 422278790 453783881 799374024 466135944 835627451 426120559 428780312 107260003 93596434 822151592 166362409 845439650 627518618 354155142 119243369 167123536 81474182 626694494 607924109 293390588 362578320 17976035 76467840 385603291 132449020 352064882 301987541 624991956 980517713 53860717 400913409 227038549 269155470 331129896 629432927 476424640 339504820 26656010 311065355 683186024 438756567 74926129 799957540 379617640 876201555 802392744 57782479 336044179 124884777 383515206 258671273 863052591 39994615 971592137 508519255 499796558 99148708 851386455 251865807 137867359 799339994 908216280 536221394 642649560 481467942 331839045 452997749 384275159 58706902 637042605 194390785 899457997 963625357 885307526 568482812 843211204 874652211 782048086 136420713 373640055 46816775 926638039 355967930 345458848 12162329 977149819 636529586 964906252 496099779 493479631 682132356 385139811 392928929 154868425 622338478 385727523 728797349 608120814 883908324 29051557 125099444 874936044 687853005 978422769 160195180 851337889 303281960 918438840 772810474 913787104 378477085 13082128 445668262 347018425 579856247 856164707 306863729 745893457 488693606 225501466 559427593 788159089 950685917 115855524 569342733 901543668 829108841 490983854 962684265 591201581 520403387 313225151 585768418 816764027 51372018 48328956 478271602 661737349 755740285 991528586 712140627 241895749 101620058 494733421 519200634 388120126 278363723 571335562 946586813 634521575 778408553 795507875 876991804 969072344 399613483 9808354 674376080 481075115 362710952 722256146 544809991 668481598 497731615 277873772 621788170 424158687 124969368 850172744 7829012 56943428 703983145 605691385 341768624 34791481 793592883 685275090 869796391 996677827 868951141 623258113 15974773 301233406 928987820 213890877 777555350 2228167 98515487 976519452 951402109 2602485 573765532 62775499 284250103 626178118 835671821 158929691 142821452 340492740 551024622 460880141 225321189 286294690 531798737 859470825 949892007 220067325 394356570 872730669 418237175 40987729 390539693 36325336 913192203 399763492 986200212 667991042 40558917 93656807 536631978 272952535 847986222 113779894 979085317 522341977 667324184 299049131 825779492 25518052 221943241 246477128 945383210 277965893 744584073 830318731 591818862 445313199 663995149 579883645 554529308 395873758 292058026 499789697 80170165 809287256 701245654 707829873 135937741 503043817 998567649 902017332 778765745 971080763 545983689 410817247 220642647 472827274 259355008 791729543 354243985 206135962 946067193 85450848 799123054 298799108 433403054 43340904 313913397 518474292 425141106 177179725 101724528 49529785 842738427 733735086 776246663 148506748 186399856 130048680 927619436 62837167 62487106 188667299 441263796 583770768 49717794 1597119 1095554 860151953 628612921 361372488 28941203 113197945 285049292 188557775 519738404 234489823 549193809 341322962 741742391 491509316 356418968 159596296 706266944 130950204 545533908 662046610 840908495 67249594 674435460 993909209 184704209 868134088 709350526 464855673 193345030 777362825 203737497 779103068 793036671 417300128 29304233 735563876 437804860 83687269 434853534 118199745 829845018 489544714 523135859 937664781 502931051 702014450 217535960 6617043 2448259 112601690 913728494 135852532 760658185 446445475 97447343 867760573 321995491 426851161 824089189 365178227 13806125 447977208 217447487 143591118 905040632 418431384 687551008 487563479 809698565 26438955 704647707 315969830 45660650 929979705 574937520 73787281 660964522 683293745 716870595 201207642 71602639 623256556 446410139 61626689 61114587 650069417 914477343 769440515 300419980 209466158 619713028 377461004 349172873 991493945 805440805 366960966 576361033 742005178 108666805 577490196 607427122 770331685 958285347 859863556 685395751 450544137 601083496 160643078 52640068 422943407 337509678 271727226 623115 841400990 127408673 793923021 884212881 674531016 201340717 601753435 256802987 731098824 50367216 694884913 316617887 147529766 620857171 392375954 287065448 906650612 606110579 154862783 152252428 385216375 989273750 708813081 999166321 58669935 65888422 744735921 716720960 642410499 175542374 42468440 762715364 100890864 201596621 279683840 952649841 141739238 899530241 513676226 335327410 424860593 879776861 390306608 952362232 267083230 673471079 315473783 331120544 763112284 253674716 768980613 611641225 896989460 342537814 619900112 325912540 573133615 366084027 721155028 567455301 976672324 255882738 898217201 604151269 52482726 286173627 126232702 526614985 657750791 614578993 284056049 452498843 583117096 158409539 720086682 759899247 372561024 825781574 467272631 432876887 367956997 745860231 329654016 775428089 671818085 543989729 844248664 599795471 757611888 820127208 969160412 131282380 998802656 856763428 112193513 547883210 690501686 70418945 218245323 356986719 201378515 695078684 416621136 363813533 702859705 227745235 119537614 914533887 130654909 730236881 715519464 453998341 46046731 133528567 813228892 805585483 606393602 356625735 870207618 137515747 78728508 574043946 889008264 255642484 438849408 117028070 565950687 292398108 27468758 772326234 865339027 926526671 843287293 163350746 546479317 540641358 132462018 374036464 790086480 436831375 185925372 30300684 788127549 159852751 382665324 575531127 235570939 46693550 24440729 320127746 322715206 839285284 983589098 265354152 356240567 525734315 6107370 923079403 179745177 958617854 731634754 261717542 926066851 242256761 344885099 755744017 926183251 578868869 667631533 710161589 117942838 953813140 716159268 386826692 76122532 19499273 821189008 137285169 263183623 871678725 213244332 320435573 707882354 106386606 784159735 712788152 535163561 826665886 309504178 282643076 543196715 889190677 803155332 89960828 652455853 311564689 760769479 600393350 114659389 667827459 713157123 483016615 759467011 184176563 672706314 800247875 401493330 421182370 351454142 576140493 554298614 469784198 990717203 737878310 493574158 968466780 704239112 346089736 413408301 751532621 768079534 783625628 301724913 69493439 473408305 240815685 634401310 252009337 231852199 212578759 681378559 709547014 114208371 618036836 964652345 273972422 980440574 359071101 804774303 650507576 939740766 995670079 502118333 243395241 511115411 783264530 266162170 755344277 519654636 786670986 904612491 980386047 418598972 295756824 339356393 459995762 514113380 847333757 697700027 976916161 944198639 539661610 410043232 292711660 587414341 355677350 943299361 734882118 833231198 843528059 314768827 373901440 500470242 115784443 57850556 542590192 634911058 189926203 840427194 455289703 751315740 942413115 607899560 26917815 609360986 493046911 45109108 94110884 43621264 554625900 89324035 526887690 727583614 245492123 873135770 441107321 87339933 884624538 231517644 198312411 281116482 414607092 640727376 528480283 404496188 428617805 524433948 738973754 524981143 323154704 960598341 368110791 415931966 415418619 504554665 642218248 884920770 69512638 459522934 505860621 589798631 1979314 843043579 631655600 579056295 766818440 168910530 463989256 143477548 935774652 401574706 112588269 659106058 631718867 480562585 78221848 397131243 723650229 859787431 514953927 108196033 452246114 8479342 376839985 405163440 591172980 69698898 699617792 185604041 401695693 333986234 493282297 778816086 695879014 175819996 483292234 227557040 429107569 45115186 442010834 7030265 287607381 634191489 707872463 383159140 185657141 258720241 156143461 204330053 477231201 703688394 732390773 670027972 600778166 957349148 913187847 263984616 52077758 640485390 891170714 695571790 827582990 726753830 426505367 504590298 196114892 390238099 976774294 712195410 377608662 14857362 958323244 627841152 505711491 488237658 450310529 468371598 34408597 640473372 707536276 870176185 434434867 296168971 955999669 136775877 785555464 574145845 786302903 961698371 249844765 392590509 46536102 7738456 469147566 714437926 128549744 126581886 887341506 258372382 159244189 469109913 570626168 248416077 559186695 194677166 853484396 971078365 334583776 13565078 647676924 902141315 736421510 501310022 915127353 966426096 789912963 788577579 310154247 443526117 696878163 531176948 945145929 323843890 23623090 230780633 570620091 582038288 31171996 396022395 968542313 142240603 686089756 53093006 656601977 373944434 10427919 127109905 524132484 708568783 419396164 965190205 622846193 565997006 119549620 92119290 534263147 196466571 12140656 932573178 466889828 754671694 6859196 693155774 337126396 49334649 1182529 245963277 745586143 785166809 582140429 80597220 677605692 901065038 808303648 12886043 337256550 980384746 18292858 652735143 697405617 385080874 876097360 784081109 204216438 839434537 932948641 703636849 646806741 407296532 275766676 592889818 480259814 96396856 684109672 558221634 683281453 294222328 906427454 294280902 979500373 704897232 386941121 922485770 428111864 276957213 637009023 976583335 977180078 545219235 278959069 633770856 362392544 138364284 383101886 295456002 189036443 915192234 294854447 679650704 556780367 835825611 907933256 491767157 652656574 638788363 226217977 498278753 277975946 507611160 785371600 976501403 34036567 668956923 236694938 865558013 699150206 337620379 2590791 294404047 197755786 834360429 460243904 725985220 292740576 769227795 96087656 146070792 331310779 141958040 286545430 286013149 472515199 481200689 488782083 720154389 643914168 108904734 261072178 15010892 732317912 205771533 104559871 519027366 509429783 5000552 471790287 50502627 396906690 235887743 592426342 526284887 854493879 624391290 429751544 267640622 889498505 27027174 305721804 423574867 351239504 175935636 78614483 961391367 255407752 658863881 132323546 563792155 655082414 672731944 64985159 808338162 84867677 861353926 658092397 622501366 269999684 791956958 308201852 122582776 422474969 467471031 886434812 921793814 227824962 720886132 873400843 125727884 391377353 732160369 194566174 797965761 792497571 501285487 434696277 237131281 732607563 417351595 714095015 226553966 296409239 787600518 444584727 593910691 983480241 265549341 571864232 242613574 544912034 20857487 831396422 195882659 461073700 139610733 732036230 564704526 504480102 431904825 733892239 889982925 172713335 566559729 469913214 816368750 651554255 746831576 586125702 692726484 860579723 75116580 46736811 742960496 851163738 131565115 894735743 83698601 252076440 344268703 400058656 975457901 350723326 889599702 769304213 993992875 802796835 746524850 508078301 124901666 847562532 812141725 969979791 484285005 197598812 643392190 304747190 521382837 486230498 396154961 699807089 551694453 504203720 612804741 299072481 148633739 330668505 950110552 810722007 670019443 384773342 581542213 302718532 303152955 229697521 857522454 495241204 108128827 438747984 663230905 464608242 249571658 441323106 801896598 765270944 846741581 529111060 296921169 597474129 797114803 537491972 235284977 480013048 980630453 156182258 238267835 948277973 781588408 932511535 429204318 712579973 484861290 219158249 942787616 494410475 857397730 743492682 294629956 281414994 371998970 136578721 100992166 440315831 759373903 843650504 212038466 12313002 693989183 158915317 489386068 838712814 808275781 295882649 698704386 678050850 375699452 565092062 407491127 857929017 892607191 434874715 305832543 11100563 646263399 190310369 143959263 847433223 751393270 35331857 445363568 208663316 33025032 431762931 331429975 258010490 84376647 329052954 74020207 636245459 322602542 11205549 775104370 681348080 970488772 942032529 333047768 255326730 51419346 726733406 799094386 690227358 387536021 106514617 448080680 50362866 315419141 594494453 545027014 626932862 667701069 515514867 36529130 868559992 495548066 164310152 392626054 435314980 88319846 711750893 283167901 634897145 795728700 488589066 203512252 298325083 184632095 863558333 486518969 338610658 503226225 535637289 30364534 191987667 544241289 616498874 663914525 550075998 375391691 412422723 477934198 618200758 766253892 789489968 472256662 173497249 147507080 709098209 336481437 230394520 810331631 570755037 652906181 583258739 429088087 315652335 668130226 216396640 96177736 481000933 252763944 598403213 802153738 23604652 985315412 564242141 433821256 504216289 835168441 887242777 506000445 705490618 456646457 976052750 554752955 679901424 897939364 152890931 283511941 698576876 283366637 336278835 651496479 690237906 412125449 635826488 951471764 287333920 966275691 99448591 713727966 163930525 531261263 954534128 710827067 805783999 74168035 809483955 272978295 133522382 601644373 268286054 791989962 677417544 622438334 56295267 942432348 289380150 438317888 813430119 634663593 989742480 670768387 537033266 879536584 467036818 130374535 192310334 114565746 60624736 5639959 358596555 623360622 379243912 986762676 840020791 277935350 207049839 786219826 872611959 649008881 582442417 781350540 691805312 459431593 812060841 452279381 511145486 651252545 951438669 736725498 385019088 376633416 283332871 101460771 184810625 264604836 880809996 217190815 358832135 755081289 250142461 235594674 357871538 400156111 74132892 50705981 919986053 5438551 414707812 59728986 307160947 974616082 206258467 125531677 722289658 875471275 35589155 68287316 823872234 919644661 619287153 461148834 576398550 983837089 311587992 745914417 419653156 549805843 137393417 300805201 398084805 716541604 623965606 787916930 664446463 770379889 170135356 621725379 57763142 18809282 109437162 54139270 345486416 235909799 715459054 28671311 220445530 938535888 278045876 804930361 250754104 665192782 276162118 428173314 882969161 29533730 729199844 595892824 908778546 219004372 957571041 670735068 840166620 582239760 885002282 183393376 718789149 337380625 907403016 813644183 439286694 403027002 705119669 366823147 243567112 877060120 375446283 233889946 503339964 75631168 890635826 834503772 769591464 730074651 872306802 566136361 479662601 206395052 292963163 181086028 784498454 414985605 659536653 959159898 688134119 374387547 959385848 459686017 209384594 128309918 136259575 605993016 439659776 741426425 614959324 434313205 43675566 457660160 711661921 850064046 791348512 874657464 633349722 761911195 911032704 432012818 840049254 637894304 808726786 697213745 289126795 267495600 929906259 322149769 236913365 382158850 949762936 290966425 550347357 792170906 109674697 671138492 719113626 833381669 102077766 375601770 279027727 597424888 388430459 421074612 71919243 326040647 631935254 431561041 643710819 921386307 193537790 452536800 50145897 759814312 197908429 534889222 26507210 170151172 464564110 784088951 835593317 784022360 227221879 124195054 391126599 117841806 488070163 39125019 929887624 723151559 821515171 693031815 779079496 398357533 737461974 193254724 354886061 867858846 308603289 209298763 514357474 367724215 870500978 147161064 598635549 389572056 789960352 433688226 600261914 371133082 366516317 237920351 571068461 986627257 417455687 600838423 315396515 241393108 310813342 663542886 791042235 729464722 131161756 162213706 69140123 552706174 808125985 393267288 751924298 471573264 277401112 809260559 281322194 895834910 506240855 228167907 753841811 79452866 584168935 162876074 405837065 125152604 950604676 329523951 811503102 637720732 428270706 36564635 778227855 675463989 212693609 360916157 937184722 407439794 791473242 859407253 578177546 783311619 98618463 21737209 273319887 825397470 147419162 994412408 817685078 656726272 419159320 730510089 110630257 543356314 546623085 708493358 290057146 785378514 354094773 408856434 101816961 174991872 563166795 384062353 654747922 860125268 4689768 287674915 619471482 289378722 307413406 197097563 928310048 247631139 846182232 292039297 237059154 201092683 135790841 523445880 201683751 843091842 857147795 575626513 60814310 423254173 554606021 832916493 967874684 576555179 846812593 15282261 361858282 422730481 475846085 808290470 652458337 919478596 492031211 102384175 349550623 344907230 720368040 314966869 186005664 255569151 437857623 646529947 355796877 101417969 387803127 363567146 307791457 143388353 405755724 653598394 143160304 892952492 474346206 101269579 887132818 769615697 722437875 503958781 890303020 862257630 605286584 92621000 592487388 65093578 813017266 575626865 736090951 662207757 950664667 452735961 562191114 528796490 339669091 75483349 997378457 700648178 447787538 382329078 994748391 458392181 34142683 374384241 43749267 791942106 782592839 162888056 908770188 119888967 677983241 6526124 15117453 613539314 345878826 149161885 872434002 622490253 424181009 662624475 768361212 31862480 651465156 605396361 178207337 919784219 838279802 121674790 332760096 212499376 850782877 472664356 910693083 780766992 181711989 961263218 707793860 747092832 464004884 608599312 352856644 193915455 178495782 66318091 304702287 551315741 219432443 823088606 504509848 140992094 551336152 100733577 480266063 261583470 893604802 542634494 677552249 643732955 834403446 678888024 51759003 319375766 600360563 488248836 483323050 142089622 523057670 248353889 325113814 39803590 655180367 433645671 723909642 862352108 669986585 319959534 589510053 858226121 807812507 742174270 649932582 735726274 252472254 978928234 893429725 930246281 772924929 643872604 244546409 132210837 697164269 524612628 227770990 112625411 894356699 428169542 200893487 998822985 901718631 549763976 560730109 980915604 441720084 610815438 946246769 803445164 731148914 872856537 792421454 252382470 93026598 349725374 293157199 520249410 139331959 390633969 642794108 502161903 480936548 15866719 726639527 67712289 656568051 47087183 414973683 374635207 537802314 729646905 929869059 597377905 576053755 683956694 720218305 467643594 638323387 571641151 937249906 786161680 451121176 205278120 517276535 685456230 781440860 12630284 37353075 234052579 17111134 205616947 4025701 126881422 919468834 229638448 554946319 360520378 995264743 385970001 488370487 403601797 440376845 719387390 703728045 105775373 203631865 127789038 846468430 154466463 931008585 360325177 200843852 669576580 912747093 968119913 462376964 784837891 380439699 761718339 230207729 258549786 151752571 259126011 637603537 661047408 956024903 592708754 314960463 923081134 450937219 986440233 808272661 600052261 815493772 3454462 909414799 464968654 298375155 771145998 335299339 507764047 138093639 43455569 812565549 711647645 369690698 167974831 540761524 796212606 130614071 297772281 83095135 451808719 423856441 987394404 717010350 154325816 705403969 159873588 271629085 839949652 365686809 809270576 905489324 913075943 558567861 483924800 982839665 639734490 641401448 577245523 670919080 648611480 249313870 424834795 534797033 753022487 687939910 774635283 579341201 381517627 555766095 459581582 297351501 413524006 601372928 974068831 319325582 263186747 573486968 309610970 188846439 853758086 989563925 936344580 198899620 865615800 284231006 38763810 516773032 289406323 104641291 119440541 825071807 41148903 447967255 620978309 442789398 173087701 161369753 512467144 241422618 37788046 181802632 166928621 353250374 382354078 643347587 482824384 287649984 982382202 821241274 138997434 294231645 422484500 627450958 332304930 604472459 211203095 455136129 942117168 583626613 742366873 859709307 712903989 127765496 319757294 974679280 416824406 813745238 321792045 391789628 918203424 604005378 391333407 135904765 585417995 540552988 600623599 714543080 882533657 733959997 2721184 937642271 119790389 273479962 119044726 589866511 531476867 669169475 684417874 805355028 941746524 635900447 158793446 802557309 895865429 426932713 393678926 174501242 101329987 797020618 509770664 371815835 493605238 451997273 147747311 837505603 118739080 229761447 470197344 342973587 572011194 357151438 562643210 185274590 196801554 28970950 602273245 531600018 413741176 199629041 22242982 795579044 11356827 317055161 810415159 77664111 210221135 78205905 21959463 721580265 213400369 127273285 438480938 79357157 358754575 765468217 567660202 579298907 327453355 306644782 485611134 417096879 435935038 775042264 509613241 478649065 176740213 821946289 197467586 832516620 349630130 159969272 642146684 838726657 606231382 724554035 477454036 648363248 670460319 585416260 466805688 198783713 618178789 126626789 594321555 149255577 562713362 522345674 65212056 111916630 923899602 223138065 56162282 222261355 364521961 145193677 982111449 594956125 513233202 991278696 130250805 794853242 952581394 194460775 55823128 803343550 69143565 221725589 258094201 678422286 75638965 857960619 803769124 186450611 786299314 444529665 573222993 562962790 585778768 7005564 500842872 808606741 394722790 75166988 178867891 430314362 350154358 493714664 47984336 159711191 697139973 585089529 265166756 916293105 370753491 567943670 726142384 623203251 304274446 232604406 388067110 836163444 973194926 354618482 47191458 100590112 716126451 805608612 208791223 117320215 440718863 727154008 109896893 223714262 924212245 912091011 59453989 377011206 414024686 551400769 829133006 630282689 622002345 136661375 931169640 623161538 294843120 482493920 664719086 971213604 972939249 220001735 111772298 398490370 374840420 99223801 369385569 759512355 112722370 741194874 183421037 967451358 788949443 294411684 279049058 106471493 182371236 727179731 398822144 757527200 78559 524831143 40848832 514560484 414312879 859968592 444216679 787696163 58473034 40768907 720082979 197454145 995759950 60720373 808121716 358318102 882991918 652934656 707824688 733366959 645647875 236697191 889064724 274822542 979713162 812241599 740560784 142944799 72285494 60252244 420911056 604140727 831357856 402251176 577043884 169555690 359544503 289692690 147193208 169133663 770787036 540170815 972170908 813399808 564256036 739891118 655226356 738306761 681773534 795311533 629197383 325146956 396808691 669791587 538842619 388335030 823964467 44006156 46927101 882984513 371821932 398980077 529675718 638668862 254792100 661173560 409776179 541544175 935063965 99567954 526831790 425554177 356101600 910805460 273457135 713825319 455678071 652332820 132444940 469316924 703716988 383744524 939651288 364091769 642414565 141523221 347054873 110964813 122391580 480350563 196297909 44969123 476690668 826829419 577166740 477583521 815918802 308688569 460850065 130488424 351509254 354844422 305085283 741480938 809378443 864678371 576034223 360299796 700123821 776071231 949992200 81684779 110978442 390312015 906382798 590745592 227389107 793188473 804027817 799028094 73791401 115663973 536840182 588006086 493459895 66561108 965875650 327394730 912568868 115978984 964937861 795295085 505742016 673433742 415519702 633740909 84665754 677346907 868252563 825459178 558704285 544732644 41564345 673492338 322652559 819572485 365845596 441181675 229786980 63824208 913561465 60224592 907373792 551150533 945459996 159411483 241139409 456914492 32339410 739704179 260387719 174771300 21397342 807846562 879233802 457113930 226023295 710473403 627345619 669783827 314204910 701409622 353934457 809425757 93092047 167240264 591375567 658695332 680437510 726661424 285675163 396026197 707979595 201565674 83921941 891714769 29323146 832098795 517285251 12043757 243704309 368889611 815139649 538601984 364998143 113846641 903481560 923030130 967638076 44267668 462712657 321621202 671748709 794275638 33189292 925086685 933648033 73659428 33015521 138678922 151101266 457297626 712663974 39491894 695688355 526504622 48942123 851531850 685852168 615753944 508120192 318065774 821396790 799386259 960348802 829477866 214431812 671721175 440920834 283188955 654665393 852772826 544332338 553612777 276160725 469115539 689324437 82147896 438634534 231551581 742201644 247734098 685189183 912334021 577761645 628950692 517259876 596255358 759182827 727373406 808031712 853093713 507463118 778413922 966848568 511432577 596532669 742941625 360000431 729580472 430213703 628014646 279798379 761777383 500138760 189060489 746689304 552333541 825678292 854232112 110296126 270456970 942904187 870132473 55086205 968248634 598020168 435729755 636364959 949930887 696375903 978900290 240604407 995322045 504300783 57520342 189136822 687688547 398484904 616108697 918394465 443760284 491651176 708552874 413727190 909209055 96610379 565614401 157932034 181183462 289251914 793645336 16578555 938172912 559990601 180356307 543288542 356596320 778365041 496578796 104948250 850209723 967523056 693334241 801663038 777758749 176117836 972415972 235666692 696941182 949796093 406651016 560238056 969480586 183731952 6136791 821521086 468482106 900255008 588970119 368939778 850268928 379803156 733666136 230277781 479905427 294886707 283525822 530437391 926826505 770635269 439187130 667561669 527705133 83697476 218529227 210076102 570155836 8549103 651286844 491520384 913267182 847712925 298245166 125004381 621578129 330048094 171679233 486734232 834351135 800211231 762465878 899026211 11494475 144689519 858234116 733070420 127645590 929268039 568462657 517503545 474282305 666870751 501610324 562568562 701668986 898672205 487128788 71146530 138988285 503299814 442225402 289213711 469369394 740387547 348568018 800184109 313958458 508857727 673294867 710259675 54697808 324724408 469505944 292414247 584925508 902943952 429756739 795891988 274112621 846948820 914113498 245537903 165088230 699397444 649015841 159377487 547670982 855658822 303907902 359469721 244509112 397132717 164909616 598728710 718517698 952246646 535624527 761136458 523396485 22185302 839003815 429813367 165851392 324561538 182446132 840742296 581144373 523497430 433139537 516210460 569532274 367870171 334408319 232908822 430823335 87588468 445377591 633075989 634018674 270688448 218582593 125358690 973726644 158586928 504063428 590743880 621310136 386960774 486834156 817626223 636960140 793174335 934978339 732225278 119762811 76080709 661048613 46828209 529472087 347014439 24451618 39963693 496189189 486957617 951566447 533829984 342084977 431010888 946092218 729743720 980015567 993161761 33123972 6345606 705000278 990769588 857259792 409786240 371890752 505470824 308629496 601746210 197687394 174343081 364319331 482111318 38648417 427492567 589106006 173069006 936627931 862773728 411028212 426321509 936920966 998230785 591219193 450646669 216967827 307297387 728714043 405729796 604354612 934666510 307391768 14514632 534272623 2565218 387741271 852809036 807103605 734666708 256523170 824427686 881387537 88015416 120769681 448050988 421918424 298976879 718694872 347531694 796695602 476491670 254320072 274509357 830395812 406209851 996397267 303691981 832048041 775419532 239708277 799658972 286803499 619767672 258315027 843087148 65089668 564619210 244195217 917748835 277603681 903144137 324234004 241997609 251188207 583332056 53032081 502772345 966243657 513681135 180654129 889531098 680216993 749886244 402419984 611621666 736021636 78147063 34958815 577063880 435137895 209701338 638510103 46513030 271884320 718729407 94789 998087942 345629258 124169164 67804900 377232845 546022044 20749498 386975860 168031227 915620445 259586406 498629239 894253603 25538822 206935078 477416337 359372154 922444351 564672238 879224032 429195947 28495181 639852283 584821319 670041485 677001901 197182525 1035904 976002232 211020925 42789129 858611400 24378274 102955612 269746365 443875913 552423611 954422807 291387189 880347693 779574619 417802186 436095635 397908326 45280224 575465023 375812015 951398010 123206504 637556819 833401973 246443280 528378560 394731646 657680126 660551654 949953996 197301575 135373347 118880684 607482877 813942138 386948446 378697602 572292473 899500913 108254953 61095433 206004598 949380343 132693086 386490741 836410860 246594744 605217566 806271924 689460681 266163669 699062003 123693777 683858973 159355175 618107517 991866347 46001687 875904766 775105903 696381639 994650606 8440299 401581132 413333003 97059335 390346120 449747974 227010551 314183020 502164268 21921294 363599670 161227467 779845070 978868102 581289203 778423800 659603561 630750068 591170419 342328535 216917122 789957104 814159783 279652622 212659810 245197005 340053674 928658733 909138570 696295901 542688979 259107524 433815990 470359506 961647062 587897418 484194318 73884029 691554493 335828309 210604872 271563868 956584014 256625589 138020122 662795391 364227266 679716501 169423366 5587049 351956934 63705445 346137894 963037261 429616454 693239827 865716170 914694417 538916171 886823811 18544403 89659709 51368490 579764167 707266364 102056083 846281543 385491089 57100684 302865124 862173797 232239407 441675580 301694150 735530172 182393922 577023751 378935219 802967451 427441241 991934659 895677441 827787359 597459248 216604355 88278100 380392874 80282881 714974645 587721423 168380825 545607734 662199035 841559242 668577122 77020494 82650913 623645232 948884463 177295470 577065412 907331073 718174979 419968653 529030695 715854583 75695293 355449692 2347167 426487653 159831589 808857070 686872235 400348836 881970055 759139563 47015082 154230316 256048951 804312820 831975276 510573841 406476212 213341981 374623706 626296105 23578155 773442131 110338181 376033157 899337800 761487912 958503466 445501942 855810092 58005944 785039232 150033581 776505890 217669116 255768742 309880905 522690768 88670192 789988312 300294600 481187252 916119075 284560390 256092736 308256907 832726273 395540392 990068000 107045408 488161248 412115678 186924593 717106258 79902805 62694976 570183001 461716366 222546703 882820643 987252015 738789266 42755799 412442650 453611369 549279139 163166525 386608570 224836242 325620747 339928530 769752879 523683346 940625771 26253507 592909131 404391456 99312798 658522770 409698690 569999667 356090577 209238172 524590114 277850088 805458209 269663366 765446739 613656889 222200485 246920316 410802648 857715166 178695146 858817709 823609126 211290246 926338856 767480696 783178755 969019710 838530266 877258872 613515339 61721941 129118372 877315557 370785319 142634665 732994100 627397264 916825432 503240303 857308901 898406410 362253283 735265311 216312579 14090918 11217496 769514486 610352361 691965124 185065013 805492245 849357700 300691951 189667835 707932171 297962356 960029612 269026059 878031583 430631948 205844690 810230594 353432693 94606927 891390021 433956994 875097398 324968822 737668280 911704602 539722099 654244198 438073796 846061602 877573354 874786940 420340822 140386241 256746981 387788098 231247145 89520846 14114383 105723810 58880643 283795088 648008098 658095428 142758276 423796732 711174397 648578769 288460585 120562456 528626504 536018334 660205171 203781652 172625393 920968474 768954677 986776226 557310786 139372414 300031687 958032261 216732984 841323680 849438341 230616287 669451268 159826135 137561754 788183074 944093677 535499516 956752338 181599158 654414042 954854982 608466273 66486837 584320469 654972108 352553922 668403067 600969511 442054751 970049298 147724643 192243435 353829495 229052354 337987196 113596343 822217682 837092146 960381013 766991363 773643961 700504952 322709603 260398595 809151050 512658980 841874814 847954149 120530100 370673720 623098176 175066456 334315988 522654387 511287921 402442020 769489947 875726203 374233769 570911611 231101509 398249686 461140028 142027587 133308031 333873165 204447430 315118922 146195019 173098896 984670714 841298238 351638401 731476050 646905365 629899063 999071334 654625682 604967280 848377069 524136503 978705739 410761121 870691509 812247644 849719644 748206470 204909787 963635164 381913370 938876357 281475845 551396099 644894444 794746157 309690144 798567156 39152741 593899249 210165736 611818009 89436348 367253911 372201707 534420544 877970168 98733257 816470665 619999857 755557290 884239290 821105575 281516316 243349632 966639674 40264130 244175964 141493384 151625851 606787315 952319345 946984825 726761771 573188486 705781338 304621049 398772096 118616461 671886986 134925876 950980668 75542076 427052681 711481273 455147564 892510181 682680974 172223579 50006680 373137009 517762443 283956776 697506497 347838101 616617312 575518635 96782703 307406118 259742064 336193172 913802469 838335938 129211836 841159325 176485736 451979563 287326480 93974746 409658364 707553956 498487049 901408365 730984098 470273390 981138704 466954586 15434193 3473609 686032152 788962502 455676252 58292706 118739909 212048432 497874095 19005964 306583113 670830618 916535859 371216092 238709312 104690804 892887752 433841597 599326623 692371458 96192671 905303132 66040838 134450477 320174515 783430792 735433631 516882518 740163513 330532172 649401636 155051272 892349193 533278205 452435966 542973073 68820852 976025965 454596022 986573905 956962934 649267440 300457501 912989011 6310973 501257764 622462815 411793775 399369429 149874905 267322645 617080229 139080429 665026079 447516481 179026707 425050985 130080494 946751247 929991560 212273060 115279345 157614805 154294325 329671893 521624935 792717014 821205083 583700931 199967412 769466323 124261185 738728441 581752176 324378298 947018426 949351441 930043330 424609932 777215460 598751267 671986475 258306691 34969441 260547080 221176480 420790401 664695166 838537315 785424046 900434264 505226052 640255183 71464161 726389280 391745299 716376227 134162376 747779995 908972538 281303382 78142947 172406552 419636965 323849786 385544720 322380129 994285650 676326680 345710277 447900602 305893893 899260322 860000039 46674369 657243887 230235835 344015179 4377692 833481447 187587119 402896264 6261541 710995245 341686505 192681432 441604251 14939787 343360252 652078986 368367023 278083859 955124373 229508603 162611536 621876867 93239702 9379819 139194592 271022640 313588212 649051205 422456352 959267585 379542042 319469846 78252047 873129077 532918324 278863910 222253803 841373966 509491501 812941266 612791541 176378870 110104164 738784399 186628643 284925779 127629131 511886721 937241573 532378631 365796696 34026205 836038129 893512035 569583790 579411001 381277019 583277210 560413542 610076790 994485626 814253551 259408246 444858394 942749770 467788505 225547275 614294391 672953646 238175377 962259929 472372129 546047270 479561406 25884813 777120542 309445336 29522032 351747594 742279142 448599755 765145008 872161952 899331053 44396826 443487783 49865697 126940914 401880776 772527947 592099403 183646398 113799706 694771743 55244697 752182327 606386538 354065063 773280806 69012670 209950822 635664935 151929216 226310387 278989082 197945090 645553447 775709601 582046764 411379544 654920570 69115593 903567954 515507718 691330502 403601142 392549629 471896711 211475270 147720088 869065116 594471005 711262132 7337155 565770299 210824044 779919855 32227048 893443944 86032868 742990717 246531277 746891078 89202882 381433403 993328198 221572440 268474923 155339118 418584836 588133167 348430121 903834955 868141935 195364372 308781158 749309173 585071395 394074171 478190055 383237409 450845888 458018821 106180974 897322136 493431385 364592251 554028395 678226108 425824415 529317467 575574843 509602688 796974787 396015028 888225247 964478437 345365501 303808907 618189246 749151816 602030485 597453644 744474926 845964927 929279520 595621850 938295269 317095811 190296517 605642464 352951757 844734161 40229710 218960444 449322680 447230433 867719699 255872210 872914951 317341996 789495441 658982276 311967879 305304769 844295962 575649097 53982064 735940466 831673104 866970395 403417801 954132690 510216993 686378380 913490876 790877581 977641030 889475980 680287540 766738246 866556406 314243452 428122547 125018429 973788969 802500729 945895949 304274602 597738485 265126447 972632927 860424196 492349425 627866095 364554890 55941732 596920627 529674543 941848987 842789483 417928483 987914776 367157038 607086965 90249060 176129441 881342980 470388941 696769238 94886843 608369593 14339534 226066458 534748778 768071263 287980827 790230799 623823171 720373392 735296146 758249605 915519478 994051337 172239474 703360523 78897088 334357337 103596920 761817752 279407913 287744616 571118523 983994224 349165383 671969285 518631236 853476444 244478157 81554121 307124544 574817252 681804415 36577401 483464853 626523151 178270675 541699508 411662588 171241731 514326779 874765538 245536629 921709027 176074513 535557214 297525367 741378854 912533801 598663345 49355510 692238712 921388994 822034552 53681864 740121959 660965309 154281505 80743134 5249049 16041051 434079280 572428409 651990336 950896004 695340970 33243968 206436773 666489003 208815453 890007839 773740814 488590397 129351069 334173182 141617746 605979734 21350809 6420405 873288944 73500072 923022665 724211399 380320579 697303094 94527690 553637997 582899337 40472041 358509635 231678856 66044545 105396380 775872656 902797685 323881008 922613622 719362909 607303708 40421688 315914140 308067605 755434009 466377898 811390033 203965216 66462622 237781943 193199837 136741578 675670377 43471503 970455260 856775796 509752037 934008710 571031590 899113384 186450627 396696896 534497019 575220161 25255857 318107356 649589475 227408599 372447504 197672977 456332325 43773101 663899558 994108347 831887240 296214658 524977349 772725398 734070104 614849291 772911083 434372008 196403822 438524896 385597862 443107930 753331181 749649778 149033277 625501993 555331648 304117960 811538717 895729377 557547799 552862743 650834889 201576643 852015847 186822233 459626527 833241313 714098116 751839702 900194711 791608918 35318227 522194188 24900899 100313083 259246595 971195254 496950396 504110978 188861444 540605302 556035120 53358488 812664479 13321078 868710724 729554815 377481884 483499045 773145141 265490176 344372502 223665812 863476326 23402953 65464944 792534525 539044363 354874846 203939032 135568335 870647113 411958388 69056890 779730102 778456119 24354618 605934734 345361380 953109256 253778288 442358315 683180609 174024274 584638917 298378381 475033852 480062274 803444030 603014427 520460286 680080016 770074928 509485331 276085473 652923605 860886991 979818801 668887540 420950099 970064436 222603342 482843633 249753834 501635481 456287493 699317098 651583854 852053745 798709158 656659949 734048695 945909532 383057439 20872290 468638858 958333545 57899520 320952228 746459586 734515704 738073719 680107128 902007046 339259583 559745991 150832405 283433391 85128044 776117567 294583924 535535420 625593727 442008828 167653071 14785080 408424620 171042683 879943191 288011424 378857335 301422085 216884797 623446972 453597863 508719852 22087173 764422978 717857530 550353338 793164927 230151379 130207677 944427613 74484860 267198022 545289307 887182833 511828616 756974547 226772475 24507864 810519169 581555132 663921262 850468864 604667934 930229687 192568373 64369770 487949660 280882335 175651458 785958407 404052188 975603886 212466080 641222640 945646243 551514817 156460635 84999689 922371038 355527122 30092984 834463686 397118143 20342360 373056150 855853421 648229497 753426316 593581424 714053466 7397494 973162800 361009461 211855342 598464801 941202469 923403105 452752740 867632761 37448689 556379519 898520688 311408095 240270245 868014051 81561254 227945981 506641226 619108662 593711540 353541963 714223615 575448699 349063896 805728063 166389847 414363946 668999067 632552598 90676478 715842800 497274118 497183465 912653125 200241256 127421884 271397750 373997887 54452994 103056651 57488321 370311970 655922187 804110291 758733336 505255710 719691980 128354339 758915156 202604310 427901143 446387997 599612657 28642726 209722243 693042121 454674659 6605949 801779255 277562892 128999530 43769459 607534772 163089777 208489559 453533896 803941454 134655306 853836119 474007611 437337641 296463460 149305476 145633046 937570903 748173398 345567091 247342121 602704633 558454489 378639791 720976141 319266048 421685272 356062388 576605236 425099264 96229006 653544429 797679868 857824280 600000542 548133247 605002089 766153802 477438592 217733081 100667476 350381895 626012860 988068921 837800254 943601538 500588215 851200713 988068659 977811578 12966833 712630359 223034403 407247761 381838989 37603957 356258951 52165714 82080283 965923423 903723427 792823397 953338285 750090912 493482967 979293081 818175427 131825706 871957487 811713445 469650964 175555510 888915103 671171450 502774716 731730025 489171711 36346527 549339680 720653780 913789566 849033884 161253492 659829905 357620207 793825260 383269828 23222771 907208480 222058488 337035140 43304428 123331423 955073217 611577034 26990848 532466948 718481219 276614706 558702507 490564297 652313080 657068336 660695882 442931276 529622290 46179144 890939045 101881211 331942347 534642100 382895088 867025800 881380473 474647821 865377626 252723298 815247186 16989402 785747878 942457989 977603969 311204847 485432999 889198964 693004304 966465889 563532976 988525009 731200185 274499749 434531293 770195626 870723955 393057081 564866979 193463004 178702402 244590547 648835145 690881302 570293113 103890933 403195931 221537322 460078899 23313954 431427800 874640316 886251852 66781627 275810054 925037576 884766727 962913266 803082265 91701925 4453839 387083532 118294561 486828226 178481735 131276215 610547497 257288706 782199043 272202715 51654576 329199563 873087765 67112159 126235127 58485206 310841981 85864282 159786564 838996663 609366893 579564379 642451009 592116535 308096246 149333562 953923391 533608073 669042396 587346711 396856515 253976826 724470453 125335166 453738342 42008989 392004291 907974387 55169829 248837163 1265289 247677153 336170243 928410779 103252291 416009526 854450468 817928692 441530204 454674298 752095840 986471155 72781556 546362169 305021504 554489935 661141749 349184830 827570987 509332315 973525150 587256799 167632018 919955126 305319104 372696876 24770679 266027589 302090025 515194352 107775755 328856825 558391246 281910566 82340008 343932102 276855994 883556640 805962881 160504467 747147162 182317332 201625507 655849805 978768224 805286331 366477330 329328238 723146877 492820190 390618769 653350891 224685867 301981443 443953165 947280817 749144380 691669976 751944886 492018039 224373259 164466638 453124770 454776771 144999772 15132951 272443459 964814979 743838105 594924152 715503346 568451374 994011993 978756658 773802194 730871115 654058388 202911623 353095139 359188260 835920608 103779473 411454929 718606752 561848515 652293266 930353985 778881634 962550497 243141878 541306686 98953059 711933604 503036564 362731939 5026974 921880474 794224329 191976324 812316622 671261042 499568031 402801163 25100256 728534577 842393018 845689337 404263210 849211334 241834414 272502606 200809552 866570760 565513670 650323601 816389227 309882862 924433874 578092989 783458083 168563920 485294201 912738745 417960514 903643067 897140549 28110022 630260117 934925213 398826615 868101581 676220178 186857985 445358010 424257537 276475251 780537528 229720363 51621732 113528817 302761246 174955882 842355873 239575931 204857872 347111872 979530123 505856189 419114489 294526544 497487087 190332769 546400785 971819754 266932962 754160177 341180010 270107998 986386853 611751704 15860730 292010171 156175755 904246170 897042386 209030867 155670205 543430041 786784758 242775012 407455470 138831968 282109152 832313308 248227673 881855124 305487749 927898585 43478092 925204814 773993407 275545912 140349795 206930733 792652757 601093287 827995407 367166218 75068021 670889046 646847965 82063715 821140739 636534063 682050814 844742441 456182535 611524740 153225104 650578468 43543240 984073245 682649076 675167356 376892162 228532985 149253265 943500201 906760869 21566682 828711387 740529290 948703933 897037118 414331198 149007032 961232124 98691155 668978395 91101286 32725495 643838338 278636829 876151311 516788967 803228063 209690339 599358072 636459897 634319967 133614710 383959212 629901706 420202684 233547277 134701064 842683815 195198782 268324616 445565697 371080250 510403055 227862880 890313854 406016081 595679010 451199784 16843816 19813148 893352816 38227871 290244535 344388233 634824798 651802991 269886185 261464910 190158401 161108192 864426825 130154398 250173644 783950110 753423027 982584178 929320723 969104583 183158923 93820192 77316088 85299487 553092685 222607882 692516366 698366703 521576414 286100760 379900155 94809699 764045765 425165667 751002723 538060892 579962629 846693932 40500210 998296577 300191829 570369810 568781652 647513424 478950532 828016251 997271186 919599834 4889591 783808938 385669041 792288184 492580012 436596883 880322318 897633998 360749194 874784143 916199856 456000629 27873996 582636293 429028448 272167161 329622977 646722477 214463574 872953897 708177501 751400867 609002280 385891626 401573035 190578408 567698435 988511276 31047393 595468158 527028823 132641199 708809895 814339331 323306879 184987407 252178880 858571435 978578250 600884666 718882959 311738362 603097030 598832170 225046561 487347738 159555812 681330837 25522954 796271137 514874305 754800017 149204559 759284124 858083735 4025063 268962028 498755164 241554140 65895150 316621853 243031682 154300233 596949655 638824422 406930810 70893689 902497814 78066795 832997325 740746307 482477548 303586647 329182020 141760697 606066056 167484048 247882079 592403204 314099083 285005007 398172512 362816806 131121857 271455609 359489974 633658423 96236729 697959575 513347688 752489398 309324336 32945440 201783337 331867203 480584386 734784958 523046794 718974694 214005344 280603917 981274844 142214295 16119281 14737115 103523700 211529306 840695542 696702468 633499759 651290678 876262982 29227269 550840362 542578400 776571331 519594389 845883434 145649490 114201535 80514610 793506490 197947961 445303848 361384445 974310436 69110796 653277796 765233100 752710676 348402688 901955986 674207058 865105150 260857711 488811711 73146807 710202701 527540613 642466099 549501362 798128376 91480610 65652184 620561575 471203903 752044382 158883101 466555654 633130512 323065588 295969940 346336151 18908561 924298080 669828748 196992642 570414789 354650870 456871322 232135996 402694465 221184841 63744464 217638654 927155142 380325695 989112082 441212323 845754834 833545572 295518652 881510925 127109169 598096030 808693442 369510348 974529368 381881956 112408789 837118493 372245675 538307307 399751568 150540512 972805409 772604424 51900022 489838535 279603974 675421793 491933935 864808888 743112427 982500798 11216245 697618619 116701420 753662488 304600943 301933752 981886178 984149941 474974167 204884727 547596789 237238446 135437927 945924937 662636548 739005081 44339769 99610485 306490954 882609545 770768061 324760942 892800663 343752534 158380724 207335855 418042286 986462318 487965140 722154797 508275839 485470106 656828578 211277025 818992525 138411743 709740179 486634789 336246735 373879887 895181583 849576847 146188201 845504667 844959887 46639501 527473178 240309742 389541128 472381500 547591016 776234711 925215993 17250911 509375602 748852131 281975908 312013401 431468743 896070647 99713308 895954738 226661992 75305204 106706894 848733363 112535180 517298468 912881405 199745007 613341270 555995287 163012976 106125358 911013762 932639374 930917846 63921032 595316183 709157855 188106873 254104318 474053914 688048491 376472890 466113291 327990000 206554111 378148789 340729419 128384156 375629390 777847552 224748539 397708573 260750664 351571789 843547909 519153775 100150239 446594320 976619987 475241373 362944011 791844949 294564561 974720689 587440855 1023323 875800381 227491333 721893804 870382674 195750345 410736248 130893119 373639708 557841016 903585469 797314256 590947342 627383998 78933977 297810572 299982289 816861855 226970189 359926742 526598886 951767011 429626452 845340296 414444889 519299348 942695388 797184060 421764046 859346861 743514978 992968927 761194517 35700401 832309749 855500982 932805725 822449791 423417813 987742903 253948993 956949689 637522245 686624069 763035646 652567968 917586171 35415085 15551750 882019005 633972438 581738368 868434253 410490331 904523274 826394737 697968235 720101600 270816253 332696840 814047275 93279513 118240299 313291407 521854966 809370032 180171891 354835177 239079029 772532958 361983736 654071747 419547398 288847782 216869974 749454187 730824350 656016441 577890946 808330714 770315231 234388934 974013152 974351171 679694693 132670867 953635968 98706300 146692089 511736386 210877288 117863179 231384578 187693355 555742168 38726874 643577082 442490404 781250433 375698228 848004583 109104676 103837514 352711762 772989133 405768975 656601163 56154275 592035936 617348858 454431065 10596754 188559057 364001390 99457085 953166697 420870607 27376677 780112478 58127280 832270220 640989131 953408250 643807372 791799835 540037671 484323878 13526731 560520777 467037091 816702885 968475684 521668482 977662268 585483321 937911731 255756327 303202452 181424290 709052735 241550370 374727251 265396044 249382375 183952365 611460300 508349316 223905053 647519447 855957859 524710541 829421728 196889260 224198980 757159891 975631711 741667605 885402974 156232957 118344901 260907906 869229569 860539922 750614170 5658720 739576185 11892959 534447632 915871276 593228914 934298400 400697834 576280797 8475913 694220339 237788367 183738857 3758020 873023345 152991626 626128021 521300265 400386384 566766572 482195323 144124847 758999345 653144667 509655789 720239021 23207638 535794600 997531619 853601359 26178194 314507165 804500633 236690135 131309309 213930328 161700313 831302788 275900822 722097299 217524204 479252164 409552883 434140733 634003973 132298752 218736070 822928775 655958537 934052402 715501509 855739815 508897062 824872346 10148141 751548080 872234545 803740075 580868297 832134066 631381353 549337003 424913079 424182451 901876020 380834452 467510472 766914209 408157607 25546590 616585898 197138948 727620599 995040512 176678210 216464628 325805923 577714373 477135701 774934871 311650406 922230166 618487148 499431970 406413811 55185901 3478781 445130102 917901147 841096030 459325274 779963559 979766723 939320556 631772088 336758773 456910405 253755269 37175344 505894027 860382419 102269932 999572700 416428144 921614857 399599496 291075020 933248482 939696791 387510744 52007644 951170622 377712753 65665432 919244988 352278640 880023116 468483740 299606335 610282929 394400030 456519298 130624524 624996241 74833875 838166162 748633052 395982496 198709090 980845876 405395241 820350442 78556117 126672268 642637832 720402621 548156718 934169469 428225796 243047791 977897245 98758549 311740596 549337351 166315366 590788757 312423617 866558516 808121152 172615392 796851032 468600569 8538024 649610470 272717728 16671201 923079291 261371597 808378275 698512660 121403427 541489517 578845140 911065721 256501708 820540840 284217040 481908730 753470364 940211243 391089799 163251104 567349453 409660716 186261955 523225095 718453345 140613349 930303489 717152911 643323274 482120710 521845063 614775206 167126320 422934201 544715175 424025454 49093846 188054748 85090123 44279161 148495753 664908020 859063254 190065679 671842975 612252814 844501048 409441656 637541843 42488134 418411639 90361362 655955391 951234482 615454844 494742151 668695941 400475206 445418149 41659679 595379017 326451867 257950657 976218717 946311560 495008218 200167179 70131396 311815558 957254608 193455939 125212262 79484352 943234218 67321349 329564340 57682935 217465041 354926574 850583379 654491710 795538591 997585066 162752279 691437014 489799469 831388414 265961098 392312259 935952197 438153970 321805073 892885671 412345522 573325807 406552604 323946845 105371637 774297418 466457751 382221347 207848030 823471983 16092463 397743970 150658725 389958060 951964287 721012681 771184453 831293744 462026292 829250772 556020233 241401069 436741334 871518431 958957576 657820144 232261052 827447144 933621175 932643057 376497636 265113989 569793628 817754070 103424455 808353839 428726454 564386554 924762306 363622474 364252962 232197288 212783124 10606024 434229538 727791692 708140335 280639913 761040140 495245110 338555801 220082825 159445933 828775293 46132437 345122754 240325432 524022081 366146973 218890660 111458634 424938333 853510577 923734780 374635080 199387306 143480944 925134491 788422996 591580358 150538808 909598513 136549806 856548494 496962212 351707114 821660499 200853235 32887443 979115529 608618724 660195328 487141687 211965641 834706575 564867908 525751243 663880865 31154747 83817384 747175704 518579311 380839104 928986162 33349160 977954473 990526643 626640840 298551606 811669143 952694028 781399892 944908923 43727336 686828594 459022092 794129368 980871786 922531746 849676399 499847027 970832503 640286696 521472599 392914919 36621887 302355042 201556046 200498348 913879923 275970318 906049986 643868429 416955396 508450848 748482872 32905333 700752532 463975328 908491157 418189275 784037739 821471828 77849380 672952170 129065699 271638307 774550991 307309890 601746828 611784571 940297874 605929377 875335293 394907179 142148429 201521998 883370214 284803663 820813338 249033619 581942651 33534230 640929259 878379315 338233534 798139531 873315495 621215439 112279671 195445661 369543010 622624104 917136468 759686689 145156308 680365177 672305868 177899190 692320117 920883780 42389988 151595902 280298549 115312773 789935768 486952644 286701551 162144635 657777909 555563155 678674801 684104415 465751023 121229726 469372594 471454606 832537422 414862574 978075919 9545841 866405327 117575676 364441284 568787409 413858983 126540806 764425746 179016711 256074829 318882104 631678768 321509479 838685298 279778496 378240827 622478679 848814475 148352162 643733497 825506168 874709429 477100431 423255147 88759059 979090678 819874297 25402840 662687425 740982288 211512696 780977372 983444813 423142991 861382437 209020142 457695737 137552477 831876560 954384485 409958065 785416348 575360312 368564566 509657969 583623990 289891676 92411492 863226245 858330878 834873919 184191867 223163772 759601472 506078028 401538586 349130993 470642963 507269300 850390230 544966952 206356637 627703583 931282816 186856385 452863124 62513019 40393484 10970831 909495366 190850058 296035841 901598772 836937109 252169641 170041425 649616854 954777416 39392914 61507719 24361731 25717945 315918144 719243974 463103945 196483107 652466811 290380412 441241135 675343512 867808951 918760282 259828765 980399807 815100763 395569330 769426043 227652468 834862778 597965960 473271985 313022929 542715303 266398500 323539451 326346159 518786135 89619726 924860280 51164650 213355501 351181857 575445274 326660504 482508971 982477568 107133446 295187577 579612166 249644891 312190789 563827872 409353655 166966446 107327816 652390148 336389288 350265647 373829568 282408624 306172382 780703518 785923333 299029649 413597860 848333016 9713107 291265932 593453167 982704642 157844466 551123570 402005733 209339532 635376047 55058709 478231116 959036263 157521564 849675978 236255671 733050587 506504758 532707850 369581242 704690407 70729601 232755026 657671031 311754249 127428752 971974584 318799485 970692627 817119203 495475244 757187503 400407921 821413837 737911074 645804425 330471445 201265201 632365054 144285692 389688428 229720236 770970006 125481538 642429229 326533917 165115465 883879897 776271741 284609419 522838642 105528562 82623984 308060392 292761288 356407383 226448368 823173697 57597571 886229006 399066813 296982379 326573413 659353226 763534655 56678825 795787117 945620066 81872983 882689450 751754259 839710491 287007214 567229908 272222305 76317131 508298041 406905288 907320583 477709184 419059487 410551476 248454948 795876939 444344146 234162606 798811794 389642802 656954303 167029354 139079678 765144935 103243648 274289480 501343640 489520074 130066770 708555198 345198265 629880235 440598211 855442257 322594145 836394764 14828003 579344416 317176479 280638007 675232058 361094573 748938551 24825356 167592466 843360143 261889584 849629981 396526871 204379853 543628799 272179194 450413521 905972707 76633317 304399760 877430887 207641454 507646817 236631201 574625803 145512396 461717684 329347406 409664192 764109183 248380139 989287476 83725199 697900028 836784021 742324704 413710568 920251844 813606724 92123970 546167573 236272854 989799705 892942473 50038803 10730642 431401912 814620637 857516204 8960312 799256875 225582700 289488542 152621357 141080332 898379888 717443868 891107025 266980250 228112927 14865856 681282058 663655694 883052124 270675519 484456834 808846797 715869293 963825702 347506786 554042697 830238664 716826611 970714351 286683868 392506906 753618489 463174460 803600264 92454779 490493480 352069917 232476425 508994249 838668082 688341579 35473987 503224239 294412097 382704805 536784552 156532493 101858814 560383254 494231131 870482521 368350713 785147055 201027585 501502071 18255171 580417974 391436261 697173100 879021898 403259735 96980201 62646422 718311211 722757674 562187764 619619762 432053612 383627763 12988849 331153092 384705468 182068191 778125496 301240000 475797164 202988791 536121579 221000226 934814655 348397837 414193239 714448158 344220105 837875700 668287842 733988486 380925109 902201757 536784631 825343345 328846619 405244597 32565598 390252752 241359452 616958821 27373580 665776615 823661684 158849543 180800805 190565339 869447719 419439506 712204475 111904525 190216379 400131090 185991077 772916738 784580308 493723216 622662061 854164366 177627250 309979784 742603596 660638728 826030239 796379066 877373805 737272070 291162891 413736781 102862393 490720983 123539044 461468812 738306089 87104267 569489171 920491491 453403609 153259516 421886888 673758014 689058872 280321696 37815665 490644367 42675203 346032156 581361391 202261142 938767621 964578718 251878628 57195023 121728854 69601192 303334697 383357370 160916653 896307599 83366755 137496503 856061347 344470335 331636927 624869627 356732796 36504218 779961112 178553705 86422287 746771180 407742190 435316719 714151088 327990246 888436543 49374213 176643223 86686409 290118634 638927750 268255062 922437840 520148420 83698797 243269830 882997310 318736891 210001146 788608591 75063617 176343954 558819910 697786996 408884402 905978074 275665597 859427561 333113071 376582818 763228773 543748810 438796221 184510673 734990796 74861699 943635570 983773833 514187271 625575420 785735735 633969656 998911133 546069438 938971449 822385715 45274633 243268651 848115696 360920115 515861670 695581062 707170608 989733193 309564241 464192292 387403691 340242682 369351518 795597464 193809810 639578805 42609568 99228000 752105503 490275865 925794223 253769001 613584069 757911576 700337923 751758087 71780371 480922157 35598553 874648427 698981453 994236877 983818872 722233081 229390782 6533896 341182509 796598128 478657824 259964782 219332723 727195007 909121084 49577725 304307377 880658198 693698746 826954312 805482309 578905972 278638024 104133486 232020869 578048094 51243931 823705523 759085406 132037634 153975869 126194111 85263503 975457088 781512394 582579427 180776929 753617898 405898218 711915779 220724052 350142715 991885756 73389004 368468703 169615761 412692386 152391659 688424396 494659990 201412318 940690477 544448118 796170284 815803712 955650181 83568669 849669321 614468187 929191924 576541834 526174246 82318182 246746272 317680831 616901161 558136563 943668188 648522062 103869456 15123590 135080044 215296508 863689830 108600709 216525704 610791626 971628669 76237585 109294377 248772129 602351560 864300536 540865844 516996279 419119927 613618712 861144282 303878519 860151220 572205002 796457573 726072195 989882127 415045656 314137310 671850930 407288434 342563775 922236237 466602942 290151886 7687840 958797791 496352276 273598137 223005878 555023943 323127869 378585536 601583543 532106634 36837855 778133741 745705469 43235672 468741640 124750088 76857622 121971509 875872127 320863769 592681914 929548427 807991216 169468111 13681019 448219638 404472895 68560239 748754707 598612433 471037152 1905795 801945486 991799155 396144392 98718844 507985338 378091875 169052309 926662856 102939739 736455011 156317583 137340683 590006052 448293915 894411122 195138626 587458257 145787666 674118364 430796613 458793800 619276458 439217884 830476916 846128150 892980045 584097817 223965608 705229647 471600425 599192673 47309846 718160657 582946730 208320105 285448298 602329258 428179932 314915515 855997245 41641049 733338995 724344656 545050546 755587173 452637582 394205918 972147170 987506297 159000949 431487965 321483564 526608620 697869787 722723434 215672550 250093636 69882715 60364680 74674925 945877420 744744366 544357131 868355014 316418631 607652443 291538094 873253725 139183097 948407203 521279256 927926332 470823913 350158888 282034177 837722162 315128086 954567786 14291958 720256576 189918844 211493313 662195026 623205017 507056244 588660661 124425218 184361087 114767936 830917171 992311215 635295700 362969685 731764376 274507417 897796606 657510253 994466467 430259136 371248814 855415917 314812816 123096913 921152977 275352603 130125900 810580264 565189112 614189805 456286117 703859195 545994466 807531609 422502809 173671879 791117781 887895850 15306523 221055430 120378705 643628797 969276691 6916210 357953237 830443511 667854456 683983069 228948858 280318747 778901702 206394394 52121643 250272262 950509041 845743690 107596777 408609784 533072511 272885630 664203412 283577580 39569776 497700454 860042292 901529506 462191154 944898585 675729208 348904576 385937017 403214400 42093645 831270325 319733391 996003272 660780166 816303818 736685865 82188325 470052093 815519753 834960252 584082541 401115828 834953804 761049553 590957369 448501751 73367662 805018646 718606518 657317633 194182407 175271482 965787190 323765757 553023627 654093565 122975191 835371480 530773183 115247233 966000920 712152658 220297463 912028096 672552241 957684611 278536413 920875415 464155607 489312165 883062313 455035758 773541854 146189872 18792071 907717301 185715792 892578174 668644173 886151984 622880441 477550544 683860059 405316374 631816502 275232747 793801537 860699376 394065717 534910537 289847131 783905108 859663411 349112148 510330544 716983626 951271245 732397084 364040423 258196582 87838409 829787510 347565508 654175792 643978221 105594907 770688217 402783297 805506906 846642693 881484703 392119999 509263388 799624477 513669479 896793579 751771284 942131478 403886254 998161474 816657324 619796438 316386103 897310876 50178102 280446979 314302447 805833710 396596780 588229232 793047056 665339261 829977640 660524970 541182891 613614988 381689961 135495465 900561092 65273547 718710041 123965433 614493402 903141856 953499645 252775856 435728433 616378721 468156414 605139421 455153012 580892386 323777567 932312320 742203089 305326960 663288507 95966692 488606632 68984304 520029746 396934376 987873239 394196121 138644643 951359088 320908593 834062013 144740848 208921305 179923916 165407398 760014064 676497694 904001495 906709233 389926556 311643997 307307854 304011191 995257327 920355106 728361190 703049745 340121035 889097723 227924071 991455234 176717266 10632951 639193936 959565916 694592592 290528648 907166524 569051922 898818748 795035235 699153214 837256051 814975125 597673811 731598203 896841582 182776184 126963302 122141544 583241522 551098771 874373325 469359236 267843958 925729903 175913809 404520635 168914248 280587719 227622948 595366244 577801077 811741182 974084402 312161251 707944830 705184418 220809234 383050096 945608326 273652306 221152458 481788730 758053017 712799767 75015028 881708364 712548543 174861434 630877282 905524371 593303803 279694833 982756726 233105224 160006462 369615977 79290666 299879375 769477964 639489613 921584420 819491064 687603218 187903682 843704878 110715669 996770522 1830829 993419635 288457582 950625717 349485590 399005461 389094460 294525206 732572937 201478700 190090113 798552285 547853322 876656843 385735103 350671321 629714017 962947504 823485681 638197424 36632476 338566639 450787601 261717464 531934936 330988823 592929556 309376562 359037704 949642306 635809928 779313192 133701980 59918965 642272982 283427148 145550445 223324933 472002111 27932968 51648140 788885803 231854225 622507460 175047701 998205895 309400124 940797811 270509936 578834937 267243816 11586603 183223362 479450698 24450841 847388139 813251581 451268336 953737474 42444246 379623006 496525841 702998265 15852255 704461000 146976488 9600719 452286777 233685104 897586939 677873320 112773820 759128691 320788068 91801348 664831871 6629876 404345803 733588855 906465992 901045048 170005430 851812437 756955915 701599853 697837355 403786169 317842024 253541601 480744646 634855963 291804934 93558934 541028780 412734445 685546744 166673142 283643159 59967042 895663786 269266320 894972627 724213003 685460524 251606471 592059474 242607193 741103006 808304190 884794162 178726475 393062812 744739296 864943834 458305499 580918322 91215399 821315851 679970674 907903835 788425703 528433666 778086158 830371879 844239344 841182391 679100912 266179082 551400494 110086278 133597776 57860836 229375361 148637512 473395564 551516690 793192123 843766344 729822236 836969628 911604305 32881104 286613904 906899920 905562567 756315733 856118358 253251546 225790546 439084627 713946252 145922533 474557262 766370622 147646068 412831660 645240439 277325738 531861781 215773565 842241927 200867467 574042968 754896017 945012558 659556526 407466490 971842249 157475966 791283851 733443235 74822105 779026109 728472066 443955766 595604918 725092109 32508841 138433586 770841332 527759332 908827209 168713295 526582254 873692664 827353884 840017699 695206056 9846162 370170558 488542192 700256012 97808319 311635544 642185135 938529332 338869356 537112345 100512683 242290987 763946654 523800895 441463564 537109017 484129760 703465234 619660506 98324226 481476555 207198133 538378484 282013689 882105763 644352669 356021344 17470933 994441485 426144104 668110548 806573967 449186509 401396053 736078472 36655629 92329448 314239092 194256944 782704401 14243907 936883080 57405957 464062557 894555744 402640863 874117257 182170256 640290936 312208662 659924566 326313907 569922811 753559427 311505327 128442778 753764504 51699116 885524216 704828882 444893490 232860429 787239056 837380976 404478199 273087677 965786733 723444547 120549489 593602624 168544384 173671181 924695443 794725074 425311101 748343755 126693689 332366031 208792333 198062464 679520826 223216237 91174043 603429550 3993419 823582226 487281338 539280870 544653875 499792639 107310594 250836303 93278568 777942493 921287914 491238978 247032160 693651012 845849188 430581218 272699573 969009156 830098734 238139759 141812197 740752603 454446155 248702600 329044585 618881739 257952410 702934136 144855550 952806948 288931888 944296552 549165107 835495035 492339134 687858518 200532761 798623596 79601160 500644037 87983885 226381579 920019034 231655273 750442542 230564972 696831982 752509582 108946271 56039020 306371598 904544396 681971502 604045390 45542089 101657188 545270170 501453652 786025413 328995276 811663762 887751802 172805451 844190179 517526801 536105383 108931441 602335213 352723447 421767022 626371386 70647622 451715265 55276924 707004286 608521572 372253359 668859368 309304713 848906755 449350877 653250763 843822835 500527114 722996429 52852495 503127237 723040889 739847319 326086599 156662740 613649893 44749144 726094729 544461110 536619784 968294018 640292046 29547807 779530700 222604056 233288359 125417637 191861227 94889391 682893863 972936302 169691205 428914755 771655492 288917802 515689094 752885358 705845048 167099255 821535272 38324693 467219780 536132947 768758550 845536032 45665914 354053687 225377973 962778874 645345189 35821743 478911207 987224088 877056434 4131457 612199690 787832656 564526205 9432510 830096970 975999693 39487496 624808874 565152137 751074790 753219985 493899775 188010298 420275267 774869731 86032402 457959191 697349246 259996471 974901054 984590280 94362695 149825627 763874318 425783161 395104639 817353345 249250945 551344630 539850049 100517875 339785813 763138361 965901991 350501066 76515829 860008707 912284047 725960885 960896214 85241651 302257695 101890100 636274128 77887792 772392586 123761161 200610270 699078949 850501086 993008987 416840618 953653726 361977374 517676243 915529009 599306833 302710082 200717691 173353444 18003542 31551446 327654902 738272312 922497551 907279705 453414656 623252404 975513196 439437830 357767733 638863446 618465151 6802504 346921572 368678277 826708411 677355095 785309736 314212139 818482764 164915037 427306634 571963219 246585123 987313983 518534512 98832329 316140494 168882361 803023618 477558504 165671445 411562893 321174844 409873926 557327473 258443637 620847463 670262909 716110288 478135310 299775583 680790395 560726510 369530658 917897181 978128004 288770519 241008342 720157341 929575781 76742359 869298413 607872306 687263976 917172289 843378611 176227391 91137616 824621988 536396669 809001890 490406008 62076952 32736151 934558537 919005953 529439756 482983876 240430073 256929704 200501464 77701931 866513985 316101296 352940481 217221757 364782703 72794912 539115006 180380201 378663944 277015204 390329644 553646667 174755986 608085401 733544977 46657038 407697862 127459226 48419807 359456775 487231871 207443002 243423807 60511497 712217070 167331028 448844145 920274261 723077243 137657827 168576003 403954257 955658870 821356489 716234043 600512860 778150246 672324895 442232754 442398388 843482717 773701257 442688084 696854588 589240337 748789352 48154583 927585042 786430887 125649957 844415944 647182639 98226921 526963624 590211253 551726604 645606893 8007555 876813220 169246784 808770196 465548681 939815988 578077756 551100170 761560089 453523322 26824306 951467992 55954666 565171271 486961533 690390199 436050512 811730690 850547824 337481944 188493609 389225457 141535178 614873476 73663410 921849163 448889581 946144725 825947926 62564110 47987132 637024262 185827695 332409490 280473015 13348037 956621857 861823730 328173756 256340775 485291297 958717350 640380307 738296433 714055360 175549101 433875845 209739382 265011959 108218113 191924132 823756228 344137914 775079578 826971703 876148203 913446363 176952466 861883850 47695660 932254448 488419815 8256150 355148164 255367126 208328596 796654756 400642846 891392551 258327619 106308744 524932793 568841026 820149256 208460718 700196658 242270749 943243802 720383169 18396179 174289408 298689189 905696510 511460473 581303871 467149141 443564483 124068351 509313421 299467120 399070742 558373353 425005936 601087208 43731340 31197084 912402837 88435962 402593104 183859594 452725806 399790636 738835637 829466059 712933516 440230507 837212531 554851973 734612656 502058707 916427353 450450774 638115930 6907923 888330520 922162952 629600194 620010224 661574714 563440904 66043095 911910986 547872348 757180125 373469060 430590513 117047122 407296090 20013882 679958407 42948325 905113508 833712217 46794999 248183412 997137564 272320368 677720617 517449562 650472548 131601653 810032804 612381601 612923380 807455923 402391660 923415245 912480172 869231822 925175031 900589341 637684457 130633329 89310211 54130630 108392006 267299131 110683091 133364892 237494882 208324931 613791801 522568822 561632901 71585896 343375949 459139091 840024540 344479003 716901748 767785754 134755240 522795636 212274283 339815999 938863061 522762116 416067764 343732330 109978408 485645718 663839189 380483387 794219137 941207777 586310675 246652917 428633990 354789404 354414086 668684360 174669222 599365077 308839648 220206444 233170697 259478714 615546217 601914844 382379432 329314249 536736956 445555645 877297202 755960420 132365496 139793172 725696570 51989080 704324850 954529039 183551583 555151659 256585935 479623396 27819556 559368868 964554199 352813132 333797281 876035454 575785929 532603307 21388743 157164992 260980087 112462678 264241549 139230101 647156642 390806516 825983271 222402304 580482047 950685226 643415067 790182644 932958803 351712161 72513759 862730311 202555104 186161298 298452110 557433799 398926087 600869722 352989921 378491670 11062973 669407156 884875121 857299215 579419082 494647397 721842303 484752808 287289617 497649559 200109281 795533809 400539096 868861642 291022250 660641946 339676615 292831826 587657103 909041406 123685949 828974798 463815506 737129873 537677717 253058195 98686613 89898216 632983106 960912482 676482518 706414215 987589671 232633031 359489716 17429408 543834767 969669500 761777126 632727211 31712570 364343074 223168532 746805624 829851700 444901028 888478072 84396330 683787496 827744347 349372897 29285841 573831182 768134614 174964955 687749008 231132022 162483992 245577582 199823390 119903945 31397587 330943567 350475713 774262286 803107816 505091306 145983118 886626019 57972822 531390978 35999343 487338067 603337246 841185963 854279839 420879141 51063622 91098937 965614288 830110389 720917941 241272205 197786446 579751576 465606713 705528523 857392437 99395685 107502058 123305527 886199302 99920293 663388564 20523458 549402687 631028845 509612145 948194267 388351203 842803122 646621504 539875835 632652787 188871462 247943415 113988628 127968378 23054067 988239336 225988178 585642734 456875605 102872792 892376145 778569681 297572042 497455237 797839780 15209125 992798147 59400990 222432811 992537442 479449890 985867038 206850498 270095494 888713217 629161363 436570995 203061445 816956180 238515945 434664121 26521138 600379869 31843937 666496451 681851179 427061695 928110370 98219888 814860186 89848453 102684332 465112300 824527097 250635535 151244545 248405110 706822031 625024784 268133551 466651318 655948127 767806930 464800790 832529518 396434059 417600297 448958368 120711582 335685679 856874308 612106671 467331504 171767443 381260284 309967090 500407515 623441224 155009143 557051757 715207732 913594285 973817327 419763220 406857756 117277944 353696035 313759303 319478856 954082295 636727652 393950476 972642137 893913664 609807768 656908441 479413956 713274131 463953917 724489079 240002291 941288687 599430367 707671183 376527574 271185812 520593576 194883728 718944642 567571533 106378177 240760982 212117924 626761852 574608255 950274439 103912234 616447333 91271803 741031793 756515350 690604387 736917841 406380060 300707552 538357214 214505316 873047405 837619838 305880956 660232099 779398989 753735712 506864046 81053917 696384914 192259362 586059355 507795838 732221387 631862270 712615949 372298299 605350768 640139416 915268606 608497735 565146121 358549240 874053221 876813116 531550127 756916770 18996598 938922470 303059976 278796993 988687272 455844685 690068883 428677474 720896883 117028444 343407589 162030589 120184193 214996026 524614601 742139353 852717796 65268226 35504701 265932443 560028289 733850701 349224704 401143941 985320637 52183216 254391240 815371466 363715567 249869442 722766610 805135217 439267954 82210256 979719604 98049848 104210599 298822476 99555543 263372089 18961219 707245133 506701233 45231127 705293685 858264840 784847871 153166448 86629939 511836615 640410035 553473442 58859231 69974980 230153417 100423917 376524063 317264362 20945864 591026958 497102266 988073990 824808279 800249806 834963177 924540809 536072364 935630362 929518059 41148548 332480179 61018416 714280457 836709952 818255910 22362479 874653545 364279297 827892299 831341498 853321184 789873594 129082475 362147690 291905510 755296207 421554867 452251449 759633521 40747974 798790153 409480691 131366159 383161004 774300332 677384843 462519060 717011893 336083559 487180875 330705951 124356595 566213131 194425095 454497055 29735960 456447696 646741548 150010323 154537004 722797199 88216086 556638856 431010979 535628739 27369650 670379314 794904718 322917200 964211653 266652494 82647933 315061035 904726260 468670149 240675767 853884328 158659627 481486075 986091966 362028754 702476315 792925248 165921490 8643330 58351654 449470505 299377681 482909705 227129404 187514206 495303709 467146193 842265634 673575513 421015902 766182580 327828370 119079572 99100268 911675012 710248563 740002936 243756553 162592058 52878327 849774904 526299386 84430907 418107218 247144116 41881143 375056890 631752452 654793787 219863360 231131498 717933506 954451688 531531866 883331489 353599189 497825338 799915708 796599414 474614412 146292979 338543856 779558649 831721086 944513489 646880107 578508144 732919179 984039817 942782012 65872707 887206910 303576285 942649088 978459155 781671996 185504840 261819673 697899840 44079565 573280854 179062193 589091789 808266663 141002867 945610010 853261225 920769516 664814788 916739580 245734630 340100135 296010433 620818838 613643392 821694525 391413145 272310619 210060939 551788353 903228287 101330210 593424111 199234245 104398579 899672309 44530415 313315679 634881087 29741434 680435911 684530203 878008489 461966941 739505606 925835030 838111670 76449002 54443710 480337991 439588822 362923146 457384479 825838153 963916120 618366663 777592646 808938035 171654821 215962896 6782984 161777188 352083409 46790677 911848534 318094860 430091278 382405261 833511417 251795845 16649754 366152184 97016787 7833280 686803202 421966501 966960216 996693679 398110884 661755087 31429108 261791753 729698181 880379155 840670111 857525926 233716310 977313960 418824784 437782028 352993913 644644874 646226810 4679694 313185027 664280215 782636125 251004510 107043766 55822885 505713888 744273801 215929036 823881487 328301745 652138679 14302345 195912377 850696088 88096567 719605382 607312431 971036941 768056204 703852704 474477453 68850779 415960252 403786080 517333003 175567184 192654246 641683984 336264900 887489575 1866476 265255504 876478551 987089182 629905305 274176435 121956008 269239289 680481171 368239301 873361027 764407713 546201403 254151390 910772543 342251026 995004608 595503932 188904916 729227361 668399639 636118061 847549469 482239913 681167000 430498411 185608474 615561009 986075000 726357629 584687963 174171998 248055474 308983726 796050083 359499025 612469404 37635996 849054206 512887068 464401053 250448031 642403123 230713871 439276341 391738446 906258473 640026987 151675796 754446515 295443689 826842668 97988539 602814619 609600075 177580072 850222345 802178860 341717999 546943268 320665236 256040968 298083096 243776985 104355576 372143172 197973112 600554599 566853304 891585399 352196219 836347522 838348719 954927709 856563750 342350843 249120694 774170674 224920315 75515048 191105807 705891469 994613633 26970567 77927734 652167483 659168414 547825928 278611534 503223740 797121438 384079284 606367740 924213117 738635177 600567081 457254682 191354971 900365856 243225207 34242987 429652555 173003159 499377816 12378766 480216190 814490740 192909360 710078343 686436088 472913636 405030669 554399913 919167866 950077551 600593066 53191926 205235041 334604495 281523052 779275206 320084264 913530927 482034135 542645984 454605588 953646080 53084049 951330664 839455392 763248625 668593158 704617926 959796543 387053395 953409937 806217763 32946259 895642748 571525982 107790746 739760877 627351319 725320904 768694468 282842548 444582371 297294495 298844904 55876079 192695335 300162539 233626476 611665217 649350168 981785659 22559045 785983637 672418102 952657057 237793751 946092234 990704203 634925106 167162074 224838166 196881092 917623741 688319441 106011107 670660050 317972041 32054903 335557613 990882509 219804221 988929769 725069287 808180588 471095531 290644523 639315116 376635449 597982434 829635071 916542633 755101797 532162581 802307624 690849946 110595406 454587878 343486263 556565458 293541794 566357857 871991053 147691620 405760383 442961492 964840504 115930678 927522867 974108795 142893762 154623431 487801635 750799215 994019469 837674301 938901097 677703361 614551047 51692565 437601211 140148230 486540257 15027794 307826986 309672410 861285936 238321899 665119269 448102703 82912445 769991489 809053177 583209026 23505975 231195252 682116020 643021303 854186136 413304589 787151483 355301732 489339086 100020794 462835119 272192406 624593276 967155518 148417265 687360356 29059015 393380329 534498125 854797633 419280209 811852928 617349003 553828191 697478155 649325458 24403160 726251058 876437968 955350747 154522818 17019099 739695348 765351641 895379181 288823047 505671937 767075074 193617289 667747333 716827114 158382660 914222756 824064997 404040504 145536604 947238352 55486642 841278466 949020609 682869770 681703811 755413912 279097944 360974869 987003964 880142816 741517403 425115281 105032750 925586743 960700268 22673415 709694242 220748092 310351622 398189595 898573226 135958834 837886573 908998838 468080807 956595639 995453726 364987647 995818820 30887781 359054357 868471708 672741278 459315307 985495757 365448577 163621275 911709356 212210464 525918983 134435382 306550521 942952118 8336578 673632516 561096767 320678563 805054384 425063267 973779747 412208298 366365293 717030113 87238629 645921633 613102626 806746289 70691020 854101328 964334283 817914381 582043890 22834370 577288853 322471687 868483041 129863420 803099964 918769557 496691589 745866934 300689749 96225413 157907026 181569041 389819934 430577417 304380839 980814233 90223680 204518360 556191958 942474729 193129341 921647507 393704009 802463866 579172774 680324001 125162959 106642417 310113562 240378501 845724284 315097127 289852695 519777935 495292602 478899667 722982975 58465099 730292523 572347310 323168809 982159388 950145244 554140738 104882328 603258305 595754937 351167006 568933116 42162727 925153537 192141897 865776155 802072967 699547168 470640656 903043245 734114110 996224500 500057039 663881061 675753536 665555444 529011801 249930758 106792258 723949786 235713372 156124500 161358104 778387500 717482463 489250397 430090446 178924087 717867672 7255726 361417944 765182109 703387523 404807974 644734533 390704123 496494357 126715102 818137781 378836545 995241872 105718250 609833121 664564222 987342406 336920610 177353492 88302750 457794095 200395967 301566473 391820444 327227056 39418801 515755447 758754034 919268513 277553673 289011108 307766796 231714139 216404977 698013222 45010426 327473022 986268619 677737404 631860334 973809545 144472299 405195565 689422482 447879252 349265136 811942750 223391095 286439384 683822614 547972155 424871010 530145979 136261602 337615063 914171601 58915504 32716690 697675001 135587824 64300185 291995985 225506762 569906797 489502236 754383286 140077016 614215465 224067915 403711303 214723663 112557549 477834493 762844619 901502080 873096706 927415064 611280272 38619379 641067692 479831395 791522179 317639586 714810629 194319919 520448175 109869232 558891192 116963788 454002330 657183288 857160527 682778495 326423561 336533955 896401320 72309232 24483256 889545183 391695511 93118792 903941694 30361602 453822468 48894217 473733602 156399324 365173674 62004501 595769980 366353358 8446209 113640529 699983236 467571151 634447395 164479740 25558349 9520357 193596331 140186918 411901894 764268750 452068331 549002473 990012120 451588850 794322075 581874926 656075335 683757055 972166849 921332020 629041982 501355518 701506320 694104920 646800630 201216033 758219850 724437803 29796873 576612126 195191053 871649728 845969782 299989427 606399759 863486145 63819296 525569118 511030919 694337589 546567198 581243406 748732722 726156463 586348123 482189686 170410346 671180816 345859313 214741747 297812696 415639791 861684539 194508135 524624311 76062450 550247225 584913918 807482818 287366020 38537620 688370884 481283357 359482933 182493013 142349097 293343490 855984694 450468839 535534341 336292816 25279478 444930726 56426456 30440962 268628996 663991348 701423080 45651849 481594133 410993379 1301055 39049320 499606177 738718190 160095107 681997450 122755813 785394072 434768023 550362127 446489483 771854255 949706722 25868158 392876056 398120628 117417017 893878563 46743029 877916429 917355587 314059197 952158816 515386024 827631011 768181274 655173697 297924428 711692876 388585865 249601688 49635755 888668438 353427977 582155155 327804605 599189127 469454314 180307276 149969832 657861894 310212526 145039464 510233806 803148705 41111317 164420071 702717638 636848757 791719434 633131571 494981950 328000650 913790361 833384125 577353293 55073986 408281020 562487662 828474807 50443191 983840198 723258258 168555810 631918300 363390396 592315328 274587004 253898756 614791551 348229977 748072207 559222005 591833060 754656739 515463386 482355766 888963197 41251535 316577914 247396298 86576346 75281642 924322158 276526272 224879947 834935241 469100538 832543613 63860994 524393438 509262337 491836801 626708023 386770773 813689796 981585624 701861918 904652049 934564677 666411842 787238811 400378493 161222215 300056589 627218742 251198885 23561348 750712504 911165524 233334271 960889183 734833004 796817961 168126225 324811549 463760991 363083705 547386805 572734716 137116557 734516816 78270070 776164838 822471735 493971068 378721496 880625370 769823402 219140756 464055140 262466086 51827770 153784342 778887245 591010518 686183473 427521362 839412544 459548612 105848873 180072937 908608596 539770342 420730089 375027304 899276488 862493323 673194957 461536749 762975507 991623188 246149890 423332689 779469412 149881330 942053929 439563648 419799271 175374882 265561600 280506713 815239244 385631131 764656542 773756644 637547926 533917835 367188194 101618912 662001278 890588766 498358640 365231535 527487070 80194432 233503605 84672769 256645624 325353557 208068171 3341186 562526939 418138992 172088694 468251726 640773658 442199037 483215335 887673841 243070893 421474040 957230619 635915709 363664309 589273646 817130715 903862959 119726572 731548999 161810398 24226088 156636558 331378707 806010856 452392943 328004953 559676112 40423695 427657112 251413714 59254698 512397696 900462842 497583140 524319357 667647258 816217121 127888521 662412680 153360209 83290800 440772657 870648871 124058025 553055783 940698473 53250157 787058650 482672076 96015925 95553815 92338754 319032731 552855747 264227562 227157506 263779848 133679040 870974641 958116982 830752863 734189745 144662943 833331693 491307575 715310590 879341511 878570272 278706564 120017909 768890512 455526934 75678040 643138457 766898123 906696231 486188758 729220145 589661369 481417826 296855320 777778891 370453397 119827770 484075370 19965871 178011054 791223070 401975309 371839206 369836046 68141476 635049588 281658610 444973742 403866713 799925492 936667319 596979022 220087600 80163368 293914745 962022788 994978368 321372077 407869495 953215292 371016612 558199420 670049585 524920327 505760118 976619126 991622412 585983477 330709073 506741402 54713628 772401258 618802237 629782091 725782146 850683663 262513724 510798855 135740101 984806885 477439076 580418239 129139627 921736102 30261458 483098681 990969851 757446330 664414571 466931828 443046945 707383031 164889101 658338102 524501 533329914 315893999 744739462 411082168 213710358 473804152 811692980 688144055 25554237 423381022 592413643 93313311 156768154 99548354 821609451 595951369 840016621 617887698 545281075 727609979 556084375 817088638 102788106 36264162 914565232 672472698 185860959 35991944 933274856 863915095 883952923 851100972 648799389 798843468 800862056 855274625 433091204 143477964 543572147 592274087 367101438 640144265 379760923 356859176 542037473 144771217 574767159 431817954 257398470 446435353 326881068 15325839 571654227 802551607 692960005 170585096 849871861 274231507 115352726 783726795 104163339 259550032 476135796 733066728 833916866 329142546 776797119 955807558 549527117 790328041 64259838 594850337 392240196 424435070 983583892 703070205 810249856 597220237 643168864 306789773 795410202 502780700 453340039 974783539 512606560 16458663 163560294 985365493 330401200 30119174 606811030 216170951 859405921 584726921 708252794 251178108 965767898 658974786 34944584 996263320 350913349 72571683 164263653 832787595 69091405 198437427 201255167 618690604 812436395 923892503 549958091 358434252 357559699 219892718 311319094 65725805 454483636 880507035 377837349 821505509 637444362 625602314 212256272 890399112 665283581 934804422 437891947 471390086 921326215 525103059 830840701 926626472 280376425 164608871 761203109 617802550 196161991 725506047 104273224 49301517 224382763 428812918 562338302 123015973 520599436 889435749 650062669 623357701 88260828 715108545 598355289 215202649 890298212 653551283 430212537 702578577 795758461 254563073 548022959 693863857 521199176 32387703 162045272 213764376 965217878 987243750 497110847 766813961 258400679 846944909 942367480 63447106 602339610 665881419 542216622 506410648 931005035 199797507 177574361 888088272 381804254 881266434 366507680 349398979 561664285 54483034 318135760 699354184 136666745 809732514 835002763 456836905 667068631 60709338 813826082 503963567 88783124 475069261 165639626 554374956 584266009 312802163 337549296 835091069 788399148 475841201 65891595 25498392 735723294 124173748 253415204 627787175 830070847 714609699 597511395 750368275 651638109 161273617 308601753 419299279 990109249 576584585 506438904 51314997 476457954 386780306 584821520 111355310 263792253 635685976 257521402 911744797 252244702 678824036 994484699 461730904 661591355 129138770 990386524 340809042 342869734 661781349 284949967 233617845 921742844 496288474 45365745 535162500 300773229 864405387 720475031 399316383 173798926 990272986 237059734 539526271 329166150 902138493 652303720 338431582 624097034 328789789 357788810 392961485 633271513 887881273 657706919 842111745 653737192 438875728 284688271 96197241 733213620 810822319 365308642 185811628 784734770 426181611 631161396 125382202 972857872 713547769 718459638 291119728 250529171 536235353 361540840 152559213 536727249 310167618 582735465 249464854 765360941 401991185 304246287 720293429 269189564 950112037 916484748 346305692 142943346 627692950 466587405 482472324 194671491 872747532 491932856 308743390 877181443 85068818 897949410 460860407 794147780 53219863 946246124 137666831 822612972 839136320 275644120 14035839 285546668 832984236 416277770 867714129 438542224 414342954 192819069 220397175 673151985 291293006 950920663 597547363 287848384 332539924 639364356 12912190 79750239 963718899 836972547 617820710 500640091 475059238 767772648 567953115 808007784 586249679 51511525 984210329 992232941 991218653 852853377 988241735 627421129 869743180 372489431 959824328 614266495 173073179 976916614 419484663 391611473 544871979 237858689 658105807 776213661 375236893 237199333 26784304 350768189 398787613 941441894 730041242 808409276 826102348 409487526 556954958 503175121 420024394 360312636 262708160 286182276 762395795 196058313 775714283 441959874 489384599 203594138 898453925 491158876 481180221 962944829 379464284 335418467 635400504 105162333 794637929 34332425 721811943 2717438 282692768 511087463 838052026 320938294 907810727 212527508 236890253 436610067 130940456 977716917 124286114 465499778 172628940 965958080 861545764 36874000 564333831 977335129 970118931 170846187 103300005 346194433 732384236 636776400 953598735 802351955 492871880 973659771 162896907 707177364 261581583 755937832 173626008 33622278 539153262 219186119 670137332 526609505 970449234 936583500 657319279 546908518 752151328 891537639 135113549 242570860 468090929 613426723 372219471 509876849 859675772 719712656 299010920 721453175 19587001 360060357 426972433 79299992 58028347 524546674 383301140 700763056 722107195 758174905 451099802 242308561 273865359 297629461 647595091 928368270 288970182 780412275 475437621 274405694 62936281 997037842 455077208 986615845 762480967 332554799 833941569 768256322 693153733 665568416 206556787 798417023 576301729 302298486 314851239 754484129 227246017 553845350 645634402 656258008 641262298 40602134 133804735 299854058 879948380 662191212 950777178 793330415 682931279 801410217 626631794 407071546 418844078 162006523 793400084 17095293 695993788 913369828 79802898 999808639 525926700 203127203 490024898 448242962 944679469 257279543 774886218 697264328 529034633 561692095 933360401 366706923 67636189 120205681 261456196 332512308 526161875 866343324 380424176 706188461 804598033 358808235 705783191 851662800 206942948 36938343 399556128 637917544 230485668 113384641 141145353 351218727 638331938 521057655 563687951 270233925 541715792 307750671 236893442 807825299 630623127 149320106 733573015 106577840 729274582 747435368 148924079 816225512 613652600 5310879 133074674 680975798 829267696 26186378 862443846 585548264 527980378 677716173 271870764 905157685 24089520 188927390 445435292 835841114 547026369 320100816 784876501 648068731 135605854 845669154 563779328 328180393 437372288 938426361 526492040 161926294 85514844 701023710 143303336 246070192 34755834 866514912 938905804 518408781 134871978 337814235 755998426 158335572 994872217 851779102 443003062 837942823 941492973 110221440 374492886 70784373 732952223 842908036 589856169 15171773 445161849 946492155 918609835 411909149 356173477 580312023 9042913 915492658 147676819 578582146 733383279 846453367 220553738 250611958 190143619 685307907 571494617 432110828 934273904 591415448 357818574 984016949 835026131 277356710 243195318 521174281 471192713 103418858 497031626 786147824 710323709 633216186 722925108 580780022 981853316 938164730 626467321 369640113 926238965 628749585 818916564 916058265 726525873 91426206 609525219 195363196 88646445 182957898 980943911 203722677 170979762 908597399 185400067 203631270 344657708 779040091 776411738 586515535 124151519 420453120 368941262 258366620 989529101 792950290 97414639 265463849 289236288 223481742 416188456 157153148 941005932 690282998 959206064 396464839 649709138 501419601 196191914 469957355 19721854 41514126 223226832 194888330 831297753 10756527 125405423 977450557 716642572 275511677 637534952 113249768 541720350 312782725 496326058 799295088 771272612 683938267 831195271 725820558 793800591 740814805 505409787 756994603 692067846 30032780 941467853 444356435 585049396 944500679 287505870 807213351 399283779 364828509 190740655 645077760 612775153 418914583 464017469 675100806 730225262 378035273 325178966 467211849 555587486 740872084 753004556 649126880 467471755 290215147 56322519 575963563 425903307 919929947 735381029 392551169 778396715 543002573 921966767 213335062 692042030 866210328 252600375 12110218 603097408 271738570 983321061 918529658 227404440 797255656 126211712 227961952 771518471 430315824 130851861 849683264 458269394 508159025 239534952 95111732 86709408 294044596 531731743 790241161 729552504 469259485 147900552 926993123 59218219 272134529 850069393 430714541 644532249 344198701 421400854 492788803 517724732 704289235 492768531 863994318 847935696 298629157 505083686 383215854 915938728 5909932 555463903 980099641 818279903 463112172 976580461 973762622 165958237 272640964 769320779 122364384 891817625 443480558 752860797 118214709 637735195 902502634 457430843 615015856 469254217 696518980 571419051 871046077 886792124 585996869 625428822 614854782 117388856 230235698 933280883 464674810 594827331 65849397 806932601 530768807 580993584 32390468 971847223 845841979 69015326 858472052 53563794 205738359 341302411 634825936 567603028 155641600 269663686 681379209 935227786 302802732 201026774 573389702 661846684 71625283 400342959 412380970 517249321 814116818 563151386 616604378 739595140 648622274 497066519 198439560 247288216 626907588 470181179 239519230 13375192 831061579 865824207 543897806 130581288 680795874 442492990 380555400 4801305 68644716 188952121 715455774 359799682 228468404 13864806 562230450 518524178 383609690 495294507 483836882 108904628 787467285 372807769 105649101 326612419 710191927 308247317 999913275 486702769 240968077 106671028 606381618 990580016 413762515 430512268 466601915 584061368 91402373 778091303 219661900 154862230 191623956 887090421 531503751 322676312 725348164 209290141 79182186 774491808 195976529 750083738 689955362 399000385 11435181 655897095 889475152 421532684 709629876 322970842 485955314 185371608 797378745 476310132 934630184 390679450 902493736 366248856 387191860 540840446 226447275 377319148 907884528 811925602 76205705 25160981 344144656 992674036 525477469 791381167 4366986 774030791 815759911 479535185 862543939 658612204 36278422 657254355 744525201 398530972 422063891 758424743 28542921 744020976 585903580 428729319 497247208 751908664 992075362 789879005 506427407 297788362 203418332 12988657 1317940 817507464 803005322 702846620 675030720 235617461 116004693 293729222 210494125 30913824 861091980 886477040 937557350 159757710 90719290 483367136 952089745 536031301 915799104 25879465 17707866 82785353 421753829 713784051 459544536 36936837 593830120 860208812 112070981 945228319 844020546 798788577 22031521 290376459 907317702 58888013 291530834 676958634 371055427 416198276 321358782 502865952 873568281 46052870 916404296 958159034 995922067 391061118 566471258 443561911 878928820 663328650 199530371 571235536 432001340 662310497 135272180 22830418 466277653 628219462 464649384 722118456 415702475 942978207 656292499 684976664 274196369 698099635 816202388 491360413 820644903 60494044 143095741 939937798 920785106 674466904 450459135 468154143 868671851 497546276 445697737 484138168 893324507 529564905 324755073 506737875 611324014 33275915 64289131 61824230 506933083 366480046 741217586 575753135 672948377 163615713 300855054 103623753 956007543 492358560 780407914 715624329 956112880 6291380 205067576 932662925 476761565 684521305 936692971 409673578 791913605 761514500 929098936 251861290 628194070 296228706 115223386 650852702 97095954 642639139 195118075 209878098 829507812 274838233 268496608 379054696 124605058 953008199 173046293 115705688 860754256 34831417 216893050 936103529 563140900 424990923 491889736 434288499 858974593 777033676 610353455 930436956 739853623 946845522 147655993 234298923 458916137 497688287 760817471 852577686 320835751 929080910 315144679 54021284 749223989 940762842 183427347 63166264 807667202 738456198 796243110 682356985 54373845 695018768 505458680 806906037 667260100 854917734 373287307 940280393 500499313 237792484 606555935 383814536 51978842 277912342 992992091 426050191 718949389 656975064 886576722 383973216 478714672 274836254 920810459 811284872 306552301 948696522 419545862 698271274 788873702 357075133 985462152 997159008 852985738 226093909 389809383 557514469 191404206 912420448 688699920 300574970 596432742 855083933 368782337 220593593 178259599 64705956 775442469 650283892 872586698 707409384 845696537 259280712 250924320 444807940 576054129 610410745 816806226 656080654 20703678 44786590 893771483 131660697 338550783 474680563 640376596 760140668 292408336 639384953 856140134 784524197 130617102 277680655 853397882 65460917 657701245 487554417 827449533 329653133 549516871 113319781 184316874 799113168 907072339 684943247 539593024 575859405 590015227 219512799 741680520 198734388 432160657 712557385 443874216 463229773 707170467 766613734 296655683 638449202 137459509 262812232 618272326 408545258 525334724 209884444 805514539 265966749 180955155 359898538 798582541 118697623 408126039 598827050 833113375 7133799 76119793 281682463 89357295 506418635 471188020 356582968 480823898 755753 579497733 217222766 871182184 480862286 870402546 544268217 219913836 224623870 209171686 512735364 919008510 495235575 375892038 308226047 661485314 183665468 244339676 199039685 397363754 117568738 829422604 63644635 191300758 439340319 391468703 655394088 101211961 449257287 856491813 683286179 531916978 166444506 710009663 35236672 938937717 803108458 906314141 156774901 927495956 746853597 398959392 804145649 742701493 809758612 746934569 871118048 853661132 882577282 551913313 957150855 287046539 380581100 629950672 685041467 930822999 427738918 287092195 638099354 127557859 398615030 539020861 608940262 223919996 545570205 639508597 106960071 690860778 722138841 266530314 723709728 633945930 83384500 382518352 232778208 173003330 135368477 520932243 562829841 474926196 261171872 677626720 853109606 104769318 718618048 846485311 118304138 526204205 72853688 531180942 429342723 710731334 162369602 107688209 966635228 713049054 836527488 295695521 146211431 782538611 369268841 636386644 449867565 989118881 958067351 897704169 94738452 435948204 495190336 138561562 947132435 744067139 215573539 461941724 777696131 335839334 723301133 784815556 107246235 747786263 745380217 147064645 638997866 738328457 613517030 887263621 544130164 616632212 770640306 296066198 873290712 476022329 890957896 344027769 946648552 377650015 795651457 650498805 667068563 970340168 788251216 770012455 82913423 564502216 51537300 26141784 985007930 286799106 246691365 226054280 601523416 955114210 269506900 605583165 991428201 832956810 321043431 624030381 172510628 282427161 783613656 876584037 425637057 259589119 699523127 536085630 871744009 744726624 483850953 118667826 713777507 705674822 960276139 145989993 661131458 110131537 967367255 871872179 553846366 10135056 446120427 149715242 473093065 106932004 517981698 640715083 688640648 139209356 278803281 209644545 798623242 9461603 989081992 304220317 811976597 796725883 903164188 777017630 974548293 329362691 914791560 125529587 535831182 700256863 394035184 734233850 282438761 268255886 405110907 779330881 417722706 979978020 716993135 800077481 4240793 322840761 163699238 206965411 162746504 461496735 800235365 921838752 652164310 687174747 347971338 112990711 299333072 858372380 523270050 502459487 854610716 694413565 579687665 932255437 441557281 596290315 947607190 875462115 165587920 674538800 938200842 441581671 374957411 956273990 446959205 183604607 524614846 728279728 451892020 333200157 632152522 610856635 822644048 460860633 813796786 889899862 781533943 393223514 129391319 562781720 864989149 796559081 177450520 747184025 653661498 562609844 216034388 618680381 850399179 202511599 126402249 121697701 944185152 760448857 405461762 929671528 48277075 186275394 381997635 944930054 255856828 826458350 625655843 533295533 309274110 120599065 905255339 458345534 458975666 936995304 697023325 897588850 122213501 487918308 688387221 278046737 58046883 920338811 742247589 753577201 398210098 435926699 570553199 680624662 463572720 967861674 161273624 98586051 153700153 49154362 471920247 511347391 940710147 603252304 720219475 559680999 887618507 85600509 984313133 943819648 374935891 834813089 63582041 742133844 894176034 851609277 867650304 603426124 274924812 353270869 521293144 472318167 218320399 127351533 979577450 92804893 202599774 426104963 222372056 533427417 377260157 55365178 889858735 266812153 653501508 299064649 617468371 322914438 390633319 818207461 132057948 643987387 776659992 793678664 47593747 533020704 578586567 46813304 766541036 384280085 869958677 598442162 196157028 85686998 819792062 254505122 658193384 51382240 870613213 236589604 905946808 812485971 370865658 551300139 332383872 928048390 805639509 994054985 437335382 76338451 136429830 4313160 64932103 141085995 716417612 255739293 286341369 446247438 451893270 104518858 170104398 192067569 104001872 247173602 713412066 335754562 161094988 426442134 459681240 550643224 333076306 707522340 614741966 332774606 317602906 464289319 820108554 505862066 263782462 225576294 500742260 659316533 454091318 140594540 550253798 461455208 237718740 802783064 881868401 946557075 749608674 519293854 835896735 41424652 620796656 586965183 967468929 843000606 45258580 212553160 781784344 70225982 436016430 845293162 559628892 665933406 298618579 991046175 742886951 897597440 647947414 288637303 823004604 453933947 187668252 106946124 221372940 508550462 402893946 488106903 37155042 134522688 813924164 821783669 735354826 685590454 227898731 157841977 371437039 967977131 81750861 965285282 720979204 564401356 988994666 994465829 237766347 925390914 775115246 530674468 58357724 726523274 320256641 952777045 307309063 903696839 288147989 222044616 943529982 809290297 299282576 426397646 677443796 536982924 794738324 409330566 644995879 624468097 209863650 873807693 936395793 914746022 73920080 859269517 194051486 480022354 514881751 5229391 272017789 866828900 269354596 468202569 679406726 956824864 255433851 801671872 381873040 866256388 249154806 865739098 683106170 614723777 5411834 141301317 581925621 144527782 516981197 396598605 23267370 501746591 433081258 253785553 653499107 484347221 760616269 384451023 695344136 923543366 5929503 549521719 745931568 243992617 374725186 138308348 907744875 930328671 83213233 684289112 742918290 62527062 894518948 48900946 141034003 9318872 482679963 454257760 348625782 749289977 196797437 958861596 983193931 83479776 533102342 169074437 464927197 504474527 234920539 998066553 212629235 977961744 179007646 630969179 479976870 842714384 125556489 137458235 659622123 534861695 165934817 236714122 956712949 651651300 579239042 612914934 85965175 158298487 368018315 235320608 508505444 353594765 816595697 111099218 343643420 632006310 485949031 379479101 853784695 668963772 569416547 760892024 121325135 101160963 553776754 650442331 242781693 428485488 166747160 271809567 295936126 381941942 14177739 501339875 876939979 832162565 155663170 849594651 383934796 839977317 100354653 718603550 905934839 100520258 65100640 291827369 55757995 426659221 147443146 590133793 953613591 567086082 833783507 596303664 337779164 865542253 708344198 593149573 568655890 331837654 77003602 406740131 563511227 188534764 220974628 142976886 48451815 31255582 779958982 182695192 728704144 165396958 445220056 846540555 922736502 547874673 533493397 118087601 980706384 801107948 8074200 660888710 84343975 102884828 882392374 308138277 569232089 202647192 975913477 733919141 687192141 272902143 774808653 34103878 288224590 424876259 533250324 552569239 249674801 294075797 363430094 713331825 109091094 726961064 198156955 906540733 972601613 120760817 178891055 807920590 693960385 465273834 761296508 221073908 856863217 165171166 259402986 881825903 924588371 780197850 315592157 850461324 871062733 5172795 776245144 975784807 595727645 924107290 162519979 466670666 434052654 232195153 774357685 832507105 529912618 520288893 52473124 816596082 764180871 469028865 513518533 161823259 191087042 826023849 953175938 796397521 339488481 859527369 747199843 966039346 407101794 752906987 710961719 888866888 501780495 265316323 591978628 198865147 325665687 378861269 769696904 457002895 705061679 471003248 992756444 154538422 269008378 346772846 174742002 487279802 545700374 845015245 973911951 71479603 107189756 992476359 180717647 801151961 404395636 235693355 99283631 235147063 257050441 778967533 52100165 256613719 435496248 178296946 553960475 366378441 317938209 511085032 642342202 145461797 304801968 320964750 487767245 837784377 495326519 456797516 697486101 308002123 212833458 767512651 757988086 498324090 30811282 285174678 677664868 440596202 377244253 810376634 280689464 47314014 20315009 385116511 376101631 253714596 935768664 934994496 608964379 912022136 643969273 18023621 832059757 441644961 278212840 489035330 697110205 779144967 11759730 18946523 354535653 13490547 201627906 97951973 997976488 591189243 947556369 846326427 6785538 653030232 647278069 731006620 407107780 884772485 385658909 502186386 376504006 16978958 635612954 407941230 382590603 753887577 900109280 737882887 337557722 316637461 866614627 659321762 98712270 495311232 759152060 740340987 398920513 842597944 69139461 811438278 324792494 87751178 181632130 483324214 364707987 567322731 684160987 925246187 710383201 496360838 654004251 93874860 833872223 648276242 103086508 23695813 215512262 302930820 527490646 363331749 977209679 886510034 564639454 463516039 162911703 129064473 613190160 253464165 739993057 509489311 934851703 559972013 211285463 367460999 367103630 272264780 810507154 901085395 144333572 500799427 436802247 705338157 690875726 579547730 314630763 727997583 88780734 810747797 680749538 413912361 937518046 192628724 436693722 951394260 826329447 44710354 217042692 206232924 655518166 286340457 578001059 836433444 904275850 783314943 279877247 641890 487690740 626996631 872626982 987381973 2384210 248822489 958698171 8746018 312874944 914035311 205650000 369039268 587206695 621800880 40509997 651237110 287806371 746786937 859920493 3069752 594954470 425940644 61201435 820478527 599965329 763317704 41138888 135534512 789786663 266906485 396731538 482350010 94456861 550392907 337622246 161352202 70304069 662300213 52805561 115321289 255982498 373641985 464179701 982812383 709327537 434146552 87666041 6467234 838511406 486556874 265343713 529023031 314713645 732576844 136681955 475010826 374351856 172050592 825352830 840750771 886216940 819228102 99553334 322506885 854512680 919729199 207007958 893617343 743108743 50600630 292959834 276835826 592429870 243568801 429258697 661024237 55806779 437828732 256135708 952382888 980275301 291666858 439522007 801304799 141788125 882950726 218033478 546473390 267367777 53273462 394588896 396944516 254309868 591381299 763612896 823440520 791751847 926908459 423292007 667496708 611652983 404501119 608162430 261148452 760809994 954625199 615567857 900648365 141019004 817691051 910751917 684676442 975468430 916066131 73827578 140247320 895150671 417399278 462249392 392201355 453546505 534340734 910750079 721760010 675453148 206981978 418525730 402548506 72866970 678982715 968547418 719495784 512884486 936438960 204262818 984786007 926425269 962163496 46473538 141185087 599874707 949205298 154206201 728635 453505801 760003638 512154552 575467793 149488084 352971141 706397943 196534472 33373318 403891928 564684362 25888179 50500896 929579726 779853327 218844488 597677988 313530190 386462971 704099875 478880270 628567996 99930735 177442472 670731379 350764519 496287790 976398487 92763643 933159456 347769928 192803771 759526023 756476942 666331176 823783458 644431025 958873195 845888350 572870093 885994428 256678347 777697601 404857790 852038844 710955879 154709835 364275822 159650027 731760822 236303833 358904 763163287 366051488 197695052 397427298 891989409 700082427 304544701 861983260 32626176 115212047 816591191 923441255 531811096 446072587 652274962 33486725 60105561 138740469 374597815 613928526 506371527 264645690 501635322 359661615 817479699 982249610 748848573 55317905 832292112 675616987 467146974 951577625 671763222 318560836 466187903 575112861 598687912 968865504 38275708 788015238 467435595 666577642 609434900 336881487 413010642 26356236 241543756 682489584 451025748 315668927 496641584 852777625 366184027 694264267 321076163 435899780 697611954 85325113 805081108 385317929 948588071 427012704 934346131 80489556 820415465 69938452 416848330 468928154 716337666 447636173 29905671 24941916 396960317 968361994 966545227 560339194 25596089 560130513 214942167 790351425 592050894 148295912 136739978 411982202 457451920 73613599 471290681 620846087 473030228 972306922 984448368 932790991 376105433 986910897 852153036 259212884 432584015 259463807 231687908 261123841 589504587 852624108 33945473 910753740 401434402 647087071 44313641 550711483 597811515 583125837 46001706 380145315 512980848 338845263 362689362 29626499 345077214 296883273 26214756 430691455 729766591 737067239 261091556 364466228 50245801 40983785 759810936 70349127 224311307 40974290 239509215 760169387 275958175 729821771 344790971 414076877 645490852 736749730 59051225 870340422 250684249 453170645 110985999 18847280 198895998 993449024 729018036 778653443 789659671 908948461 332104967 939973144 636321719 718059795 192557793 511379151 297420638 819748710 184500564 308798454 899396852 268998126 638317225 50962529 144143873 160132458 12451429 796386150 398196148 401456175 521336412 793649650 25444943 760554178 989511662 554246614 589130607 67227633 612492155 962305782 169485902 629965984 419788029 827916680 667805598 509295949 972904117 891713847 542332868 959712871 991532879 590467030 838708472 631969570 858792241 498426953 341853302 929764665 854487653 435414818 763250523 859033055 531295339 778997799 575100400 2216520 183654781 821929925 960972083 689150832 450118503 793495951 242592774 309099538 858714729 41110002 194013864 276094759 174198417 845021743 719017101 795192919 817699134 550728903 392927611 848511736 273255002 643819217 720805578 8016147 427221749 223036493 37414656 66921519 785608388 704140266 534659832 504106322 13496814 232885772 236245191 941275004 891081124 257005983 216315450 28986285 327737778 914628934 648243926 110346157 939159396 244104316 152955090 540954084 592230073 579519178 873370103 800473710 903690929 482915749 926350763 820368562 909089527 510922234 625940822 642974905 352446198 681464017 346235198 249769789 48684286 919492707 99018455 573840504 441254791 83246096 223104555 235959085 527169534 454487085 168354097 759925911 450124172 509845729 794492973 203573216 448825449 830622054 721080145 678593156 849794576 429524583 970944634 158024273 602351753 16719151 355310856 908693537 205487360 265449537 547380422 25310631 895078099 324536649 95264763 593242501 650106099 64648722 415124672 429915242 529035995 620073435 594638483 942976802 806976063 923041042 905057732 319702081 729340023 294487974 913411105 341481166 295543020 236742395 560901967 711651817 278202891 860306584 937524223 990256281 302308403 282024969 475165248 951105612 308798505 163773970 531297734 503435500 262912445 165587210 835681304 661515232 343797238 719117940 834949073 21558820 723410841 344382999 334438474 978302447 108046526 251518434 171188322 520479941 735021503 21144528 175582444 527349124 394968806 42969192 634431629 688099621 910284569 581888107 599966618 300454692 559809295 25737451 754939379 405636640 622715730 264943322 219085333 257259234 110562792 152553763 909122800 775543488 47860605 847863586 560003232 499418041 191021638 284312946 558327231 174258626 100418474 53318757 967591136 826131981 10936087 583616490 204513484 12855250 772963161 554475303 23223284 572763794 262190027 167252042 83711311 394602145 218029750 506570071 443973244 717783117 420690189 735125411 533423613 64484834 596948800 72426258 153536650 53379482 396373887 385603509 297173522 204133281 487224789 133737632 778786558 739303500 837258610 39762606 916101516 748114926 822634576 347412342 975228292 387458699 422276213 469946259 550141635 799607942 170648687 662418006 464512876 172662318 337008658 702507334 547329775 620293251 868502293 493923545 806640276 212495073 117134847 568230774 257839385 407706618 820944218 356563776 665907007 470735438 820182681 407227519 294158449 195993478 148383640 630643864 901393068 429873948 397094850 410936181 388181204 850553781 372197193 724854199 857295281 944324379 870906352 139959308 12666494 602523887 560598599 138873996 362637329 737407871 900552520 357481575 338237444 275957903 850681606 362572107 950930727 285374024 630834960 215743535 925251679 882349946 502759329 812944476 632607829 131008900 359010386 27746380 504829505 255140871 404476323 378411488 507919565 747745081 163332858 880609659 454937762 597850636 295659598 380452257 118636306 523098598 138729553 569257114 996217382 569557076 85739856 205425282 824335831 307589395 310111295 39337450 765414188 366911010 175481386 976429099 536518983 495357970 619755907 708638250 307826598 266003210 57096484 243152763 557134929 467966669 53915072 753045781 46324890 181207829 887571722 693014927 228569893 358031514 570028135 123720162 481637016 65302284 869230286 133632209 736806924 334541083 945531061 853329504 297424617 322620148 626624751 932232416 855935800 327003728 661054556 358344046 771127255 800713180 950116286 990495410 181707834 488848228 964203351 12932567 598265981 8613153 731668576 899424066 329278108 863614362 308613462 591683729 407262087 422857476 621076664 774114902 384965547 698615280 86006016 265303681 9246177 257108112 634716205 78649398 702585192 854292910 618971516 340294463 134647165 540380577 683414080 801326282 303096736 999418256 685988592 888775280 826653808 709227862 53409210 617158766 736131721 236482431 829643390 25242525 8409727 628906083 443628517 122615989 220189342 249737841 319494597 687416374 464779586 931548816 75661479 421030779 382329899 162927530 979593421 538052648 851302623 381730807 350580835 580103806 560974991 385551427 993142698 90711524 846680972 624769091 887852657 140561512 997664571 479276282 593576083 716998791 642164159 412069446 792129054 838031904 410309588 320351338 383490637 592019625 637022002 991441239 487612418 907328882 489489318 116694043 71817364 815303966 346649921 945373824 479678166 236986773 560435986 134259272 909432853 805027688 411195645 300676821 731535018 592391717 969231656 596973323 26406749 685111468 411845042 875208025 734592267 426516745 709195880 623139335 231568729 714517927 511632985 558485334 652391818 908606417 530754158 780638440 837673820 163842143 342448002 231748530 535855210 520594812 947890765 845552966 167406365 162591215 899008835 173586414 834293043 672855660 507321580 300610603 306580531 428371403 115435450 618323720 121210690 773162354 402407845 153538424 548553421 601462161 722533691 930868616 649599295 323787963 824106440 963882891 922472311 826771682 762818847 948077037 649184582 797067340 229469331 977415418 831983315 967046180 603524293 589396048 150401228 960579512 277094590 979784297 754803529 826463154 891488602 311196136 697066626 289897515 943128509 556206101 815383608 207363319 879556186 160399424 217908723 357461076 274870688 881502557 962505390 626982481 447237236 905867127 486308547 591132049 684392508 925292469 560679035 403030862 165181354 230785437 194739856 130283906 627809072 506874386 249885702 328610306 66152958 61736064 250715144 80979669 464794840 682867591 319097433 755960173 309768616 531251253 726826670 791215188 284311487 107276899 402637802 70384475 987557017 936937271 299456648 608385514 741225367 751690623 962778147 895092177 157675259 605586100 582177205 388590053 476792631 336487375 811680969 25665940 649784017 60429679 406541978 799954156 937723408 341319565 188702944 50490244 947720348 312698192 421849315 449975136 845226250 9232463 565611980 738160072 730194018 493777208 948686985 106367792 694605686 635868534 20925297 653342646 109875834 669670026 961343017 295419498 937449804 210601954 713930333 393631810 366553447 742891957 30826564 102915831 829316859 435675598 662019679 705627727 249620082 45617914 17200376 300937055 956930962 731064542 54332276 120532426 907991145 93373689 545377841 579659172 549143560 697592888 209648120 777024321 736803148 180213656 306931878 790484212 86893750 127092706 648927340 511396215 213404240 388814372 727552448 797514426 566059418 620828054 362596337 248014683 611019683 789141233 460491254 544550292 939451790 239921802 19127094 614395475 850434676 756180378 715874757 833493002 727756028 933208401 77685933 240389968 985478006 247767115 822743842 705202077 247825030 724834668 387097491 712308339 473198497 401414267 525377976 730079976 913862781 347469472 327837063 305464909 551414462 942733878 903730067 944738967 340749826 22377150 725969234 784541878 74569533 472511504 238209782 137171978 532115148 929099223 732940331 90900066 248645748 241098114 522045259 993149278 782109413 175954567 689673495 757024569 221977337 925250512 596357987 535733817 899035330 825584818 674397942 196770137 120965379 931551895 595670381 66721260 455367243 510077763 892917646 502618021 719381608 546430323 503921646 749947680 424331155 981601366 542319734 148856833 55374947 806041750 958643554 470935288 209493120 705567077 548594819 209591424 544567006 231265482 762255914 835762546 141498146 196751798 92938298 845888493 222597403 39533127 48125426 642620579 335976127 506801799 891634304 691470332 709693464 148160 962909304 89857115 17606100 123141579 816878307 900120581 37116693 241343319 169678002 540315179 286990028 815381112 626819074 356510053 366672879 6673931 554425854 268695336 804312074 994809520 736318048 869859401 792806758 931989264 71933907 86687566 328355076 741764382 35115059 413948536 577771689 28181010 238606811 325853909 312906680 502384631 594379435 734803915 870276128 583970390 518185427 274094743 247606072 495092212 948380256 818602759 37979959 347925317 940156942 918100332 374047776 196670470 987042594 343013934 855028080 349919907 753797027 921117618 626488846 210850166 460297604 872810908 984337619 17345885 602033982 583513970 784259314 419302800 512694441 271572459 782536649 451753116 198342902 410515849 5218580 660646618 859687374 463086103 115879048 335661959 701591661 781784974 855117217 803672139 508334131 290406902 831449971 774469601 696247461 556499999 928329795 138386306 294708741 584013786 867954683 340345133 906355978 133972994 873409037 633239611 153075239 809350223 324159002 845910732 85561528 260555727 823006676 86626524 561529387 572135112 718671632 693999477 345037902 540090242 185262729 611595434 27238450 787421387 500554828 877860451 925745769 17920686 779170024 69039764 273785442 560722444 961444933 917065438 393549519 152153755 67682352 221574986 275007365 468312053 966601166 498718847 649603825 523907716 297790917 347299154 832614144 236485499 504758892 38470025 648445228 295957960 728119162 321236431 910066233 158014563 781466496 180618807 344086003 347219907 106021046 99198934 59638996 750555718 356088571 603556723 125873290 220112555 169973354 767290382 801989541 831836507 338409343 788410642 951373259 174435281 734634088 646409048 53732480 174995204 935247400 885141160 642832509 812790627 476011743 669464741 963899500 365083853 872945556 756178422 372646142 219064821 911272944 810636119 764177615 623018283 251338042 375851873 648743427 452893306 499947986 63688530 183297761 72917252 818780553 545547732 62562101 171956408 636691436 446290068 514143541 707637092 619697095 206703951 19640156 58034152 162630916 872573289 248764411 184391376 198369472 888395392 938110151 106588796 568145587 960095714 48875617 804000264 315479136 929005284 13805681 217012837 816866037 791691653 954245088 894655369 139437506 198996072 631620667 773059659 177893684 636224655 152199799 832167520 586762103 135363522 441047512 353114 750918976 855068758 56437212 660115577 54177152 289883791 214294797 722951290 368022040 446561770 196358366 385150776 152703435 618444630 251259447 110991394 924469259 424454921 234299846 378027561 199325809 930346628 204872587 408207553 623261496 528938548 151100376 647822017 574418073 528001658 525327127 941407773 185952795 945268403 660854244 60993312 493628821 981763973 571191768 634422303 35582264 889336040 858775669 600635316 867445048 196705703 417120233 735218722 823610993 354892598 97919780 505744284 869005641 533432901 392325891 394590259 659612223 467260199 159519770 573941100 319271914 528865616 440992722 356330898 824144789 883842228 855429788 4529957 995265050 259176596 939566208 19738215 524911010 862604752 3963659 100374488 750913216 28017687 303737389 260076750 81741517 630559374 916860250 76847703 62103065 76776147 8922874 590814943 601376348 526636113 661061804 86880223 448637192 137484745 103615854 216772608 91870806 899582293 936396221 688410311 817088794 641465916 594542294 653428949 444304188 394425716 907142358 82587855 94776142 40702696 536856334 437104057 260109108 562960827 281093898 71719405 845299855 232632376 940316543 293629895 131739971 660507602 79087045 517278615 877266426 593916314 747097971 137869378 609012949 601124693 79540138 871906099 458050598 857510805 181544226 305157942 164660492 87991079 896181766 120799067 528850561 180010693 128150585 33854058 816718283 882911715 31893206 88606174 968181912 421800353 120219333 515213169 946955894 922926933 368819108 788062111 257287805 418087467 926790174 770793013 67186861 218936167 168738419 321566053 55384143 297577846 767729602 67358092 821385312 14208411 532843208 802171503 808475756 833875923 585636119 333733348 579432385 907055333 787542266 708887852 501655142 826064868 455386560 409698136 944879818 759158474 260180173 621992634 214598909 595740864 261091868 743671042 943708215 57070615 487616962 110121706 740386814 221627315 655950725 928036719 980730357 932372093 770983747 305764557 634354384 71047222 422449688 550191597 726694151 485157854 115505137 352214802 330170327 890327173 243015223 107466437 922455765 188357381 203941880 622780943 329368132 914952442 512597026 718287072 166819132 474885762 523781654 307184521 814522737 40156568 586101592 128576035 992360976 220275410 301698691 661503319 632770768 356715113 799127016 949596311 454592364 932560868 720289044 186451263 575166613 782454982 40776313 957251854 831920986 242036349 774161426 151031360 456629202 550100866 149575913 44833116 394342060 946452048 77814097 99135858 163604386 310549742 872882821 67834119 746166845 628360108 290475700 571356173 775302440 373248879 240727337 774759977 120925181 270176450 176789812 566594925 448645802 128191298 794431974 266156508 786056682 894686677 380152183 368719628 105949150 823964420 313346895 463612223 398594167 651931718 709119660 579372807 759516566 951592882 584409126 546960516 917258655 515749108 776619603 1115841 458111888 862952629 622199232 564958201 932715394 217070266 237755050 937761778 632116568 510613585 64223376 547930503 784209231 185628390 307667284 341438557 882931201 919326701 190185104 940171816 218991623 477971507 382543140 779852929 416739756 455693557 640288480 890315502 405702748 761642986 525221561 85860306 210072717 838501589 143607906 463014571 976185846 124311077 272632060 337222981 671401411 138641131 969822130 215767631 496049727 867204952 660393147 385950528 571772161 648334096 450550881 788054040 355746791 125687564 855972593 787877659 298827161 283887053 912467861 785498894 25285751 641182767 372749701 235998595 576514550 521789572 843522574 765507003 219678243 135894878 595823633 67930654 669686474 65074254 878804490 953130895 75208384 793330803 304625677 390917081 414002996 788010774 25254698 906492129 12748352 597358531 368853499 839870255 789914254 38788633 14342 395225250 302887764 401509867 250083028 712757293 675870498 828512046 910121368 990511862 168915572 737626165 33439492 150587858 932960024 995989595 790357746 665748664 132318201 877061481 146935412 581414944 426706817 686865779 560206203 434083451 599286312 695199993 503098076 608230650 461532099 909564650 210334520 905540533 149376456 306264802 671041006 898811713 606478575 839295615 757467653 400434437 777759707 115474331 493893481 167008968 142955577 164691848 6381142 717113418 242363328 695106534 986724398 85410766 237525820 98141213 394981897 379577352 702688629 231922162 26723156 424646346 883681324 718484503 626124456 777867378 333005703 867748249 560862961 183322456 151486902 876608750 374347629 159117593 382877049 6674834 662575575 278744857 566052799 421432997 730453564 717459398 140217017 486316836 410510270 806175160 694705412 650038020 591887324 452484881 17290085 918353395 776853299 346761623 619007295 941706027 505320156 385666470 298584503 352449708 506745423 834821848 71980691 864157610 604291436 689307250 649702892 830435037 174962574 135302249 393403403 380467312 343027965 44652789 120473962 320777102 322949324 291588044 768377175 346051846 73968796 158555856 921687226 729841464 293474536 287273089 175993864 372409623 985363332 328972950 871278451 73103212 163512832 471703961 708149222 56971749 830721741 116267327 308880715 471304606 694408160 988292270 721838994 119402470 233203754 511438253 507938325 275187649 946722389 272265007 352468919 72471703 80800099 743898500 714927861 552101225 943452076 983624622 103668458 750480228 715323893 685986181 108189963 134184013 425521703 585284318 389842250 912956124 985019450 327047882 241352939 784407025 59741069 249835108 621328876 65388758 471084327 539156033 6367343 111288753 84403973 129901557 725685207 428774184 70451737 491062054 753153493 620078916 579296173 268831001 223465220 966396336 44799795 400955015 478862607 6440716 365554099 527022625 261608135 411012527 382944276 415541112 800135795 829974466 187001838 302472894 984604753 884549427 764388277 252598554 982468859 392985266 796876260 624086314 148806127 606186000 453929520 187784375 281064440 888916764 16265928 228843055 404304461 308120278 109457327 388735113 546428624 228750443 587877279 696960886 670219204 152666038 898726594 49255182 845065073 277694223 847446670 117090847 150359238 287825827 187408466 922293227 451009331 774478584 679971171 921443263 366109835 841219950 441490679 54327801 232386451 92898818 862950521 839532277 445745463 850821720 996751418 516515956 139287798 585497158 14829687 50168066 55211993 106437836 578681274 790440379 168527891 829749969 69008591 592032517 711133420 757745613 819072127 933287543 790422640 69668544 829107932 613581942 684447581 105203 772752460 337104778 384871932 282980295 105236904 747676727 389744415 984234539 712259822 192697065 696205799 837760550 936469790 694060289 162588759 289358703 264555443 724363553 621042271 207178449 61414181 25587642 721202171 116683340 344450375 849122648 157611102 806889959 600376825 961801354 722638325 97414636 620301395 186970990 28921884 814871583 511992491 69900849 675106056 627666846 272448151 562115372 50617915 735075171 733695938 770388278 92539013 11788182 53133670 937461372 765373341 685979023 753672212 656186501 917796245 283921406 361420045 365870336 504192848 582862978 300644762 742146381 789068655 923283004 812941710 608674127 12551764 98167271 206783315 130042835 572960051 268801700 629452403 191554667 406436538 249986934 441424680 669519994 162771652 78891627 767933863 768312263 863762455 231961703 72708562 14369083 38432878 750553483 878974893 116713500 203245708 13343745 205860982 937925743 620733764 633861700 989403387 685396600 441844364 389116825 830569907 613440410 345239746 120985608 523668515 120732903 690383257 328582108 827485276 117180257 165862192 440874350 909105625 57141837 787173430 787008736 515125470 576809240 857964676 285169168 395137102 306451409 608832516 702684497 943018038 412069413 14583830 306748451 236779776 710558385 380091209 630091920 563094402 623150495 397022193 763454571 272369911 51078019 568283110 503788684 673738965 213989496 912601620 190013099 934786142 809664422 212615342 632875614 842203087 545084262 789019979 921498678 825588372 273581422 347419230 457481939 177858136 737158794 21588496 339449167 513455064 569944615 423800452 294809939 553960122 42284938 812357816 670747245 361649722 954625825 138564167 199956032 962741379 970531407 950749408 431122689 347059681 49225843 569056743 497510904 786894964 351356651 49692172 746979835 418274217 799855564 773467082 489310198 771786936 953527580 718846788 747983508 606334517 401554409 206343469 882085761 369151389 9945498 902982448 14107807 586216232 369814986 301418372 1888690 231835459 933646841 564672922 764050873 588677441 977266726 254298374 523729254 961732666 652640546 855578843 831277021 238295458 528907526 244371715 686387597 708754274 128474043 600495647 772208601 28291864 350114638 179036450 400526485 226696900 19279506 38983668 747977795 570820670 95755908 443825483 524411749 450420397 703734818 239447921 829866345 750527157 427244156 909940706 349915211 662399551 36632243 97899311 748447853 206725977 44452156 601848267 410312984 915842592 561791217 795245026 199245086 651032361 583104323 462915352 675346272 430372891 153119175 944833345 693620482 222861652 958209094 935098410 436146820 31717664 490154471 533415772 509875603 93187710 751750334 983227321 68290307 812994944 734046637 641886920 802304323 262975218 19850997 758591568 788889428 488824997 841750239 315672446 63291979 691696611 380413924 829827250 167277865 579434196 252152450 429595650 214632439 999906056 782468356 215717954 178515263 43530501 108455496 467699904 737069468 138520851 566640457 727130721 159389052 202049549 562384433 121754419 11199380 492316817 3239136 605062018 185500499 346813960 829510057 982343491 827296288 23777532 43343014 271084757 546794082 678532565 275277954 703535980 819558550 865563748 837772415 75476475 683007891 118707390 278374016 389110730 389500297 576336376 122401406 719225525 178928563 239258154 117566345 542911732 478738042 220582965 876379105 766835356 772713173 59651854 147700869 491255806 85544116 361582235 973221671 110127766 733678509 791253914 490796087 659646821 747328642 971048034 724666921 455811645 50138341 202646131 324714054 125343506 978161856 286716811 178283969 780619752 801884112 416104241 757506226 301871602 489847121 482878838 482668614 91372394 538704630 578950447 97198594 515921590 699722784 611048612 37143585 853647686 771947892 994345660 235062214 704172028 54911251 791703356 474721678 652916286 302345253 880529537 235316221 43415061 205670745 71018307 897362882 919606494 667454044 92037008 503295206 464415790 113663850 65750104 806932952 6011095 65230512 730260018 98152048 12916439 404655384 413877534 116945013 120328607 679950707 787428246 826027924 737542396 262850990 747459671 699665876 832578219 90806276 895747083 307277352 902753293 981798233 13439183 930547526 355727792 689967925 502247132 403595401 331392824 999376474 113786881 435397418 874106041 415263788 484846699 4800511 112763566 810706759 418054992 219747792 622726764 323121423 460828751 835757591 953578793 517587911 913901120 523873936 264402160 970076023 458667901 440709593 673966183 338184605 266600530 207450663 222529509 825395529 987718737 351089997 855111541 683260279 167284079 387765920 943458388 851841022 770103127 641477797 18789236 262099850 728910868 545735241 134549088 359819831 995794668 186467323 125490427 549355790 993611317 944469289 358603998 56428003 607659858 321321542 563981159 968073932 600632188 853404744 30413030 702119385 823212653 459942589 324449931 517343369 70478588 667273038 537661260 527225518 235132552 508228345 316207042 36853348 866896723 762215230 493859235 676246501 702921437 913783760 860203590 403256281 626421408 513980180 633632685 348747521 498755462 569057221 54450053 566237711 326577513 245035883 139949861 976370694 674330349 132529360 266137308 419790633 400771188 1711130 215241908 634655297 865706465 282562044 127835365 133645023 284462056 851810880 629355844 459747961 457319662 463233671 932691114 480003972 662472368 235306908 456886939 767844178 968994805 81311215 994703115 318590556 492925852 319003032 238583664 502821879 748231701 252046012 572385111 74021485 329488946 744400000 368459940 879404826 558031249 212679123 783336888 329993151 534008534 26268161 177513922 266019945 140502279 829586718 745302557 321756875 446384519 945779526 939262154 654933107 15405255 990935839 194547890 256185540 567860384 882872493 700751181 835310743 53694666 525576888 641292431 385375202 182014709 263528041 415711036 208550153 969081095 276120039 962080552 454064292 943125397 304258528 534584967 682179448 132217560 430288638 204395649 824089843 223794403 921137714 163359325 13604116 375479909 432281069 710417857 955646656 555849436 528433210 562111061 670113803 368499727 554998757 427646442 389185278 189845195 990502869 340608238 914471588 67189349 312392360 1702350 881032942 415352681 643814174 650476346 660754122 455487916 115410801 233951809 572715882 141561492 615715378 287600913 325371453 5485862 114725869 965944750 893129547 428159882 872970035 614460839 501581246 124345898 251456094 28500345 611408807 521775404 721832157 680340416 342874563 316955056 781199472 997110291 861429772 614715730 69576626 484970013 85592483 168141605 321463589 976351787 399485107 989303121 132505756 866978833 32245297 688601912 674118538 994155449 124453763 814054743 495834807 717849619 16039409 418903099 646367524 673425318 714246742 953752534 500971434 977591438 28507952 101170724 221657308 995305138 834793027 470737062 316834509 342245615 21419508 707312021 381690273 654158878 599254795 91173316 47533223 858037589 334792991 950119089 377163632 181315359 900210002 504045471 541613738 865408263 795122010 182607122 283380847 536588771 235517733 819568787 816432951 553412691 730550756 560633726 226289406 56919513 467112910 159650030 903998920 310299872 528957941 838221588 258667362 522656119 877602931 811456439 36120390 561318483 120977387 991636240 741031617 900500397 915169307 730822045 172500984 501641520 883995648 104300683 326499505 965006615 137587892 93364506 170112227 951749971 919307923 375813757 130019247 7585647 528441135 763537062 106606514 624540126 42721909 175021548 9605146 240543630 480880246 295084090 66695702 294594813 760030773 341303811 868497397 55961488 825856134 848035267 44102412 549714197 736204387 218567939 852811106 73560685 475516713 779805444 590058122 442968333 322050348 187361219 56069512 410117871 230440095 277658257 42517277 718254611 913516212 245779254 796200436 947630911 198304288 62124737 447074312 531594524 468863010 240139890 166474825 563556658 467701600 187832933 156662932 436890795 343498841 494535900 905300446 57460855 860667798 622734400 535946082 455436930 833398603 568096458 860543200 665745801 614078387 392924930 559588298 668268227 173362686 129726827 280891663 587043135 878154492 314492741 179018166 156743822 924749818 537188571 722951919 170759064 318890595 333687544 22101448 588621421 49448193 156946926 137599948 410216370 571144973 838738017 139959428 491867269 292135534 94052644 569660532 476348489 138016560 476757512 170352395 449143695 249181468 725337184 275843954 23033837 768331499 2237113 561661573 285956947 36465158 186727662 702294593 794573018 430414334 172949345 607252686 333245851 854781478 974795421 348522151 506531842 535849417 654830984 469169987 103635135 798344552 291391622 984324123 231283259 372432840 918816560 816362238 881906079 498516417 227200347 828194987 830480050 775955517 129446730 266454717 841955654 639761992 435243840 953223567 229516967 293133075 168650014 726993986 947091185 401307862 450953563 452062453 695628064 134441496 50330287 331053386 418876678 524598724 326472729 990424126 74355957 476866074 238254611 990380082 220375441 685882660 335861622 154789997 741156007 872016766 732170487 367445851 840709037 702919668 643532139 224071716 393291161 140495066 77604980 321400581 606555872 977681033 349420136 180205210 743554026 216829474 75062424 152901314 648915364 143451670 404508180 115406522 314079907 197416489 163816796 877635458 544550724 762694651 493522264 333089345 392697955 987032334 15598316 564642181 939472072 99703698 916105433 206483845 59720807 145196553 704202743 833559426 433331831 772432180 519237946 860516482 628047285 755670678 748238541 49142863 154013932 171351018 414021466 534074803 642417351 34453958 662045518 130545086 833023569 898212705 675891616 460282906 223465626 178955358 891322137 693398754 503701273 714489826 966609243 466490971 147809387 538973944 420964570 695781173 122030555 390921837 933920564 958146420 259706788 56660986 607505568 456148947 172245960 334783543 25023611 966514645 61969917 445920520 318575175 475994426 9810008 267811806 162972334 310555979 477747668 653805026 371976311 55626360 447087221 926058408 261806372 702731665 863238066 758441908 793163591 427623236 824420091 920628966 49282735 152918937 402339495 191292382 826769030 362048157 163897942 857491068 35180277 720117971 902027967 322919072 915776285 562227529 32011998 81959251 92595796 292095903 50997713 643616486 151953225 274899089 492929594 197083971 522157636 347060574 613376521 584282546 14886011 194655714 715865308 77740672 815194226 541550090 454923857 869986953 131266247 994709460 286624281 960762033 313306808 706036472 812712932 386466786 978569390 833941445 505984955 843719028 777497513 497234867 880875301 296514159 373947221 435625771 236137485 291364782 343130208 138120684 605096897 703699884 365771189 268258659 652271753 99181631 869890564 503917420 648282499 773839316 261838419 355753061 777460402 451053909 40343297 307205706 688478371 719964415 355749243 651830105 353136292 953664474 92766465 760025174 546818532 604810812 312360203 244269311 297644452 266226683 704914870 328404439 696295074 537291387 904180911 984340629 157345256 980152639 793167165 447635035 501835584 544250747 112090944 558284964 145181370 108970841 204534277 960959880 925406764 779279145 593942627 844810009 120600319 256746589 634162044 668562995 847001212 420092783 4358353 401829539 525312153 938485048 407707700 579501724 211994657 178152253 170712792 669858616 656975313 159276583 504254120 491050468 336238996 137900450 716043977 27459494 140122785 816764813 764663205 946241627 11188551 525746776 78416556 982346898 984850115 606161285 261012363 760998039 918942101 989909908 531983959 83474822 218908154 438650249 545572919 52060751 406762625 949635964 379202019 473683217 567848992 689573311 398164858 492510333 570129684 484687509 338373192 809681547 396124686 563497532 213816610 494322530 102956584 778164193 429811184 871628393 694821502 239048796 631752659 45535974 50515161 667802494 840657802 677268633 101618178 595175950 637009638 402018236 577188099 446379651 210209880 428126009 894063687 93090975 869815188 317129246 673054677 100596870 334175216 945211022 735325870 541550839 709452119 740913471 197234621 407111802 508844385 249297595 560429253 22045201 975212367 704032418 535466101 356064812 62294879 724401612 700233239 590824264 186214113 488821171 333135005 384057128 31518610 824973343 55702809 798513719 546422071 627275455 695228279 212331256 36795419 366994204 497632849 507514644 858106708 540467339 268121771 636140197 90229953 12675698 338626223 698758467 742961156 164925371 74570846 447039981 468385184 213655239 860615196 589724228 136700358 844918393 236366403 683003755 697181582 191234474 645242601 473271000 372071141 633974679 836440680 978975725 689638203 89792395 302572782 298826308 802057181 17123681 163879326 709276574 294959344 204931928 44715338 520333596 836073005 44807631 24950964 103272657 120923267 432329118 174746960 709644431 512074086 161115569 786923977 698724673 492841653 438372497 450079541 546985403 172320485 33550188 258746105 979332167 244204572 176393588 346967358 831992173 758892369 903985504 847489915 949064966 904522095 559167553 552379131 218968756 131819025 875312421 756689351 281962617 761828037 72720055 806141836 757836085 59775577 511176610 739114789 471662039 950168105 329563491 769793300 715415811 302799036 246547614 21950346 473449782 800473291 603549657 516370126 996964134 108759696 306521246 714409831 364108492 739297833 344818897 851319120 652661286 587593746 62518880 841280048 316106736 123500014 988370012 549355750 144312574 370053227 21836391 736347590 747916879 373996899 527262964 371871501 877816801 171409234 458104297 389505680 729613159 434668764 565858842 102174272 335211070 639570749 327597800 141830269 699243016 45314593 203355322 977227667 155668461 485539254 329617129 124729818 505403488 97423453 98184099 828571360 702276243 679388045 72535896 677585692 671517809 308993796 158169441 460585752 315665918 309775154 867995959 430341569 693306516 583188608 88734175 521987452 71265200 598346947 494362839 981884871 418058857 220247048 961117648 46511848 848057625 704165815 48282986 911731433 494805136 792982098 566233518 253873593 461188707 688700697 216289663 269294103 682261006 56596904 879353727 368188706 533816160 115419025 812752442 389909949 362390889 80305215 306241504 360142279 783072494 851012664 363621588 28865034 792007686 222394142 589178418 16306325 580739933 729746454 800063255 264285890 546950665 299973332 641518339 416673557 957345810 148139936 738263761 427110838 323258771 133991450 470730121 841637238 322102579 454901304 207400153 943414534 230853898 992459930 982915852 59038498 437397105 664483943 124094457 106152402 53369779 336043500 735516958 430042643 889103602 947053375 993019208 523933116 745991671 570813256 353360516 445207571 605394790 932500007 405072151 631500606 153086783 953018120 858368907 805229187 580951162 630938029 848956992 885519521 449164832 267530439 840708718 103428859 798200533 962315184 97059021 922221623 768508281 155257344 177696468 109662404 943415055 524933753 644381841 988293662 461584419 628371463 46110261 34918004 660013160 195883642 7004466 133815684 173339169 42354700 809168191 642524863 734977060 843551285 648816764 607444780 812328193 679776413 171919684 115598109 105002663 187661697 656823258 275977242 354943920 694764811 7867646 453803660 460979452 645902857 625554504 598004936 884720486 859239876 217636486 557286688 908014943 649269202 315810254 112529537 946707273 659821367 447590283 144560136 639322293 880892561 92644050 836730411 389716861 454134717 579608722 143536622 620439470 116620668 781637386 491996677 765205318 617880127 91294069 409256311 185068094 395758891 18129355 528265397 579064934 268405390 417070119 881851829 493381665 866676467 565178178 669640999 337695958 879069716 144068234 65379743 211107098 144640435 975985459 807511355 832137563 295272434 173738350 910054248 349422925 991885873 609174180 646870876 708925569 74067378 494526561 854453853 911831482 744492915 623012445 194097924 819460388 503672491 123706269 144805522 61368566 318676029 584059563 560905118 536910544 217707851 287588378 585273761 226223001 227379459 354391855 43455396 588239263 714374584 220925660 792761224 860141740 698434839 100806144 451548399 934806673 180786551 593864328 239213412 751259906 954284834 485752400 435149655 993668065 921055241 785438820 830490374 833546283 227367916 835112974 926063631 688567103 869777025 10889816 588729422 783355517 560600033 394558832 715184587 763543779 607065183 401743313 708231675 75278219 917602968 670708319 775002828 724157556 553786925 799790524 50315874 32132766 45855099 830832662 771093723 290926884 798562302 875798690 45600192 836933270 557050700 641223785 801414789 299854288 76591227 852554699 866903637 286351005 107399452 700708698 918646099 762762316 727107530 555186926 597261101 658179733 380067885 960091083 716167484 491095909 986567897 189133245 716037573 965267585 624657471 43841530 276311274 558661264 504698759 687561763 27196994 466832725 101496320 586112995 610713690 675208993 721715740 516182282 642220891 309700328 611460759 971638531 610343564 103194138 759287172 140365880 173722723 533180374 13316845 403681890 922207669 786711086 90719153 961529214 14865094 787966012 3080506 869370467 382491042 901468383 642380666 320458898 127171242 440897231 570915608 802325829 720283449 218855114 671821399 102164762 353685497 491446080 696456291 394754469 863619306 470615951 227601968 736639135 47525189 835314586 158507898 249091301 220676638 294913179 541267428 4480524 187499786 862344399 933768127 749419145 742123962 65035889 142892921 995010617 589747990 261962617 148318823 248440201 214414635 256769110 277908287 174531777 331153823 622422511 658433710 280795686 637241629 957769228 9195709 190021931 925299847 726426172 966697815 542879669 599827704 49592054 957266082 934076261 658872590 210344808 509302647 711174220 459357834 435092245 83369693 142865638 39301220 349225955 87134863 191334329 921547702 584794445 386699817 833811233 816808632 977602653 673746711 912665283 316964576 803032330 378388643 609375534 608257230 518159781 681060238 712146559 411248698 797090238 949833653 590433690 68361869 140400568 879976962 827846607 227393117 31932085 940169292 730315044 617306995 910071666 562343691 516615132 323804290 63160362 395482005 337661561 801050460 139986937 818929644 420369141 464617180 613580719 181335140 704019761 94499416 54548331 883564137 380284490 572358837 313638081 152474420 332004623 937849406 273342832 977839402 607259438 724166344 16772405 51447390 990051227 359161497 953031244 403661560 352873741 355935464 530016091 428385863 714244087 649367564 943813523 810667395 287477748 385212224 106145900 927223749 643477063 359744300 915152823 782311812 426071300 465366784 246644584 811673141 710726171 843400238 845151622 498310351 499278767 590416219 820331689 152085677 267925883 982499870 220645567 448578462 399389236 398140281 188824611 109142885 453749646 251698074 708417948 998412540 723440704 791586543 593881345 83346156 760377105 1811458 447293639 26944660 383201649 729983104 177958477 842810413 558145574 79513356 973956443 658110444 279107895 365495887 195870717 243834379 739617266 389111693 622238516 248995230 167405067 131805262 646321239 833600088 710276395 928584545 444820113 904340729 236760494 171195197 390357725 371929606 709795133 940188846 573645272 559108772 103978065 577343245 492176641 54835964 918149193 14471971 314649307 727152896 50069270 626733352 656030189 497404310 299098058 290401273 327743043 740030216 500994074 909152928 674294922 464524053 469565711 577171625 190094188 952731837 545777862 575198904 678112122 684001822 757717888 623714750 400996396 853084809 54672461 225788927 211721518 302396615 40765979 32895527 273931859 156431336 46115934 988467293 663690411 189632213 753754104 323034681 705970019 671087060 767807882 657442280 851066455 748063610 962071569 361832551 929285124 298106077 237387410 293867482 364505612 754570071 989055501 937619159 874702349 45422647 326676621 717092026 512614960 90846845 308959403 189423870 359825526 220717479 581470608 936170021 79102322 927761634 804404426 29682253 791782200 982397731 99422196 506710071 968514425 780061684 91887015 944672508 740161369 937538406 587047841 236279393 257677799 311408715 571038282 485962076 418560697 546476817 551941534 184893724 775333717 287258693 613684377 404072069 420061300 142623879 381514123 593907957 917028118 808755660 110555203 403258693 45474202 148068684 290458453 986049972 754513829 673857165 349127870 29584637 415090576 930523478 162422800 69598381 22199149 663910361 798540022 835502705 844682700 256168600 846651031 264482608 812947531 730880350 489651811 584759373 641514418 296743196 770885696 325222266 201851210 67693612 240395388 582519904 9405903 41285493 197232933 812230538 177925984 931132195 95600885 451002578 767882061 374750202 875353148 791550527 578957307 502364308 609196681 661236571 903567223 784598246 977047692 399424461 481132454 556161072 334343685 239165984 701348338 741435318 902704033 731240691 278641186 781232014 590600520 104027605 485216259 473744190 65532388 448731289 867063093 125164382 959275739 743824168 115399035 159461276 992127823 939100855 530782471 195759313 547440620 108411941 726770980 341633538 572311040 7122858 85667744 882499455 261112405 758052187 473708665 579827252 108498933 857095512 647274413 14340073 500979068 973621616 642914400 906222624 470573849 695439874 260522991 690797301 710256820 345972976 8730142 512443192 370349503 829057018 575015561 354557943 972338727 435326065 537669345 12338586 562500418 938334229 713172017 281949353 119330544 641287674 71048875 13993552 11693201 245107140 582021475 411545186 489610551 744195756 52262284 577955893 207504447 724398467 344123372 392551789 569481410 696590697 487859785 479540331 557836641 102811199 358628686 700342805 920710508 795420355 492652366 867986471 805611965 929849917 718823458 486898727 616077538 713096509 337945241 489599559 679771470 10222507 313080998 221856059 464287891 855434077 220533724 183066357 181710019 227907684 918789952 735086025 469995333 157822683 919274738 606881057 496971775 489831291 609196768 834514782 602102053 548720033 900062814 400659556 234994169 345980675 662885412 823130703 85218026 122688074 856226365 347708156 368932788 513007455 132675687 67648767 554871826 728131697 376007194 671090626 416780589 364419659 374783466 499022850 538241897 290342886 474458211 826955885 574178377 786867129 250537362 547829167 236672022 278172464 808836752 14586920 85471237 298125094 564963564 839390326 471850286 519747750 930103362 114679068 498042210 309938640 223025440 945870617 551553374 159813385 756475993 958512109 809980152 855542099 474326687 682684044 264017532 194618077 191198638 69031563 352348752 1311645 518815565 329130681 274222293 629319238 165818677 921163658 774594309 933504248 119218506 748987631 805101761 859559923 51560399 987452488 987874584 625619248 861354319 991313684 474507285 468002088 1813449 416557750 394763780 842216574 904981929 347369386 834187723 842632327 79926340 487021859 700453708 572076289 570157628 469476257 635104936 944749720 435197718 596085394 885067665 386068264 300075079 21938810 619102282 430616068 835382886 761528767 689866997 612746375 967797946 63253549 460326646 694052196 321487128 458082598 211711712 292960620 505025109 11833204 297896545 53621807 476649270 339228374 332690443 783777857 911259707 440831372 274241308 977708439 925364039 567959625 814109413 648165720 900656791 755354693 464632313 196138696 749208649 931432396 468269152 928335308 275845743 987602310 170145565 323138069 836816239 637589930 594434808 26377921 280786649 729593105 321336683 448410072 86977259 891581878 826449718 504480721 463196261 791459044 702076061 848968544 649587052 831221294 685384132 459815046 134020184 551030302 958127194 493820111 248061126 962069616 712526243 467398799 42492288 622727431 245888269 585439769 958031126 220011718 80088853 820888650 588481914 618932217 695259102 205095567 523337771 79783591 62265502 713369837 898082484 441077991 700435552 683018679 575499685 583932380 227634910 212061256 854823155 712792312 468228034 893269732 971082186 416300105 42631463 892779253 760185137 60681872 497858570 842748698 480771472 32899708 830633344 713007946 2062183 557468195 293569056 548592992 312337398 27219443 475194459 669487096 52315595 47715944 971465602 566375093 166791509 537820242 621987201 117669489 317102910 315583952 393266826 747213201 187334249 131375681 44070771 383867094 785972354 818540814 198974511 933081012 722805977 295618828 292007029 732632388 147385455 220827486 608429314 654960967 853278436 142393937 42836234 848825334 985464204 455109280 815577706 829422988 817852632 687711598 124970207 331107637 343265431 338988058 906066074 849332729 271579406 147054325 442699714 329993466 294547184 194164220 416185390 291553687 536707443 758217650 504395905 437866169 300372677 961624973 422869084 484310644 486922288 598346250 972366757 559993608 565150443 357283932 427276699 979854849 933884952 305011996 744580537 252202625 594330574 536202835 968966130 566107545 85141469 113412380 573048349 352669565 544244721 630466360 683330298 365078620 500500006 748577022 81371727 691984094 209319721 873814113 754093442 571826828 853309528 955971545 26357744 996091699 607195797 522583965 672764067 284635632 44609107 935334397 851927343 958677431 586499146 793246740 17184027 328903522 370280178 139445211 28517870 559000110 346374311 321102717 461491686 113130510 137605610 426974820 877672864 218952797 821866439 562455006 684443543 594888243 628781082 218416989 81575552 845567498 262430414 344425787 228621828 855161106 429353646 402820766 744736320 630630418 758107549 421176469 851714726 753165914 398287815 917256651 709807030 474335654 587856647 767954008 704559368 227598794 950212138 953672422 555930536 176654337 553488897 896731323 862307121 330971879 307631489 413473949 485567345 873969384 687474281 872554429 320608125 855651914 455689700 647007095 536609561 331197525 690335824 311355116 965782145 184284410 716656193 671140416 573342583 753176214 419399790 722203343 487956427 344713075 865737697 502232130 692443391 651893720 513655684 463966018 39567685 494704519 103453276 89209064 101057639 664666050 731455926 823316415 328937747 198203527 204243405 236516712 551220697 138540492 581684537 883744080 904105499 124982010 826057748 535113208 928076412 237992478 923928121 813140417 411848905 853917798 881329235 346884474 586755793 994885476 279191986 328840670 817557499 573070205 593122583 890225921 24721181 228913298 436454751 628953315 944725398 742588721 450375174 149805141 899000175 581886619 867910872 466630799 780302528 266539652 219403578 857612167 298758741 663328122 663404012 868493259 920239046 598611133 35897097 114075671 907280741 475623247 988381574 357411648 631608762 951123947 51753721 673638543 31038087 777150081 677818071 887011832 554382779 525934273 69218100 380508630 484632972 914791848 695233136 138955873 144761691 774553261 229490021 334871051 397838271 189007048 363417787 931171703 844673916 589839653 607548765 22672969 3124674 57968004 557264510 218922015 642002029 204803287 643206205 530242891 845364955 504461671 990388137 470679522 733836748 736334379 464328093 635792805 337688494 948065849 372465101 629028091 806737874 437111298 559568008 142150202 330741936 88284074 567797908 69084035 262266600 293133887 192201061 837297076 994951680 200748310 880924193 932762343 309393522 162429241 163682893 734992537 467095515 142794226 404383804 975744832 180115739 773756854 485219665 848241818 464496916 132419781 969354802 59942747 189690165 689417858 903725614 321574697 282161828 962538449 454642144 670710147 577773839 852185180 662846153 764379344 529896247 65294260 651146853 398383340 806684415 775912669 494885546 976654324 785908986 782327454 32013367 863373371 589000543 2824976 351745722 786333215 611569468 524104721 229698326 798433058 230539784 458240715 432077452 733264306 194164805 918055485 986714860 972329562 325434279 32783319 245682746 490050617 963141217 829024538 820093755 922725156 377036110 26766878 815201245 374487357 58604258 248855481 108112789 483021466 753231508 882956906 170716267 926894105 193941931 133447204 853550229 793234054 321968039 616928272 31539183 644252423 984482935 522066666 354748837 907429032 811282292 718254830 202552948 506896037 691028788 268096505 687290463 572687264 260857159 493396179 242282072 306584834 24773399 194040286 999295643 205554582 717178822 193002666 489254911 917859168 731049923 317902379 226346364 490039846 33233385 974343636 831717674 558609247 803242073 383444613 868016972 622961926 529494220 515020220 819381463 655351703 874744120 961286801 906615198 198634406 318579242 162759824 343654023 661540620 401049993 703626386 301591083 574011894 388242786 479719148 597710230 895041093 803594249 472365218 383233312 798276230 662264344 195546709 38728567 177612055 970965968 240938311 994020337 626143940 967407733 817270788 739644244 847568602 590481920 356847095 933342195 842103546 223009569 408595921 533151907 841408079 956813494 120711456 575076806 154191175 261213850 837206024 853049009 642797257 120371735 251179993 443632398 317473956 809120021 901206228 993401430 221840110 492151091 234489953 742651214 453654811 558727030 15609122 182709718 656145589 240051045 959767838 671806944 932869285 37890866 739957718 857404951 993896722 853145091 532469066 791302443 65152517 327606160 644086827 272374378 523973589 409671939 277021211 721939959 187048149 299232381 855873566 755057094 180851953 213347036 820213144 563389376 608025384 165678435 206029008 671359604 690857660 435185199 864399210 61229649 234793125 749381013 821301912 515606824 981878106 288555048 213512115 953956543 685304064 909605514 916608117 411304095 636244935 491782947 710762058 749500576 771533796 613032252 601032820 853497998 275019584 96948432 609917983 156778020 829460789 837383973 888095968 815271798 922801779 293183035 576478138 144348554 941045184 152894871 289789763 885603204 513586114 534060412 582541218 426506440 294041818 119801401 410582297 627012274 862101299 372108817 767834941 403571772 172780618 46452188 670925864 416913950 253232689 75584829 499365574 838358836 695496315 186151411 756853261 915451173 235507381 719588730 587976077 572190655 264950838 981501347 225635782 396356750 105607032 636981809 868252112 385775682 105424461 847242692 437979955 988758319 49697535 851409564 79792397 347383305 925773304 437283005 118069734 858168640 881530997 658208964 490453723 885314612 926025554 116186868 272010262 870421046 148776990 55651243 83621694 963359745 207108738 34179560 539898667 186243522 828063413 882709235 925923389 121743133 416540645 404675926 446370700 244141031 134737113 773053602 758598687 326192994 509516669 876807211 531779978 596822096 830279450 567133138 188555565 565457454 420559174 158835196 673399941 105013192 36778715 376627422 786091592 553248443 957537853 37381056 376690283 739284169 316686320 398310652 631402935 751673997 435105959 435806035 12622687 736259635 199973529 709314809 29560551 543910643 443786700 550599112 582468632 761919274 578141409 560711011 285087492 221818047 948439987 1625030 769421221 271474204 416071582 274266713 74324749 234417629 548686722 496838697 96349540 691645354 786247843 589348824 715262939 985121117 24800247 278656346 300938333 555441994 284338156 282679930 214164370 936098801 446866467 694599596 944825556 283474429 24602311 42393498 375063181 501157810 278040441 427311817 888106914 422886283 942348072 266831838 518524790 584877802 255816717 376003835 273730241 750497555 655182866 15958183 517989058 718935671 744881056 272474487 837256875 700020845 969126947 174314743 102680418 974128531 339693092 690810974 210752507 482092545 143918100 330481061 515771774 589765462 416221976 608455662 869470234 670191081 930346879 744267184 379922002 980724067 801145041 639796187 671943451 670816727 948292277 567685894 362305587 856008546 274294080 670155149 943141155 493631157 562677098 689227144 459043136 251013351 115280288 652242229 8644078 499375520 159038794 113546178 1354007 199094042 545399520 930016118 60825723 229301135 239538678 823268809 90239216 207666963 348048116 458985061 611187572 765918117 628234330 569574689 37098302 524523195 515547911 560057304 355742923 157267893 578845855 685006639 823487763 211129473 411357017 474028009 342744855 437721443 431464983 644624128 504221732 525898095 298009291 271337805 298063255 539967900 258222281 71501292 426497541 912734800 281373486 124505171 329726528 246834877 89991864 920143960 174966532 547518350 133919274 356746451 109365146 914034603 807691976 369982823 886232401 466403908 565050274 253988414 319616825 31422722 854917630 956557753 181889657 22621990 691557372 960074831 46279148 274641345 280513522 935830383 259246640 224698773 549310194 585045006 205175321 203051963 286317376 478614369 47319208 268014832 385636659 375129884 797403076 746465440 246541776 233237141 860758776 558355356 494965586 177259976 554398563 830832064 108734632 38105416 29359710 572802778 730523351 780622986 449643531 676656726 399175814 907788460 120451922 685844702 292049448 617935947 771341144 537828461 345475378 256783799 79726990 739467153 48515085 280794154 888905683 742395211 870938939 721167273 540106730 369101819 483731031 772725527 708146210 563353461 479539657 934919829 980474726 733878136 562366343 189571659 386755187 954116700 927506666 619277420 645197385 912676558 90296928 791243288 929576262 989084261 48116834 776428818 77054802 579872400 398704411 625765727 108193453 2046905 164686835 235359986 149346929 947318484 44602553 561287360 412765475 34066223 680916944 375600135 476602726 109009299 945085045 704483437 255394757 518709727 60621721 287002095 295782158 753780090 851451035 761720387 828590168 926718141 235302433 308687991 185945517 647573775 805725349 76246161 677624677 141244377 185230927 438829783 408147064 953898641 789647147 848569755 762449053 681008206 962875001 450756785 680802720 64089470 792353179 745390016 135903750 790436930 484586727 400662365 957335814 693190168 467503367 556758710 771052745 644271568 802869177 987722601 105457711 327389574 315795 316704354 929314629 191952946 507924876 984406889 371276265 843794065 932213112 225999875 294634048 934431847 863618091 186133092 388560109 955945866 753685704 932336905 679193979 898377691 87586086 147626085 943471368 583700314 566873751 144110295 81076257 790372958 48196450 135242494 365292789 515536727 671380341 802292044 33938323 770274672 643765784 595905343 16688813 910131945 679017086 217056150 557265343 518717807 524435610 838931799 273034680 68657692 608399757 748444109 419120933 783997524 208506571 583888034 250843104 940830318 157746221 749426148 449791775 885373473 438788097 5334 793814597 975441441 803861289 926557855 230430196 369391997 438080267 505593981 280666854 141985575 76798464 364976196 80021958 426675961 786907141 315892083 464306554 762721019 994790646 304215999 420269735 423099887 232490385 801974589 419572159 517421857 290272027 302644461 403254441 772651251 823117370 197047058 191989015 79119262 539211592 913612372 928438624 913583292 92498479 806238828 575467132 97874927 106054307 850172035 281557844 372570751 239814582 321703256 217294476 117446531 281159609 133194464 970225060 371180913 250783163 660894735 848777959 300104069 673268085 778470558 729372362 53152949 628406736 28097286 385656667 858854362 700368538 57028893 502029131 272069028 858008799 352881432 937546479 581970883 949051039 353243121 538850361 977392097 85676626 293158462 777464784 105355269 36111470 803169081 95425311 277954777 578496247 591517356 785660880 263394188 644507540 309467701 537261973 746168147 458538809 47023450 76154625 308337099 120308758 798694641 680597406 995121987 799753107 107118726 16109622 674365340 49099633 593754074 411378108 542020567 357453057 726656980 462569623 156825594 739011947 19096178 794693082 775692644 719135899 445215775 479989390 474975012 209765901 137684308 489361305 11244031 283436405 820799358 808298320 567581749 316528205 767437786 177963043 863887979 591979821 163188778 159180523 493259561 568438931 200824681 978439873 267888354 970237428 123016223 32376910 137003812 187558272 753369000 213610287 87053060 941665394 368597918 335420650 650192011 430984229 337899180 825194316 25621314 642985553 684062382 327907183 84439271 709019224 236250143 123137699 657023906 663219164 633178070 262185035 720805988 787146911 99743111 66479151 902546328 750465888 113379822 152046884 32885393 664163993 458384341 149489128 590469934 961718487 353360964 941943335 806394525 753964844 218183699 948618874 439222854 504881980 988235011 889402590 403192513 534236254 781373085 272043336 185397300 896968331 94056517 173652270 553487638 271651934 733047928 2812234 946229779 33840450 58950367 635928228 796867412 476722689 657408151 254707587 27155215 417744614 954724434 839554205 535075579 91654738 858837395 905204529 61751037 301357848 67790647 915324486 368524929 665512373 68946937 766925311 554054484 852257585 931954663 229151041 949527364 892147297 774048940 263315014 660191076 408175938 836979512 899531920 598708546 176035551 377776352 425101908 743977951 426320291 885577346 359539783 897999782 839981603 865524084 535737991 663054015 60521753 731400511 649239577 659041997 5023466 23217830 112124380 207695997 94228182 197510132 789647170 954653935 247926470 68807543 297743197 300218226 207832073 340248306 105492864 17266935 390529087 4194867 519376958 218896647 755829072 43070191 164000436 580900780 39594466 279943117 134256327 207242297 497766819 656477971 951755250 94709150 431615333 166694892 298957105 145721882 501551943 798435626 389183120 969046540 131570994 230831083 685732525 550820557 188668842 706733193 910015251 185002032 430245110 285622529 255451060 137195025 26402359 768429411 109484955 459507082 341406020 351027596 892606656 663320684 751868532 27067828 846593123 751142027 160769437 706770321 497312961 707801048 37887999 207256386 339044529 947583324 986839213 721580849 939314325 243538198 578801315 941066239 353793941 542468268 429479807 220042182 545555744 777639695 217923030 929551904 471312729 721994602 891652642 412635161 640370437 918195336 820258577 315607740 348774683 287860180 812725799 377510575 717897201 423177957 882757931 626830123 597663809 879259869 333674707 511926594 444690956 523469760 121615242 47127079 265569244 213463382 422144244 77286793 359127507 286764936 238766433 624617593 318948047 127238062 403654804 881360106 808504434 757620501 805468579 954460615 259003230 142313837 533638814 717717215 286207518 86197300 200940093 762558048 729677641 518510432 54502463 390359201 755819820 302727407 310720335 722008542 262472341 921708725 95993346 71872998 817733827 92563903 581632471 190136082 678173078 584991905 301018423 370084279 70743653 585386653 293069383 507611496 804112295 552095329 540282935 146259937 635338120 421279371 481000871 272146045 991422288 662938943 614482346 40314779 506732831 60517043 760640481 722210807 542619927 676351056 30558752 610336063 592683729 948818801 894391136 307862466 933020648 541311623 511092038 775369861 740051946 921791097 222824108 315361827 923750159 64190175 273287280 397605427 686296556 363658846 335313297 385651254 994418330 928594447 950207803 657030207 497785328 720001257 91001963 268314816 979668254 801858502 676554893 543161381 137685360 880009004 206069980 677489840 20867514 616534895 888733947 109872474 869415650 662809463 38510084 408897758 794018912 744655244 206361658 55654326 788889339 554602990 762894104 590841732 695646015 40240448 725884736 437412601 851850518 949768817 583092624 925303018 43412378 193926960 913002974 782513240 229432561 267883218 25425193 222561038 354084967 621595016 564081996 440478946 310403560 998671273 493970782 204785628 442206450 262983968 206095658 385722066 320496688 511469490 366575530 989042145 638370584 911050339 760017017 659462942 949464139 709658347 541049707 932209889 147275805 415623163 554613521 663295876 184656094 369425510 937664528 865381593 229577569 710956566 2535516 34159031 295860993 46744987 560056516 799948868 923622540 916031140 771988633 859320262 124603723 903107599 585920465 751349570 255956546 224717233 627397797 13665718 647779812 484048344 380671306 449269276 841840610 959914984 158461164 83123935 62216182 182501429 929180805 450833970 240781839 921116197 256948642 556793724 771451767 328038285 64392800 488588367 734925301 985530217 163891956 727945304 982283281 934230743 514259709 80340971 741768901 888778958 904471416 951969051 973127593 790371661 650988884 58067791 9240640 766248120 903503509 345231070 766640193 849032354 727556092 710465037 664258044 128010920 808541530 346399759 691475033 25733125 966021452 883944952 162989244 2823686 292817133 499410066 224533920 470988524 614707932 621596236 404540858 903868839 219278564 269797166 972678137 471449757 717056340 265054118 100784016 939206760 84701549 262788647 751868676 923214797 120011954 995569527 749090398 834046804 221367748 743110734 297919698 657109133 176182641 871756359 365861173 310253926 611462613 453855537 167132729 196288163 477965211 395915447 407802664 754440205 959993184 422793760 659621522 798690781 305047523 324946938 905595555 559223736 812095438 566027765 968124453 99596492 2300270 79038243 397107201 48570013 202854497 488211885 148567991 791549524 425012906 409944728 597072225 673635135 784073883 53299727 921462386 579158692 658695565 561042288 760112736 333697001 657493339 217398846 120644323 429073887 763277055 99290058 194992970 454838956 288052764 547284919 332884212 956878852 192555927 579439494 301657807 422444026 205086888 531070562 328909720 159248396 830368097 64625395 74205108 160957853 163407128 432362880 788148937 669416704 455250890 485316830 319262588 603226103 668747129 890366878 613482308 570757620 838653141 762084839 155391309 473773641 177032049 761740845 679024654 937875631 957904162 574929733 290516878 975875416 352054826 631733203 644526313 433370331 548323185 774492380 874081352 145897490 974754138 267156813 171690268 898019082 871300050 51394472 905084091 702413284 33235126 315743021 97338790 924302874 650135490 711553928 291956868 665648944 377947926 10917218 278602693 62826789 266297930 585630371 235433314 487826151 193591794 977294899 598348294 154960512 883759090 866131849 870454492 295105400 585635221 255376702 92693546 482749203 684382956 413183593 607006958 688579814 42364109 560148077 595098689 176600072 618290382 747969155 676592277 299519302 929546444 674964063 383563111 253922455 253686525 949101425 90966628 758982560 236286434 67767823 329469785 658896831 214701226 696661756 88950573 242337606 529824081 485212294 595881281 386205867 354567585 313216594 256026417 712936159 883788142 359655084 775517002 834019811 895772734 803455695 944109075 147388285 495090769 898803515 354046876 25061684 677026345 547520640 547422321 872682439 369956450 727174282 952423919 188112184 107588370 346859509 782627352 583821674 598742231 357996162 642774430 824906720 757818803 2336629 259874585 150860815 952763792 833877440 929192921 877240626 398314943 826308987 317170254 588428714 560599443 149358961 78765610 611001133 847058338 496305852 828559457 615584732 77548867 817954009 687697043 906193991 264464364 388128951 594699779 308997236 928199307 114288686 261494404 308637395 917109966 912553116 911019781 733503649 950242737 904755610 677764978 381282284 234346821 60132826 945404515 874654777 472577607 389059009 687792989 204402721 570650921 323364023 247462194 111485773 949510240 578146397 493112778 729203804 631443901 706624612 74810045 343595305 262148659 42474029 833348855 559384770 723384223 699762766 961677482 331492358 744186420 799979023 924692325 847082252 772849730 730036228 173165268 243532041 614265688 71836178 780021057 321313581 693464424 809734088 146031351 835051189 539491028 206927676 106267710 104328874 275498540 574222435 748610969 489503214 374274176 355134153 965598196 226820608 987716921 658127863 981063298 611335079 95175259 954144439 320922540 501467832 430982093 220213068 761364985 443454394 485204508 214596313 889407789 348413552 26353235 334871777 287002581 641399034 70518063 677306188 94409752 605807152 196406378 695819626 769279924 684697842 693247911 647309277 178996780 171421930 890367564 643903042 713370599 416815329 434916226 227521287 480814742 961093390 734168280 957370848 826232975 604210776 609490231 101919666 767955243 12382160 119361735 355565613 588558154 279989486 703828795 149694453 627480820 90946076 121792303 177104062 803157222 791921660 321575614 916004103 728322837 60833733 508166085 190180305 972467355 892530231 628152237 934655883 611596433 141126497 677700563 869342170 526192506 104024647 653967786 39393002 728202010 544242466 3318436 927224991 586067487 353633699 12808874 716846305 991318496 709859563 489427823 961629707 711943902 624658628 806479704 479573885 538470951 390085967 612169804 829082995 238931504 967757385 240849234 632879172 677966914 208118668 320556608 390593271 609391206 949038122 846800459 336394649 823073615 302154686 781185513 66993812 789688703 133594546 147923216 746994786 576317074 395157832 181891202 462250520 551238577 834087868 813566953 574005493 673666075 655511546 509190925 817890848 297204405 520921561 399531892 934469589 515781144 153910209 900828818 698861384 924087311 472058329 825432439 580500017 332738470 800775092 126281456 631751240 125050170 335730674 476095918 751289870 749394336 885459075 408653237 859395517 834966437 435831454 943600622 418883749 106922052 928035669 875392572 106508586 574027688 257460084 281987080 338218676 309800324 287313566 774938796 977382906 373390607 672658349 732312399 3666168 45930442 708718910 373284474 318589945 733928173 339231448 348744942 794807571 239894756 968786174 110344321 584223344 328759158 653759993 576146090 988096951 770406206 368233903 860103582 668613260 138763456 527475137 866103762 378650374 768583344 112691192 265902812 885189442 400963615 369598277 956755538 181593648 103984139 538088977 754570306 957265175 20400603 386465286 819872842 828101101 526682249 641317231 679390205 254691557 450055683 370996074 342813070 625373948 131735931 182203835 1543904 590876773 871769888 441684621 556810692 450073765 996109654 595413901 809849820 914171307 120186236 40447273 2952702 766421215 33729430 852973141 649660634 507399892 92824755 544595494 957209112 994201203 919379997 659759733 335055244 839504639 886823589 391068419 214169170 812103262 370369106 294219363 834577203 374656389 380456176 175156838 477030174 665235309 489752460 217792128 888231121 124365549 108734535 116680424 330187570 833287293 255926816 293309068 52443417 483374794 662668260 792385328 559008777 463185587 941670441 394824038 840692953 731782724 757099538 758761521 806688399 856288880 167664610 693932493 528073293 169201719 782025699 607940274 276399977 817814877 603147731 64598154 674300780 646670811 217836005 265231594 104204450 467955433 357032509 306261953 186033112 879638878 40649326 716399851 166971536 565287802 722914005 225045509 982755683 985206214 723426370 53256392 51670271 332944411 576934369 912871528 378221025 302186525 5579536 598981409 171167204 556399504 545128796 881419879 461363168 431284622 538646130 973182315 89594678 17789893 733956289 706312665 321890608 970881012 522419037 691457107 160559663 536371100 899198680 538426606 400051923 689831554 788009825 473428187 539226575 435194221 156228851 541122497 91566731 241599525 523439220 919148900 544708274 416597163 935820769 51376599 91708291 333733566 330843650 701388561 102434122 959282879 714101312 63246336 900545405 142179141 434541277 52757114 372561794 541530739 524453830 219718583 92351524 936679317 695393666 584546582 966457439 897068476 990993393 47969798 288549368 433663823 670420813 413294635 504742666 66389654 759637907 436885376 830569053 883090921 133426927 70093022 705317018 796897727 690414000 161295756 800151125 194115127 831208861 988530147 864193825 115944597 692358739 801025212 350401583 584853693 619775588 621901329 378230641 327558111 646746338 362019988 247981339 253470621 671314768 927297081 949617855 111433742 834733826 511007190 317907332 765014646 516901933 307240695 464649381 347785948 847590486 491857048 567255492 336076199 80031303 670313260 8863366 995212816 436995069 516663678 444315954 820469128 330318232 898960108 291953056 433400727 387466571 681516475 500779456 789999145 216230628 532409615 459925261 528447178 304455434 628130922 664578971 896135027 284521853 338306958 793477842 111409291 810757912 741978669 555161187 486270696 15301820 833195837 962937064 441588163 169431054 310876679 446026658 713845077 774460022 113834108 940802453 421585878 375940918 246960731 970082701 746599521 895850533 605485657 184480552 225189333 65480326 67170822 959418487 746863389 975548243 679409305 916749912 343650149 107148931 140763633 215629438 782793930 60518474 741290132 987204500 803291155 478630614 878040621 728663517 683603979 602707096 429872336 899843684 215366515 367620522 798038244 189299257 29441192 498143279 256957567 885053759 993695986 270161498 130510953 902801940 403253033 762747580 848493687 18888422 603087670 902908993 751672864 296865171 116058989 833394831 949777988 330183322 552665160 696564659 994457193 407904875 117018649 271998160 643100972 539308072 331279447 205375167 787147755 819806310 710323136 734945554 28315347 312918580 620577781 815613425 829247981 518758803 361411275 359946114 985796803 146568057 925762603 971089086 36387518 238411019 718162587 901546549 109504084 915058369 846936709 203220756 79585925 31725366 439188678 301358595 546517141 963418937 892975143 161334662 865566992 155869187 959937215 837412187 718933101 923392215 653679405 184822512 133453536 486118745 683692417 526239453 459584985 479039334 923925200 240037718 332338529 775833541 398311462 654606584 418381961 21337928 790779383 725998865 440537290 588877402 157576615 177739504 758430853 377344030 121748022 897533715 222195941 833048515 583155775 349529996 303333129 238031197 297499184 313863246 868591035 398658305 719862483 965303422 409979401 161744728 601047722 65677517 514214552 414893501 804525894 737073449 804498474 998187481 27653117 166311743 338792730 574881676 884637898 917472765 185523795 529453011 680830937 739658120 293275735 379614376 903683371 130629508 854562577 238911656 908214057 309143450 501908620 497244117 582157756 88883446 411774724 340797431 391979360 503760024 32684796 429318363 118251070 294508986 935027573 192005911 260205233 712139001 344996193 968124286 284735059 985259837 34027397 213692319 392513022 188502069 379953427 797420555 741918321 235860219 969355240 97439209 586011222 21034550 263677027 761048369 549222966 387857764 566022075 411986631 770666322 438888898 467992262 488192001 510036127 796853499 245498344 319967860 670036624 432796116 972426405 960394396 656062615 247495005 501722293 457408088 417355666 368562599 787811077 227255138 595470911 969308027 918855490 833260545 187011761 734204810 912242497 307169635 176569010 365361097 715652603 692623198 312199593 516388664 92128272 627532835 306514640 260071081 680428118 80162300 785023108 533248670 122566440 702733218 207031013 343160114 779706671 517406161 326244603 283211254 482487970 177146577 910472853 696184669 462809409 362270277 531546115 498555779 697556276 874565614 285068967 17484982 473400904 24652516 950810583 94336584 39242172 724427545 815655175 857798340 2573301 298084164 219420524 476642252 526418202 641614943 573103312 844666322 820228588 946156948 557874188 364497973 751316045 887882050 977730800 172020327 61930710 980384930 709279652 549633420 480950002 45219389 928022435 68966063 384915919 173708503 172208867 142588703 341634972 383942195 427803268 674907929 497352796 394085652 779580948 99665223 275749811 623455452 454029658 880656660 125850509 527663727 872531483 859056931 647387317 67909489 679783620 768304535 618868256 991391112 811472240 649843945 196165583 806044474 795431988 740980195 696179031 890418962 225073514 629344335 815438071 442754548 156895818 139346042 925649485 275375580 73648757 932642053 738111660 991507770 480998487 43719660 610052382 915838020 280570684 578886490 719280536 455660628 543150349 912557142 664925438 203103038 355527748 496880024 68815864 770307619 682909018 248353631 791671702 416096360 835374933 832416906 838580148 875183479 802404310 795820550 842326606 509766333 444599841 670450541 320565551 70836523 977778764 72774765 636057615 318413268 535592079 275857595 276243923 429888880 401742685 376009489 990907313 451968774 77720562 545336232 386707224 616982666 807138930 363240542 897957800 68390828 439958978 744413123 950428741 446123206 488038296 124643559 712993558 365642443 416148068 315542124 256931179 405179363 356861829 167200271 553468374 130482575 626767250 303508351 822562589 113774231 328787488 610218808 615841558 130297898 184889511 806426527 609518299 32692784 190821052 421199499 640659689 157499172 237414647 143892832 696758848 288331386 732661483 837672049 999338918 752348722 373539400 971286315 530659811 851300784 431693296 847856719 35960225 689970356 809985701 304800675 724099784 370320357 463046755 827260022 269057763 761399834 915140705 305726156 891823042 311180290 661211078 740096121 924364915 969053026 648957679 483973377 241179795 90387019 202235811 15661744 340508214 764632862 140354676 550928255 229420916 669291138 191748314 349886839 78898376 48021204 76564364 417595769 793671062 525715004 373374859 365829109 727556950 44848383 743436289 78746737 764109654 944459497 409684370 20104311 455896213 499012439 478377763 649633583 668462141 224745965 49596676 989511692 517691876 831362544 71734050 202779561 183215671 749253658 623188861 436744084 349218515 438461623 782521032 742860898 10421167 863022193 666579850 791567117 759860986 952043113 396314820 929280534 932959107 694467949 318148857 760154582 539225598 995477671 956866342 469239223 335813539 163481397 923098441 203105603 16893160 993489143 160683630 704722848 32128472 402882684 68919520 391854834 391102661 355144257 705920514 770538302 839211665 641411904 290748681 533388099 359563011 67878021 714465097 763316367 249138581 15486660 192910933 372649181 443267475 988922005 409020391 773646844 432138532 316228661 475559982 36364279 363145737 801242095 670522442 194386804 94060600 807324820 615092440 855040414 289999293 755534092 861926738 507487707 740241921 845874659 557820068 206032919 175020168 211761291 890594714 283490292 681783866 638512644 278696227 845620097 25630447 268717941 3671488 380701420 410361964 612932118 537275903 630598081 923286547 88307118 598837391 303126650 947028770 204812068 890140033 784942722 174467305 550747033 522857363 491439201 626429163 978506342 481967622 310407721 484564613 590412996 144661811 678520967 476768500 737061922 437501247 921519323 149943 954735631 851042263 619880054 968938309 507768673 297471074 900164691 76613011 6901869 150911077 876541912 733923421 153462244 145619608 165239651 339032023 93933369 709060456 813975449 879492940 871348840 304188557 409625648 17426412 226552563 933075912 462092312 303871110 965380033 261670683 416613529 842277420 376543984 999478800 529414686 472562146 904316115 44569417 512101219 516290721 524989065 469639270 476337375 110721812 721950643 174676999 548964733 972467928 834029004 85759465 294305123 543686652 502158249 626731024 334232516 708204814 868753604 56535827 237587077 278987487 498979876 928183000 346451009 920163904 782789305 689621985 758534850 556528227 218516714 427472919 828978855 465594851 340771190 169927309 733255083 424808817 711139021 406677774 523473755 467885818 984031127 314547597 477895082 623386980 959749532 746631396 563739559 267274796 212542684 484712025 796193456 145762247 504287205 156325425 88917362 695014807 653149709 438832772 347288307 29618546 687181713 267623367 692187187 693028134 292710929 92383479 877775083 814167197 603765344 447200698 280060340 499620614 559973765 723692285 379542172 335649492 809970415 176720506 868539763 88107969 228413224 305196579 938228286 840370961 409133813 19669280 319317051 198865583 788336615 653326074 997475069 751034769 156045990 563633443 183550913 100706562 412135372 910738563 271109290 966427620 493940732 829157643 346964662 219800936 266147698 785895672 592296112 855656768 230454661 97265036 960070518 283859093 63093671 802032830 100599730 452171428 282644491 687624786 589981511 839783083 382678110 490977382 655594080 307764997 410691219 381670300 81511925 766683361 329654189 833719345 288218531 495386993 528802002 834651094 248041056 295484796 342696062 109406008 485586457 153472901 244483183 892466437 639055251 78457608 326140921 122855251 889660898 548773211 321988146 173844537 125776309 31453455 723007839 957935435 714255254 113296488 49902607 989179745 519678310 964040523 757630219 884295354 737389312 545110895 235705994 278788742 557450243 205242207 877517217 833750057 982080623 584252270 26716453 687856596 795855917 968717428 767720762 22815345 76316328 778253541 784100385 30799451 123516743 374933754 852082648 143968984 673185225 571912784 236935172 621760611 307127974 11315571 558393959 606243989 946660671 234423368 451961148 964526130 193321589 281098432 349246982 864075490 614901657 200898617 926041797 562516780 525505011 275714432 353268306 880374938 460155804 629305993 434499214 518321209 120464997 787011514 969773805 430102359 986841532 974448933 919212495 359189064 959023253 348022636 40445361 855546079 773689777 368781920 204506771 993790413 983703049 426954069 517774582 573665953 504745508 880390251 891185907 397152922 103801527 348595168 59531071 991622341 564834621 506891335 740716715 651275627 699858558 540641369 798008745 30022707 922253700 701913799 842251131 507625831 97332320 713546726 544922258 412517049 922290299 2368809 5912875 372414004 344310019 308863281 658730823 703940183 742476169 405866928 482413593 27669135 596828055 307833731 639109007 507650857 987333205 163209648 272004337 685169375 781621030 556190087 670051412 78271246 630752729 404636835 73780934 524301644 678108527 98429035 342579442 292129857 560513085 973296435 944442962 855284112 860383155 796160151 771061474 667344895 193556911 155525384 496029021 762507033 509005118 825536764 65006469 345481500 774729987 234997791 447110295 173783787 371349614 617929959 917550283 105791829 888228755 330235757 975311115 632973812 632320396 818793398 975766485 195104940 267064530 474496784 264142231 416094997 186346384 782439409 52148842 776189775 901447315 106892861 869986727 748812645 546001519 108644844 294567381 15378647 211636668 594522798 411143042 885607711 390214587 317294533 796898896 642634721 194108919 227581890 207679913 405439816 707368034 996948393 699478059 769890029 351548214 686876970 663357846 256155381 483785237 438983878 450756422 886952371 158651720 545733746 899712543 859734201 802515284 920735097 911240059 326343071 117229247 986595360 150965465 727003824 947120980 44025984 552070115 123930027 849366669 997463444 255729855 751052760 764917422 514012188 806372 820409244 568827382 630425168 931531645 121103090 6068137 82995259 775028631 532011887 897936335 595584559 774340678 514330131 407955698 278773730 582589911 807563431 921161829 137519733 112712259 388043299 951704702 39122152 186107369 791135737 644531057 995891629 517462256 103345555 999835335 892657231 38100176 566396759 951576390 319383953 129217441 561530691 24815840 300109362 518526275 452385345 409585327 15875014 515285945 849163960 416405998 195995124 290899458 582647727 464271095 897344171 283127629 880741777 710223006 915953808 500624837 597554699 138624384 578592259 335766943 244617818 298769519 707976682 45032979 593790774 835470600 21808539 757329777 960100129 248605954 233998607 625851466 720836782 669342577 198006586 613722005 127522475 772835806 861934272 760904791 729898283 467054548 287589911 492999439 154946768 424464682 635582078 830890413 664788060 578102606 563355257 233620880 498108500 550193932 579987461 331465891 411978727 911872514 361276413 598924562 377080069 270602894 392946108 49398684 582549919 232030270 64210559 4857257 724433340 3227311 484164974 665629344 19616356 562987514 565361661 736019917 361504682 651927690 258954481 242375986 223988958 568409177 622231681 251823450 884858632 932441611 835692357 277420553 808007489 902343899 728395476 182243577 472852293 320369272 856843093 610864358 449999422 465535949 479748075 477441787 485672016 896248072 653090407 34946517 280900238 156508001 623320171 293425136 982615710 677659850 754561934 367938128 928133346 840626493 328626054 603926770 373241811 135994630 261878614 14134007 259786765 899371932 7203787 752389548 36555657 822825557 65121589 841833498 659048548 3799559 750828125 944340799 33422860 810783250 528713393 339355350 783524251 539392308 326445844 447523280 396016345 462305437 262226988 954511043 834847392 457869606 179890706 621488601 604930848 739146894 256286070 48666317 68012996 778624603 238169203 452003159 80711062 868478539 826263118 620717422 906061885 616723592 493347093 709318838 836030364 162318943 341145106 108325190 962989451 247890006 208976121 254388263 527829751 581253350 444128546 919280791 352636806 169715477 522579724 244693908 701367099 699339236 617451737 795509435 263054722 848205241 713439609 357530340 107112966 762443563 818120656 670999379 759158454 186624828 104341969 813895116 687444574 83319361 947096676 359390068 882040592 747973181 989499743 42902658 776654722 268673091 74543494 204125809 540144194 144545255 306351303 455220138 204462063 611892502 454835142 803250148 170205824 743679495 651472186 433099229 385755971 331904990 762688174 405859315 906845407 304093013 862847850 198911956 48330062 432185122 536357013 10538083 677617902 402493884 596954722 824908287 65424784 149953939 165867388 69768685 51209676 805991653 531608184 382494929 30359493 648469294 590093859 920609804 582764949 5669623 185092119 716039381 499661595 652557820 737738417 814745784 204680460 96969700 45681630 865315954 73131147 286333110 679381172 589560792 609409298 237768159 547794987 888566134 943772979 466156226 711612529 74559095 126444684 227597276 626004980 291784756 275770026 863149022 752734887 414983280 494170188 653703643 369076172 249232352 26724671 686914162 406066840 992869833 963017878 394156626 132724027 462276613 200200327 811250093 285306360 331099701 840861218 226203495 243414694 260085913 285245608 41807880 532638131 150674093 538286348 924857356 57741056 195693829 342943160 53796059 568534247 12496086 318298620 297170410 633573045 786229109 819138430 894564109 318110526 498116102 533898801 124007583 254443671 733786305 384654743 609039152 843920351 301596042 353728209 306266934 371696939 597267023 682518809 477688643 504771713 578782640 275248449 520409533 432636740 775424301 421659941 630727933 910704161 973875731 991961426 971488983 69320654 52698696 86311499 705674513 492682731 351913888 799783528 206936096 885870575 598089568 428963383 480509525 393545183 929794995 538442544 210421822 655653643 297657051 877473908 430207616 558677863 364040151 874148266 580795152 82008021 624368444 466056575 755749777 936531713 604144440 203666654 739922150 277508380 869798045 746247333 448261756 237256464 14005203 625824532 8024463 523665175 410846099 577916366 681022482 344059997 288727968 378679409 856879390 27239552 742125675 9922239 636643119 345977752 634959853 24007688 770617983 761600300 616565760 421917034 753324564 268912325 754866858 582946829 514540126 725610727 798393032 537465978 944523710 627875634 460327203 643522011 273779557 117396922 485414211 726091435 489037642 264885034 457118204 872942322 519562877 430017308 364485387 999127142 661113524 938432861 954055433 480489368 933276098 779969174 952192614 89479215 852838328 103235881 633086368 711649378 122374483 494077055 415762781 405067306 245647490 255911494 839498531 283784574 148896945 135228167 451931883 496001465 475946999 338133925 987773403 673316038 777417100 244778903 372523023 872752558 520322405 375595750 821389851 37043569 354495205 299874283 72507711 95084349 415495924 754210354 912018519 715617745 284135065 423185139 340527006 159197039 45190242 495113530 355650174 688345372 684902725 384980258 192438945 295887539 227691105 68441774 720267593 959020295 442164173 94720917 394337517 972304395 106440213 238948150 726955780 492965737 302276867 90502105 620289518 581934565 168085226 823733505 11721991 551611429 570661516 818685296 392197383 158843969 638773350 366390719 166588430 549294320 625650885 514574948 349709014 648419027 469818538 444412334 119284682 989012753 154164684 943818613 475921374 985850967 237171165 224160763 443245361 45485865 211541309 545327938 858956989 903207219 226456025 2471763 409022765 864230046 559613133 245501637 732864900 785183899 378299088 700880902 395476018 565501203 739567937 565067902 466902240 170330448 534601897 918875451 365937139 381948881 428999786 684114833 156602834 37452187 923380443 149355121 276925220 484184931 761825219 243453449 681587032 888231271 152894429 523192199 387745770 94901475 240870603 903118033 301760093 614014663 242039350 582589015 684344415 209736486 283670380 575772242 22545510 196821476 254246103 44730652 725542697 237961899 753465154 676130920 591995802 868515436 871916222 932878799 633010855 858424679 965617050 454681540 645489648 481425549 414500371 549954188 302418440 653688120 80440026 849438800 409878674 835548308 60334265 693281021 50453969 627946596 816397071 661830546 517446028 32990292 673301602 631763910 618976152 923656903 294512406 940137011 349814647 860419028 801183405 531304990 308666164 915128284 559251349 59072915 629629885 123077625 336828166 293136874 682641195 485255371 814540432 738923180 189543032 42174741 913057937 478469650 394821256 654652376 944660362 249352797 275381856 162763478 984866184 375841139 59858283 132641839 409503983 115572306 818082667 750189643 201096275 377065121 148521734 436716797 109108955 600810352 609436345 723840149 379301863 998845817 312422096 206233873 607249039 787732910 482265715 755932282 196851337 437673045 262540241 492885962 992242100 846251816 14645041 124893317 883353409 17771522 72312094 232999216 338500692 879895107 67290280 609436895 833285173 47682397 206348406 824491252 805628931 808525020 73478932 888020841 240162135 839927591 934857711 623303358 720602261 441764064 696075637 775511547 726123165 995920928 679162158 801528140 730437728 231051595 584221626 774065015 369261821 161433641 462872699 903160302 143930560 622265002 568500144 834636291 730717016 614641776 713724850 380525963 611567402 363391228 460862008 966222687 324811633 132889715 174888707 688988511 442668729 364259634 829641118 131191730 851230506 142176940 759402874 772993839 989797716 27858537 904007853 948680806 870471532 142824892 536735496 185921664 518290105 458830033 7172772 990786629 208351061 154676651 339364962 944194681 245576058 840185949 961763517 136649678 804620414 398648384 152588925 648636143 961459002 221980350 438224323 987564008 424029968 323841341 495366198 38786186 60813876 437464166 787653623 550383030 110779925 490765320 688989279 214969033 372945265 975023683 862700910 865430088 163623180 621777992 311767387 937651940 42625602 433319942 783381805 656669329 738254944 178324384 326264830 926328322 427836998 184027118 327337722 388492268 44304312 346921203 107664126 218575162 874048116 792808357 623398255 824533649 989619239 338322862 629206542 134679298 991607308 99386557 483880436 192958686 776242103 325879838 400334277 281788207 613268468 581542017 22597648 736045461 111163422 3051530 16981078 594601360 450192230 810912310 390746906 87617705 966220499 568072123 656560875 721287474 524699819 978916935 876885012 473847928 794733979 585286844 122894389 524540092 887635187 529990541 627870947 365806009 158377625 323752217 143423602 248814536 285445886 153707307 387302585 957348892 757369974 59176905 864567763 60233198 412597192 929865377 966348042 160324379 737103544 560534894 376989204 460015633 585486439 322557666 718736593 355508429 250922030 266414961 963393500 475160984 429391541 119035091 194338272 809274264 793786819 492168697 610740679 642175159 146642090 197193149 316881527 155608180 924666752 791219115 247415618 765928644 31000368 728267082 513766492 751731814 795475933 309835483 248383626 262603207 207810741 442604579 894749495 618916025 775892639 412786013 516339094 291467311 630483194 922446710 910047625 570576164 579980582 825509208 817379609 384015012 279221919 665913378 232872686 289911698 30206742 452736103 880911961 305596366 63262933 405756464 981468847 631774041 667720347 13051076 40183136 711367511 651544161 534246213 109248136 343374350 160514919 867570362 408802902 924609604 579845190 142730053 276117686 942745887 743556137 183198688 629849416 548106674 203362679 818323500 820433612 622939084 386964485 794881642 252787778 516978107 200726945 691239412 795917094 814387002 719535403 176451489 569006069 83231669 164373449 273663153 889938850 322425390 198514451 286959740 696407823 862233987 295592094 538875428 846897720 557236806 766370975 849648240 800131068 348107057 132357488 399464303 241109064 99870909 391737194 379499089 175311728 642728411 955149429 900273753 44810880 28537821 363761882 703606180 834407998 909618540 34205424 331555777 291513072 611188079 502404145 611658745 841757691 711732832 3034355 683324752 18243741 897377550 749768621 547817080 507286240 47939538 149539829 106384161 640182062 942644298 845767768 946853802 315526293 149027330 438607553 287076076 773237180 115868035 630828274 858055743 409504305 729069471 218717872 158862290 963945559 967542913 549955117 76069889 452650171 180918035 755140702 78959399 556199782 39608901 722605896 930530782 494735084 376419203 52991030 363399279 314384960 853372781 602413561 308704750 442355751 468271280 732282434 610527198 551663045 519861871 30141455 60338883 766537569 99650507 463458883 951518504 318049077 945746665 38376368 491750876 471128856 375931506 775840315 545207634 391361195 259963819 126637349 535172763 662765247 894496586 179155406 44424571 451710453 875933002 980771302 464949569 327478410 30120425 287056374 123926688 444242942 388912691 432838107 717626336 689379989 742364645 172826391 343449759 738298813 414169539 68391998 134860860 955508720 982519110 340417505 725618165 996341151 723643692 121016298 671271162 23631443 650077900 6549189 50395077 326973406 50980802 299124194 764071197 397217026 788694000 142485705 52430401 689994631 130728887 102919472 495567217 108928274 760714996 91441526 145636711 364422915 504001417 726605896 247993451 824001663 157130364 291896719 802769964 346374777 194704814 311555756 966468815 961547551 649077669 644443878 633992040 127792714 383263026 63739608 24825646 360869331 935568165 934275954 13545798 951318060 977631285 807151331 8823225 173204367 517628623 807048109 218490592 478923794 189995285 907575917 440834326 699247838 590300489 919210471 935271207 615137284 681307937 116916164 568169493 790123023 362951991 21243088 429646974 663304458 865364111 587654953 879699055 726608360 350545296 856284770 790612949 164186864 131779490 356754709 639618648 610097634 900069146 113407110 509315323 753231549 847142021 328407292 449899384 602887995 733507425 625002707 427335815 221116859 146082166 857549905 842080224 186310075 501780320 287458592 170119982 376823974 400747842 145403135 71661306 919081665 248524157 930322744 877010733 99417351 96062031 544273444 704875058 536032047 434189437 125326167 665057295 401705002 122570506 388269411 448036013 882896540 545808937 809758262 375571907 157900002 786322732 991115970 669722229 954898655 216570732 955705629 454743217 294951912 914052637 916038017 645180566 750123245 921876378 14673816 133331490 186505806 916673757 977155547 631189563 358258444 117868034 768465707 660639285 348322495 277109616 309633908 117126627 322912508 183097892 712989194 850257206 316845036 78806946 87133116 48905059 325792253 151818911 121444967 373599005 925820303 466552024 231048320 786083298 53316366 592891305 87791771 905382974 723590632 900010339 265420374 335505134 430427043 408370483 484395297 115573023 319888964 907483131 487915987 120224385 953322193 339153826 767559017 990654542 728462244 711658142 229777426 368154661 502679460 147185228 584281809 481824387 798458367 769029124 533628097 606064911 69348676 768963789 930008837 573387013 596277494 309975817 696512804 924351229 72862066 764778872 784577682 317307772 727761282 915821078 465147212 294393624 890353353 844603794 107446831 507415597 14043078 532074839 656553117 544169881 758063481 896276390 179879441 928124459 924806906 743111028 971542178 875178127 580701627 64673120 64307412 560984886 468456621 142651270 677215573 663912183 615887140 139556104 674540094 138231183 194841247 994179263 105096417 224622283 286095957 848133279 167507161 513713569 598873016 787256914 589611708 477286095 627156845 46698801 302465218 616675602 398323763 773311913 68097572 487051998 958383378 967161337 145860035 507816210 739150597 356931200 357733411 634961763 64041622 802734666 520550257 705076900 83440239 27981713 358407863 771954985 873605195 70248719 224517091 160533178 118166688 598719008 839249924 857822719 175641907 688390287 754490483 714182537 567514290 844474362 841516311 571304670 938660337 634912040 362312757 580687411 270033315 835345012 501546404 679864022 595483096 410865525 682886136 459460597 568680574 219818796 483209105 984796696 702229810 839160712 433433256 198843481 284624262 389828326 883657382 395916747 297987354 260968673 381070741 693712096 55826170 282859810 681935181 409889172 279937271 235734988 477343691 891600343 979317664 714703134 79009985 854235444 23824047 932686265 283908969 649085630 273845946 92376814 34671995 277503503 152745475 697153689 598761101 187035865 189211913 71700898 559226521 368993769 195330751 699516670 796941222 395795253 77936376 832479661 225238741 399352757 512589104 86907394 924317760 435134595 973721901 987208768 901820853 104295375 417317119 581178148 773173430 501545994 35703009 475197629 895652015 84891497 521245781 515497097 393293097 698524035 712267638 363684997 942172140 443178734 485405761 621166636 849645381 803989673 368531785 779718921 244932675 560727527 816763008 531101081 503832644 291781986 504823046 313097110 161428710 75354165 285444165 856280150 17691104 97855044 877085245 605336317 329329606 517953314 299580309 64633863 204164146 900889370 373375895 822608253 305597992 512969772 923103463 834424150 626034648 765169386 860354249 926765598 742568108 802802513 471372360 813158074 313564952 695443532 348882919 27327030 581319665 850905045 709142197 411387258 194199429 896718932 487332344 391500212 10458590 426515599 762309161 443969017 414097584 995884461 487153701 261278877 501772566 572868803 38511952 647995133 446008814 676779471 131989445 716615555 960871710 625363572 2295583 733352097 996979715 929166033 208679927 610156154 480726502 533434856 3308666 299324923 976020274 141141325 496846556 887632202 311370671 554071396 879124803 713626456 340592422 312852843 589711596 392184013 79899764 232116356 4971801 224333209 273130881 899205503 620084999 543124960 718913696 516652319 94610877 183160908 981390570 978235237 195319748 474248248 410089396 448987041 715590447 561926941 917102424 466909240 478530547 306042596 667712011 70287040 865602563 845175943 301291107 218569662 382401999 600834440 425075857 471249650 200099446 654236391 669620119 935863258 290356872 675705286 159808411 491896734 933617030 82841530 779773351 956810910 172614060 205204901 824385444 991767340 157827188 2805838 676685213 72179855 845821632 403293214 69488494 238168390 792339559 854468000 962170471 208269863 862834800 552688896 461083343 35705398 112244967 884610051 196100883 833538155 653606862 32391711 878070910 50370336 245413511 888760086 888574972 947638635 188610657 269800876 109466266 12305794 502709827 277279356 649268430 105930650 123542253 154644405 869524098 66993951 407986059 969316586 78999999 621876350 52821435 537541758 846386402 215974972 333494234 881464216 271919119 612300537 224532153 121382081 852109290 322034566 963955568 720727306 294376608 108254207 870099967 482185151 960502281 271465840 7318105 576650729 971629688 461422020 110652133 875443624 55432025 603944327 418121568 832980331 13212428 654297881 494394025 409728936 400918550 202082860 769717355 358006846 958877554 737817100 223952352 272465675 541975368 589952812 594043356 27234310 784362444 216506444 28028155 599295971 343510694 535179061 313670166 543515551 171226409 366585311 521802344 919772064 103973550 136552155 233379427 938317057 738440770 169484891 190025353 563375900 344991519 282158030 537192187 998412188 756149928 2151962 894986985 486982508 979044129 647009408 258095228 65595036 351501213 238027392 139988200 549346941 800387585 191188870 353903488 203738707 519497586 728315656 158035299 147035550 551811876 295454321 883709417 656432554 677514526 630025430 30323615 618740957 7307891 703131017 430008518 200491972 876154749 417177491 861384584 891851940 248483786 632783573 416218618 40685718 862678588 594080786 983833807 407653107 588572938 69273924 33807546 257446474 458376138 647298615 137441647 714869942 554954967 622155478 891971169 513143189 42571630 284403325 209750868 549076130 910439604 841001407 906183407 49938027 424271953 616604195 268597745 928180581 267459746 501119011 966686262 911877594 309750714 993049878 678247741 686391607 239461526 449617587 618558689 38230319 113534697 29301032 771616679 58884310 398655740 626471096 775412953 252647191 297474760 687026627 146884699 981191131 123758014 506703436 772692653 211690435 237242793 233326068 455847914 772538247 533113744 771994020 383189950 567063818 881588975 773716028 910469499 568091428 390365402 488477510 960672564 394352632 845937863 21941977 552370721 642674115 212881312 117909428 312236914 685694143 490249457 509593422 413770774 340519031 81261914 146755245 289598873 604874216 168421581 172601755 816514662 193032666 305393185 388504338 974838378 437817510 369967773 150172100 827447531 400941676 12907754 96608441 594443230 213393820 569147496 611540139 314271767 990726836 546331821 330795063 693177810 102646649 682157096 613557734 348809154 872811387 558377444 954892881 310284235 131150941 504444633 262365008 444637716 351232523 101498381 284585535 436969651 966249205 79818750 100414282 702322600 178772438 990961843 549823349 788083502 877591494 363190687 583738573 145245811 93242879 505886890 666613046 243953574 257852859 502452808 590507917 20286459 562602307 544541289 242900049 325819046 429738168 689631544 889206449 357279431 437852551 830175567 694291897 833663737 122253741 67511271 162791063 403280052 700781450 340661186 300958598 93383594 921120110 682265875 622299729 299270098 679647892 455840578 551640333 599133935 730447150 833344249 688125558 148537614 357583491 680510633 538320506 999951827 635949462 976117511 783371674 696219147 291892364 951928528 639854267 214974250 419737972 752137552 260523302 85997708 876409685 32802438 277839395 38871945 730429309 766316894 340437894 65972944 221222245 342287788 792700202 550463880 378674869 846238346 955179172 602882522 648822757 538420610 134012762 300510740 389515985 226553799 417466150 477400438 492683217 501315866 173129872 110380118 950808928 357029329 996900639 327556848 109830737 439305664 11709226 981660076 364332462 407954885 477482542 956806820 623358754 498444811 268890264 936312334 255955162 112742560 321799756 215216981 621289513 711177011 792446703 978848595 281815640 282226591 721320780 377929202 959061262 192563659 576926141 118739114 964588360 588210284 283138041 529215889 131742054 646731292 953274552 519371470 624099802 67686003 648518533 457452373 269483827 951006097 974247898 93855714 392511422 717606540 683880703 73238016 823070240 872300810 901880764 163990098 158112575 685127308 347895842 126904694 352241969 290939295 262548096 309850821 724612736 850809704 565600837 667298890 974485428 954769522 463999727 272956193 234233294 305939636 650996908 294131503 707713802 101264792 764519557 324913987 494483247 67056948 206941230 245996853 230006039 90753525 988399448 830886267 976718702 982799152 478006821 762351747 379997086 317330719 234464034 214187415 761095320 829143763 663764279 245775991 412500606 834454469 627513262 912194545 457747044 847640931 831251304 471363625 71119427 786146983 450481600 368390111 621714239 160801860 218526506 465984627 614209 625722819 629127631 972930292 751093127 387712545 426231705 929022730 692330865 507293955 739826626 503016287 621422752 913053609 169706741 453620732 225264394 253589974 692461974 443831885 858152648 455752658 640019729 478469373 680347758 442470249 32393879 138859480 273489371 75940275 400467631 29515911 5759527 199937452 572312179 201007649 851083545 334890236 783804231 542405237 556127477 583490849 429349810 545880299 983937813 742604262 133706437 571928640 280862684 620874867 449957475 343831633 697572117 196445008 318732231 839045575 794978633 682266057 765691534 736292734 745525660 342771903 228284255 23235764 209407067 256609002 814826323 742978790 254305645 137362096 43941219 908713334 897268050 55438779 598757095 466281205 84669222 828549492 472802934 755082586 880031737 191771052 828179527 848550716 521006995 297944657 207333335 682900710 229277603 227568849 702324617 32657655 116670274 83388279 62543694 102945342 310981720 915663198 507655842 640427736 419850821 397034143 158179143 299820263 98161673 539693567 335236850 7659654 364104715 741145336 544185525 975263116 996700202 110455700 130252281 770402180 921936901 202313300 7214022 794481083 986893433 50336568 252416789 672774908 671874781 628985991 782731201 607224620 515575219 451839540 153229076 705306586 622639652 722444604 741907753 7389562 208865725 981464859 642380109 10315725 365428949 2188552 15390889 647347863 977959678 958132751 461713522 494960269 97982303 143030647 74538690 87420426 169024310 479531943 863153708 984608622 67122223 307678967 888481091 294928678 1568038 924657802 730778795 632740918 640554881 744131407 707433813 811026289 499456855 156796971 434132987 211886387 820827948 388151917 210217131 194885992 494346060 307859908 523875118 658612874 275211310 19002205 206940447 568469740 81681353 882454452 121476250 97701593 874373034 592203219 150772748 61383863 331815119 61173815 373364916 752779515 659982552 960312770 711020812 663546843 487032085 939095249 712566153 968993975 390222801 314382112 610428404 49581054 734080170 77113182 551628612 394359443 381968914 690140492 795005379 955928543 117286520 179068474 881856689 311622313 35321425 584864927 762310280 86926911 355823566 544830020 967640766 355365881 947020896 576026914 410256397 124542940 162266666 730602000 771163214 550628114 20877451 774807919 35853834 248909539 97489602 352524891 114679204 910645873 622782698 85503440 865691415 552895090 73507633 471814781 263570436 397650984 278415442 204421216 513082233 974179605 571254670 936063230 644195893 77364274 331185328 218324949 865227092 797210690 249688343 269615189 559121919 648754813 471159214 871742446 546091134 679285459 248595205 904693114 344882197 129982137 919889206 735498627 112904497 828145758 746843445 981652646 482889550 992843419 5564502 655296143 958534639 716152785 691356950 21313494 73436294 765440146 626718936 900521453 175281061 838404259 947555437 773911044 316982173 736606746 47023753 953003333 976654069 303664593 488955291 889528938 949999931 215621461 891248942 700185015 806789508 330841008 19775755 851039954 399356098 660703054 713246922 711114129 850938240 413111253 569564281 667865630 625174180 762682012 682590925 245003524 171425171 938311941 660211828 133783259 545105711 575805424 652861169 399091183 424275294 348439236 766678847 860308779 226185565 362842101 984953947 564628381 652174365 584536975 692637565 112326012 169052331 498293514 457635204 631075048 591644885 873432303 144317510 25246312 933887655 738866165 303190442 12352219 538276238 467060255 103801075 219984559 642659534 347978602 892110170 375931564 452354559 872822599 663457213 576457005 804413521 513199952 91238067 506461389 357936397 802019879 68649134 128650723 543658233 969044625 289614180 718229216 270628249 37383504 384260665 322193229 982775473 320634262 158086330 17866049 514189285 917344796 381213536 372441728 458046313 699968473 525430236 523236293 65634362 8251487 216167733 171984154 946265238 999790289 296093610 82896145 605563502 241487749 285864015 458813742 502591451 796630501 95039020 45743340 455468890 895876155 983865062 748475621 699012232 302393381 903933851 140605077 161738415 253757675 475442881 912643147 89493320 279668339 743413473 443472648 879945213 446413578 521652130 250346934 397448897 441417389 497900312 722230327 90895895 687744101 708532624 773849614 430235283 265198445 461389655 753388266 372958392 115537454 477810055 375605461 794248945 511508121 319173847 657954364 878171266 814574855 616294755 179986191 236601969 249088545 729826767 304719711 185291079 140374831 716324691 383983494 133216543 315037121 718172070 706571485 507735911 198827872 798156170 884389169 902671126 834551717 620058801 980039856 189967943 806971703 852922296 27406416 860285714 171491161 762466921 743685513 888853741 176427866 676166725 298364566 904360503 60843274 407459528 599603550 214561197 364639446 444538319 258788542 64936018 402930989 949750590 738967233 313680903 648697263 703103474 212697159 76991280 320998350 764154897 966339453 925661184 595703489 433899576 443177261 988805252 163233355 789530501 171976332 163890850 157691595 927784863 456458996 532212176 204416602 609121699 862975351 501622407 258309401 128029671 830598903 992871601 916279594 86068400 201695632 615714516 246455942 16205812 170586994 343091130 109580957 452717880 755354902 328716250 217522400 80870606 372227414 299780186 270208776 548562261 22726576 572622669 539097544 855632079 506947467 726363090 498688140 127435143 445972094 816172647 395578288 286991487 610291199 305077898 921848789 44015566 713304551 311949555 378239034 545264695 516499145 427669309 454668565 472658264 738985267 146365074 549096582 608841436 856208748 650941161 583421905 944808751 356779899 275029058 680047654 862183327 898755347 159710675 537851641 626456704 120791587 802197984 238307333 755047943 165137874 895095338 923841693 740870490 450161039 61574391 490565552 769269996 971208204 760626805 38656168 350184752 531002138 892405880 545356421 680432804 68552461 804994003 202306308 796271743 588851307 808945618 874389682 197074950 878987186 952581943 715163305 390528036 990114012 742396481 95890314 13703640 576959900 660971949 835550166 209707404 412445570 428615732 730626262 466061629 621189399 212798070 111010992 281366573 55682798 419426359 914946285 853931987 641671913 811596638 557894689 508730697 632966935 405144501 322134260 879182282 117136534 465505038 448864661 349340609 854031026 71842731 992223403 498174278 896303795 457787247 663108362 417689354 482718333 63286464 320365804 585429513 673762630 402830132 860766634 91501896 355761369 860237607 644592902 918589855 876481681 277594185 88893449 180979913 25566365 634162259 467214034 829205782 808945149 706076386 586859596 579394364 344013850 499891777 683111209 442001471 590975020 708918763 88947733 929820758 405378977 183737503 763225827 28751103 647553466 852037322 645206021 276234771 203028487 148451164 994717809 238157306 938353053 366181203 508326288 376919731 209561982 371059869 757231759 138836378 56000654 733032288 253384194 51366567 747854136 878411869 948825119 392783928 322346412 794636699 708767468 950403978 593345107 334042739 585343979 733182225 27610244 183287314 536023503 666920138 279809472 826190094 427729984 110637811 619600644 484414782 707035219 769705562 483321834 809577820 388831418 847422610 831922508 553985511 264257353 473652292 641168466 747658250 383976046 145404214 196291071 776735595 193080253 812933839 376517246 651696623 827692616 670296811 285424471 614406683 369680096 936071020 598278634 961423049 503405903 902184020 475648155 345791598 31232018 556099322 485419049 582950189 252707096 142542563 628081203 941360891 532555260 26809851 461419223 469169323 199855917 766896513 905680571 269600699 638796140 484814708 940172534 872933614 740147012 459116442 486537680 879010086 669426191 959662391 423312345 957595514 377826626 648569306 599481411 393394765 380529226 37720983 717076462 190332743 375977560 576713522 545126646 404084542 397102626 22704122 141996293 654050442 258172760 208983513 977900267 917538477 451058721 103063973 691506062 24852319 845970798 289697030 50750091 321123498 587081274 498483610 464755475 530527831 52184506 135893114 589935217 792046990 172956447 831162042 691843221 110609375 818453764 292757205 241971324 776194055 433845038 80904133 809159999 372724973 939063242 531853102 992684216 829026776 849100203 182748071 909914889 826442507 642670981 998767052 951699211 28414690 337449601 449594279 717984140 401447334 492058020 402810110 136086406 144820964 719574335 298058294 641582359 107342922 917354633 570975452 673991649 498297182 887329196 475530636 97108373 242753013 21305438 807965424 614290352 218778966 20759740 153915250 835352422 840513779 193430364 900836269 529204309 863434945 215727128 948014802 176554187 101107517 710585242 589676719 469223104 35964973 212451977 384851812 28943500 326317140 778463570 783864770 312057602 312359890 255548216 315930085 272647310 125610582 128262410 940604261 451993072 686617563 839156661 487542537 187434521 756863832 710271945 283544847 287223465 382555238 873820561 133666348 657415705 272427319 654966997 967347971 21209218 401225103 800557615 992425227 435634039 55203393 989618204 315722044 132248784 245919380 705255074 568733919 584892132 72481248 567746458 13264041 186525890 651102069 46745057 460654943 696520868 259683776 758649082 141276630 305766154 244616356 4613149 965619442 232279661 140758907 866768462 509229114 239229113 723703296 245652206 653496150 44717569 868480200 114263619 450610131 307239841 317128006 577622991 668737864 734102340 23570973 878778132 84833477 142928187 769707010 470265808 466776127 216660392 782794355 353746680 414047655 943558026 851839615 344400693 332208460 264414933 936943842 423325018 940930709 79873398 581327178 6094159 827714115 608717053 548795551 106364302 282990754 682357481 474035497 715571841 146532800 479475393 74595734 113038644 219079563 687542482 688762505 794775397 989143968 317640386 609483433 235378630 307067435 751282598 155041604 697135707 476594021 381587854 206137351 582655390 839806627 935359234 825543043 740359321 821300098 575972075 619656525 805978096 665146150 6508452 776947451 889009084 746973138 528689543 797512535 70715950 99480354 124429561 814245352 707159828 898961034 149877876 529481188 586588505 30326300 151513431 416066090 528591182 903767889 980696084 222151235 895613883 637225169 541963128 30055958 714999851 191809536 723173290 367931921 304819028 182690907 453750762 781814188 930639653 520915052 953601729 143537413 229880081 490266422 856891417 150423248 387449296 805415134 829451605 337857408 992844908 794837846 270902366 76487330 374366022 376672405 256808758 194361364 4137031 503599198 924368201 603657928 610712873 663883971 204800942 93841576 328806106 461295749 769845122 313161852 677173910 120744329 731842844 979362431 937424069 196949006 192420181 944892789 21558549 669325021 980856295 126194681 986884205 763598823 95163651 272614275 518793356 265724947 765243568 234629756 75643023 581461252 284568791 771799951 701482322 467125862 926235093 129432671 491686405 917546427 492104039 723406738 517078683 467260829 428901134 92638330 439266217 334349299 287400718 43491976 293430451 74700967 210503186 866015151 266395249 271454431 52048866 274985798 175186082 747439323 560089009 520783594 387116827 60784527 379385200 825505111 100811784 435592404 433144605 955568528 595199829 867045722 638919405 472809268 338847190 837557444 100496239 179689762 119499599 190981634 137305644 884181820 435473029 160214768 786792426 717458669 42452113 466681131 916983325 997468746 834312683 936847448 886715049 825608226 520441958 618273157 699213610 546206041 565831314 652831107 844846033 648879790 755753209 190718522 508044210 545432961 526585532 708114576 905052240 271141857 557042720 384900346 983096539 341990448 771878960 438240409 679641995 162693178 978487874 843789024 518654267 985924851 836276659 436515044 56948806 688858675 816328870 162960193 552927024 146156063 644687646 722651186 183472317 758346784 972036489 279029948 845835370 830704702 586246761 8526129 159324734 822588643 863553889 100844238 416904075 930854210 374451273 623195997 197367290 207342625 967481876 692595662 488863631 566959031 353652689 371374471 212173087 447646816 250835408 456686417 912748235 192230451 318172267 159883227 499077603 501737776 484376277 165740241 369362728 491929895 956932165 127863736 704374233 872287660 369521101 227025815 346666850 230716518 11441671 988512759 437253957 205928945 472257173 58392557 168754873 997167101 851421310 958052925 167247184 669307546 99933011 193322395 586270761 279202692 845576123 24029427 697719945 904757579 503129308 775247869 842825726 434948666 633193913 798203205 704139997 70042354 360564611 231691584 545564421 18166727 599467609 652342519 797623817 367370798 154685928 377674820 133850282 588425249 879493930 148478886 273036298 610182896 106483318 64596755 588596367 575392477 298916772 957993080 160652821 269182818 25856405 583436473 660157291 755154893 600604809 941374789 646966876 978735487 872226933 142407176 305246393 616837724 765194321 949509003 844486586 367560450 146314305 238014290 977644724 650453499 179454687 211198518 163151901 616237250 920579024 588613304 279291953 726377502 189627635 716947992 218373594 93448643 684775008 944127382 71132206 345999753 16934346 873497666 462167777 390505728 883806572 362685471 293096853 319891709 891492918 877236006 922656184 531473966 247320485 201740346 254684696 17875500 450194671 792084544 571729363 25210273 33089822 498934444 899153793 559971137 247072502 521588904 611177639 805698459 593811045 755191275 237799489 975614863 756405386 865568093 471113065 364530959 13602556 486474615 775314427 338647244 238405946 187031285 763286647 120148880 289333709 15339638 706425628 421161298 370446710 585398266 456403992 783229950 350160830 799888282 334991153 376879186 401999842 14222190 179206678 816208235 891465359 537189777 708682756 347711696 174341412 470072227 519303021 529842790 658012577 973680575 346977008 922853454 194474265 537686056 502936719 303808295 354848058 644710515 689067297 795113604 264056957 200826083 826771293 986765398 108800374 32531799 383282876 680553109 636967609 718316170 319313947 544482355 493105428 475279920 403210442 179196610 497676338 288396912 546324198 501910629 131437798 213675363 886872945 622843001 795719084 262480689 708598328 367495333 483169727 195927063 310048779 931723208 61803207 460211977 671727400 283017793 312119742 561046639 974470468 96938838 539667759 336055206 908353637 546478822 285518087 170924318 280806295 99744205 63756282 237302018 896305007 591016157 407640586 9995226 802056323 770023675 926296689 596435761 489536948 951785975 907131956 494411958 266862759 528920008 246192868 373088692 283622895 679720054 719248832 533452020 266202873 711082833 670399610 844174574 765527336 401770782 606928981 76266192 838450718 894329686 986344984 275125795 330423964 817317568 544766687 95936764 369606745 560063067 380408473 689885829 785443531 354746930 396429219 48651126 765163907 539638439 524632109 33588942 550635345 666493233 326135233 678836661 388767436 294862519 614473343 576246499 311827261 16652768 280296714 782905849 113920402 788253652 124633112 61652568 435393689 724229323 705000790 36621363 982357119 369307412 677221153 406978667 568825917 980195219 550380757 371074048 718177264 847941627 138492393 946942183 923194238 975129794 822379533 100091517 991007977 531986283 214072319 927507725 899574607 275057656 613210934 659168601 103985918 396280364 799127687 804755489 930139888 407176081 72600768 329125222 601093393 975064049 794935299 903641651 110605166 806160832 20565870 791859921 297390794 729411887 784751885 575739612 539421763 667234480 354183095 573485198 462131177 992998716 945421391 788401739 329540878 774928226 806969060 879847204 364683967 647833793 760585746 166120789 534425741 921745867 295745235 368866377 351104564 365848748 423612924 341146826 511617213 756046385 511485545 420846815 899221637 922598758 729620330 484570512 893584563 154491451 60489208 129157601 863772459 233814814 624749079 882784856 591435993 897801962 112744915 779100493 89165326 794611389 650058711 953498750 711670143 583603451 845326624 425044909 850264220 74513459 392267365 801087512 28246930 620477712 353208586 982711524 572990120 757496423 569424258 173595871 20124491 538632076 917007156 245627602 327201920 97208435 20356555 12609606 624370489 90020371 133869804 587804235 893605639 351813719 448788800 672766398 634821364 889774405 729535638 141205711 226484740 851800325 176127862 156233596 9533490 266219666 559801097 989550961 279155766 530543322 988866315 980777871 265149828 982318504 662072400 797244396 583841411 893689652 127169420 580500951 522959660 246488907 968666676 806643795 551601248 661594025 682736067 364681272 572123615 697654391 214290146 662091472 712761090 232003018 500386000 394636433 795358213 294275900 279034077 450504009 128279446 276001732 425951957 844171321 423495948 917790169 858015245 931959731 967135451 389477097 516310903 809761227 890902316 365295720 692867697 924261829 209966585 195746315 216623716 517123210 175258000 628135921 943544038 319596139 435863754 877655964 136505039 444390647 364884761 816718272 962128137 991234342 756581200 5595568 108350539 534522710 786101575 660980095 765749609 267524197 285579578 969940114 560959476 934439955 665395776 614647467 989138974 769550100 598892813 809682651 849367374 503873035 922150027 145557406 417271455 782691030 533086716 488322158 832009220 221300186 201369547 893172565 26456619 680380456 200235801 488085643 583334987 630414297 866083631 111303671 264798240 585235106 329086780 198820451 571415915 48293737 139466968 181711915 621774852 655998742 915828100 815277594 272215951 691248897 86507176 816628509 712150839 713191057 408494159 458003887 219976965 828579339 264774708 228842338 653035359 443102556 472824233 282457217 332512970 149027685 292616208 34789849 457090 318562552 307458798 340222556 167012889 938425500 533773758 969094888 395065864 383450218 921988392 880029835 806858942 698729263 196008189 685769182 24289009 398068248 366637922 259872530 134827488 748991001 494702147 547994522 343089858 980895929 819892675 320263709 370246957 743133156 655731879 768992087 419616499 316273101 528827957 929230377 289025442 183890818 829040417 694555551 467981430 803891480 98405188 316075354 572641055 893906101 744145904 678032718 191558973 248743883 370645258 234621684 230626225 825881972 791685614 332445422 723215056 403493856 499376506 18863990 836703499 671239823 290876588 818004999 459911479 388811153 405672346 264271301 207017346 686287662 651091633 385353143 919304364 634705045 667788655 580614962 193945710 375305211 634750694 675991113 375041174 785264817 342653957 514870046 623283926 289875302 77438580 697625225 401640184 360712824 442336117 263066986 305897530 597932925 587768462 401428041 723941304 738990238 412713737 657018955 508497267 755381793 251215761 207215995 206682509 242028378 394172399 615013194 665910806 696052023 640942987 876278434 964366203 848099334 951908070 37036426 172216547 13934649 134256209 555461666 733432313 391712718 3696385 199919799 438842084 59132029 548165479 766773704 709953670 378677447 52073883 563811293 666905063 598387333 41102278 894453062 449826276 269554391 871472798 818813428 219127964 57303706 120723440 111475689 10036233 521018707 991782451 850060169 318631178 109964118 222584076 728368817 715608090 830160671 528298504 96670048 350157698 15944470 474172158 815031617 369374283 783634191 993878310 424614993 178058224 148079375 677035079 669985574 665641000 291553112 600861892 59501788 789011856 481138668 587715111 835175358 887341027 514344102 77442652 817645558 159914429 432528721 977096254 771497039 702448307 521137063 882805610 916864804 371234522 82946255 941473389 792123716 435618059 11466929 211134247 407131333 96257894 268380847 431345327 854273052 481192792 589890807 977942904 403700601 249853792 720952037 724337168 309368935 728409434 240126259 328804319 266422341 378549217 848857970 301906567 927875681 826580846 143333193 941726959 988230469 247357931 406274936 546369393 221152163 773927074 15431067 387349279 522098096 948126690 221656490 953789241 747052082 285961760 305439177 939314243 987867217 715325668 625619424 99953119 843116933 728312415 243983866 211816130 192945456 589095274 432696304 377454038 669412252 265752268 257569289 814786950 191087491 110040825 338071317 914674428 746057990 204457308 724155102 325008882 458799898 35413208 159260808 602145905 848964733 706660419 963716821 946521090 504039635 763134194 503458206 695462887 370020206 980588821 574449221 607652283 607569791 519890023 853685447 664899037 999391265 395487289 248091918 818822863 673946780 145409822 358705998 20575807 492357301 199287144 516485962 840978607 42473389 982300590 276579161 336932031 952631746 931725903 80951505 80289274 788981840 187760234 196783166 64855147 412433414 276447806 784936971 507460226 355171284 385350646 401107020 32421118 196083387 270380795 85412457 49734566 232038018 285189575 88280463 274356579 711232610 321677621 882506186 988471150 808692749 630157129 687692621 843182338 822897184 95422850 878294163 284634013 476788282 614296448 892611237 491709618 313646411 162663281 717945290 400771940 537287239 90089560 333501601 577788791 309628250 338285519 689335372 713028326 903447153 892247057 163084242 7622122 38601202 867693448 429172647 242745380 332751785 792930673 943239689 401595948 311359912 907309496 984523684 500920689 679658927 170581780 891039698 174449593 16734750 114201062 203580614 928550016 952221432 626115125 567786637 816247920 895401665 862129985 646286814 210766032 237731898 381493451 464589321 286817707 949189487 630460212 937367265 497497047 177653406 285628497 452848861 846207883 115556063 485386760 620476599 496433740 720869717 388631692 978052788 828435826 820750473 985170941 225557606 741807854 433495722 647707500 300138229 743662247 342286655 674192942 843375668 334864903 988556417 483963470 350837207 312682441 308508573 892553177 425786728 552593317 864068757 415345178 900001879 784834273 112514415 913796608 924927819 175465330 50454362 209079380 834454606 998687802 101052211 196089951 450317724 554359702 23568795 160782418 991260470 462792121 80430220 570810064 954667474 898263892 775044675 807191780 763067968 211414917 731930774 463740679 789277266 615641015 650773315 292790394 145872535 788685297 698783843 537258450 91735402 264072284 437319293 942339797 348488636 361518313 459043500 142226506 222103138 621587411 77149209 176087846 397363151 155232411 717313692 564959346 868457639 794044182 46179034 782892875 879988944 84049046 503865159 200525000 980955568 985562192 190229267 701603437 458581958 779429596 271611902 119588500 841638406 299784868 840914788 493958556 113836086 379869757 148125346 608240670 345851984 339312205 594543047 169990417 746413099 488033019 545834477 558742290 831055931 858438406 221433540 594762881 143222297 61375678 160988041 834649095 769080556 268741183 54236489 975447340 112364253 176366858 243754693 682876531 643021485 743035459 579435986 460648623 264809242 129903015 451003137 328342413 774678710 69988402 415279757 289344482 288620790 544367561 422883499 317644808 952563723 601185311 429174362 65841868 319079817 627258386 266850754 64432859 42530384 520985870 104960738 459987178 754801403 373013214 532122862 17402373 359909480 958427923 390476439 371487302 336551835 626720193 92417665 314304408 784093953 587162503 745223792 123336713 554107377 679728042 25931964 981853374 978303327 940231764 438090961 313156761 694830976 623427529 888841957 795611712 150039494 248909247 53691839 927540708 365365018 692546384 907070412 144588316 587996657 257284738 225122031 80908933 642774149 119779446 944736530 682921735 30985268 462988657 420492593 314161617 469690150 730783461 400227799 201933796 501822804 873729472 695359613 246858321 146200372 697764118 448770389 367508393 903688932 390622120 592328078 333382697 104461697 783984236 779946504 635519104 562829590 130880447 205439876 286203507 268804480 301493635 769548431 860299632 755408327 779253897 331702464 793657851 120667929 920372223 670926486 675547168 7665862 784782254 672078317 915546157 191865874 622280023 642459891 186806293 212791694 45410916 316357128 788157305 768266934 968943683 652888404 381323198 859991000 465422173 540783749 412435115 191846737 446208026 176305081 531249000 219510011 66021903 118757137 840578150 169965532 725951337 788158736 127192439 614928023 434599347 41034336 774508002 247478291 911247841 162711913 886550860 323954710 444869712 608175397 617429873 945268157 557817437 412533403 841750403 677501681 838835376 143990721 612342441 409818260 185320135 87976714 706967261 181062684 772979586 870522570 6629967 720341426 769995762 832616067 177582699 568391153 598033119 965768768 138409614 166042785 192919095 901493707 946776697 345071878 842780359 293238995 362124833 255169757 183791831 22091144 935961930 210013844 19123692 607887227 317625302 253374158 330145892 583645232 643960739 920531685 819736380 736459780 739604406 438607273 439634203 619316146 514011597 268542734 472968610 385364285 407901690 501823142 913595719 596494240 960875268 279163601 143361203 747083457 609703589 829608456 655948600 242676923 690379346 616821019 25500689 341778989 835476014 882666430 848136552 306525231 967453487 118178808 987219654 330614895 666419033 392368205 961882093 983560940 587985495 351289295 600402334 899357267 505851961 335852419 103837809 397123100 823947137 883340244 234294336 146840303 872330036 340567175 683161162 724927595 378528242 656726061 80804270 819846499 552070766 728823073 804788749 277646777 843384356 735960935 325244496 511069445 952201701 942487241 340853417 731785139 449539270 55875873 348935856 876671977 503014227 36178885 634130207 71411315 955079372 852382523 849920700 519279886 527272901 456176725 513059772 426831641 918628573 451094206 924719814 848586020 496169235 924283026 428481139 477348476 519522242 288172009 212895342 505022978 233025565 952056681 885269595 670650788 946626336 548246151 929977683 373857475 284176038 820158294 78097098 598922831 252946043 486179163 697106863 315472785 111004329 505294800 6163135 974686439 665769643 12700281 948887705 214151603 614594959 639066652 711412480 155441289 143703705 524382357 54452190 543276999 99791924 366145684 708927835 848791062 60869379 550070486 381202488 968002922 617914468 144264267 796628603 124013435 223363766 626426549 78126246 478998231 749349820 175735964 568898899 289889148 339082833 78529431 479534013 583288887 924759545 973475071 213967754 875116523 224901157 288067808 985603805 369151549 598676558 781275804 748914657 637394394 828672502 42126598 470013088 295745697 539192121 571847772 199037590 774957361 861976199 875442972 11567840 763193348 971392814 233551123 962501215 732751467 876608332 277358855 226921876 248013958 709785638 961073570 842506102 512478052 719560296 748010714 219446547 360976503 384876583 118516992 125805096 346463185 577804884 705646558 474130112 176980336 390904359 230739339 626276995 878434033 265575255 603548380 408140385 103702943 484091987 690634823 625850000 240648667 990408128 91030334 635062310 292692258 997557344 256441769 306316757 145389702 295843452 239824470 652529550 541562509 47060036 971527269 569828478 893157218 721782066 588854868 972204973 903442203 638098875 319076751 844873130 668448792 488982690 436321885 574672220 654353291 236300643 993139687 474424773 353182644 686988622 860814352 288337187 616429935 451066144 235680009 201470166 651876034 676871055 748826016 766843022 598197724 606133486 425859442 985231987 350367334 651538989 987835421 56109722 153117091 800948531 55443366 7943212 90367533 531036949 389740164 804386807 52144540 406794912 647501680 49389405 829876343 349208912 508342204 996199063 565404838 831978962 681516566 21693601 382556923 925001944 971074502 594664074 626610363 105038364 311597655 787015668 284694824 258224335 928835616 566544407 463068772 357882112 132978974 922271081 482450513 992488608 482520263 473476204 573884581 10646187 373342287 642025575 838683382 82986593 683089261 622738344 16573281 644054355 356938350 87407758 242958149 206629605 776241272 42075243 633409154 266417000 270885155 583881125 163190424 66566913 208700285 692198058 398883323 786741393 31722767 404912848 726200793 773261604 461828314 498220982 480021711 675070977 107200460 46894269 368528482 706235752 965495380 154327157 465110375 357283455 399185311 726275757 824539201 490551778 212563025 501909677 748906744 157747901 798323753 74053960 538250163 711350880 663395279 957535588 671335237 924452059 79639960 641153213 225201630 332224324 185796453 462299778 178547354 406769689 686345657 130934707 296289565 396214579 146104157 241318492 425200399 208400195 782607052 502976173 440436482 397239183 170573316 486018640 103221033 715925512 261621194 104004089 926372939 172126392 982827009 657186628 151040899 910517554 400951288 690656127 138421371 358746194 56400951 6654964 602109263 44411279 766755452 875967669 610810722 432214447 744825841 762467970 319227062 699767150 289381002 308956571 198436605 541668141 886566943 38378113 852847822 422932989 664444475 242851153 807483632 297180594 233318601 32696304 513905151 792873007 914940780 222798225 540571537 196658134 500599556 988930050 792719468 485136979 166453367 415029578 589799402 449287253 503045996 490089407 709808586 35960007 161734949 80539504 671251580 53862780 409107448 451233990 606959440 665756250 18633224 618132004 843116973 344064063 248213236 241416419 464263476 741211705 929918430 805051026 902055042 467626964 2674564 48998089 529560725 475727192 587073792 117138350 253259512 111571877 226630474 160822409 355386022 705784680 983326259 84782526 745264650 506730460 608414624 643584539 462870462 475068238 83841211 524292149 503520301 153184015 140026291 858992182 962353949 291161733 497435082 14899813 761299552 573845644 624840434 876260271 410807496 772363683 787129487 708803690 816807356 76503205 988289560 953451255 885727426 430785409 572799037 803481976 192435953 372547517 377643443 492706945 5041432 630504215 771040041 488810556 533973859 881291207 731173200 912261045 707888655 588768107 331272124 229292222 818249671 984186766 335556001 153256054 402632991 334051073 420254708 730442395 555513073 119990726 998520293 303586614 264469119 671877934 207081158 475881846 219638417 301928019 376967229 626993256 734784075 825585054 948306851 719971844 241267110 975145887 218716619 198734052 627792675 692446538 377156337 572165320 384672206 4861605 820499942 483111188 209654110 777420258 280607547 887449566 312936460 517769794 523508059 768550654 645121342 546357258 354013898 433420298 155822125 369087779 475317882 573347270 930508995 156575335 274003887 859699787 555079149 709412477 952715569 563364319 774916666 791147307 339585693 152247778 658467502 22543266 843231056 227565989 50528337 707376421 921767784 125706320 514940899 502260120 45025588 368962194 345512839 956184861 871298339 66351360 911837580 855360100 603705150 926097705 145233188 559556767 233313376 562417505 813280559 438739990 954742002 683726283 882438560 913590124 835138409 949558893 661567286 831474719 831515986 9762517 142441057 67437825 409278956 240382762 378296875 125584194 841715139 500853741 991488739 720147915 749798304 925598763 918056762 646775785 790537342 891104130 636900689 993311686 581421682 949839977 418068788 677098502 886511813 917779604 417265798 366405347 292424672 715813570 438548039 391930227 356740985 455525833 658555841 864054018 127823714 355475822 396533210 849325182 320744594 11477877 645683281 603605286 972127933 783597070 413462775 271797144 135854459 126232992 687421432 583768428 30548049 327346852 881706309 309783175 186176877 77291014 583051809 359807954 161482651 536566894 596218715 653948095 276027021 174526318 369421954 239122834 962728326 9912692 362927693 344769977 604177101 260128629 668014905 595275181 526515047 913413100 785175837 676879830 686471425 65837593 260622265 735737663 575379309 578946390 236794310 651596819 366921265 95613629 626540163 247576865 520397290 541549989 406068240 295736765 60970492 245632483 17352445 978990017 342299888 339862076 192566999 834097134 547904768 785183406 57236041 177839343 371946654 526173440 94415062 658115403 740878093 464630342 241020422 354660345 600340430 710079100 224404232 61953151 681230510 155833983 224232441 453103659 678541241 218763839 927921756 215956850 618637626 474667328 185803151 614735307 92430092 566399698 377507801 856919120 566613401 45163069 503081416 527743608 237303717 477275276 559604002 905386571 952291347 456603994 317170981 809168378 784147050 66847300 871570398 609810452 771758050 185430165 592254489 96757154 469323398 530069263 157315864 643132496 45636990 666159961 375905098 612886483 201298125 904606643 640714512 491765902 587560939 540718283 614931906 647827968 577689667 540435038 19138640 816260726 494097555 769486546 844664982 650797129 359396869 433264226 473743919 703366652 805989407 884588248 738091367 844994073 537280791 933329091 434352995 927340919 155595787 247818823 961710353 544225147 816587104 990892302 545688481 54516770 279518204 952197964 595696668 633912279 179873003 559406272 432399837 367187186 337194630 718079045 394569073 901592096 510316890 223563903 908088587 751975979 945451616 283616112 859509848 180456689 209903888 452969414 190876131 686987006 257933125 697106419 485438958 242612911 847388123 97288472 125377028 205490469 383123614 41510458 480117306 360801946 631784802 200264311 503284482 996431068 890616667 827640493 559513652 701753337 511171760 3844524 968435065 5879734 303844068 563508042 114560417 730395571 764791890 842217484 833758189 142245088 302308191 626450066 756496523 240992094 96298510 113269316 286800935 218505154 857894972 663435588 261719240 762859389 793991449 970235416 95424161 197288338 588992897 514239905 109540048 840447265 399779599 24147117 186304480 395286444 663503578 24156684 202628565 151270496 776718976 552218377 969087756 323331650 243444576 831795247 150732842 509480606 507624303 47976564 543325350 2216761 109112804 776265876 886107495 762903758 914690958 742777035 853790712 965795421 114315246 30810114 109657866 280864850 160142636 572276366 56532921 502935230 49931542 481094578 840226106 453890201 480812074 850519640 891650396 551631916 464410188 753108619 839876517 235885167 42938131 67364577 653365391 350514560 959621212 554291932 473931125 650762302 737808713 561612242 884865282 919430972 543947491 806009054 840778237 755222475 313190386 488247099 95866814 938250156 177090743 615453182 591888223 965349316 476703981 162709029 895011122 415727431 50843890 513244794 642762128 132235969 997640803 610356717 202723786 880876533 615888758 976952856 77423755 821911913 682070655 256531338 595188906 752150690 505977482 901731829 778656271 949110552 576979019 732632413 285852816 977375147 952447360 735838494 174088667 746876041 25404871 884210016 515473218 497733271 861887838 574774165 574349984 392902773 224682090 530758481 450245519 474269755 847765872 480406398 79683774 74560905 488673483 18711083 617799029 834816454 163088841 958285237 974988011 711690184 786261704 286049785 513114013 416091761 355490456 918030159 627907567 199751697 890442726 509314048 666878706 81728442 762543085 302753800 632901435 277397777 125149237 459910489 930278163 107217671 259289663 372437096 387932303 10347871 803839694 29741158 648694134 623174200 534905258 576768315 63136409 296093209 453947648 815264743 857651840 336886313 830098153 175782709 707338107 11160778 587731528 7328592 858331837 764716905 924632401 939764651 500064282 973786602 672570055 731453690 912133919 1351221 339078736 470897170 833773882 675277092 342690083 613332589 415284625 773335414 261403499 367486862 444835045 876804424 246634378 112314744 145688787 289348148 940418014 515059014 851267301 7262764 623129410 286179780 632814123 667410314 232297368 958243495 514920990 717177721 167124052 570743571 843487241 193972126 568802038 119874440 321260579 949065081 790992817 463013896 834070954 101383032 453660549 341388043 24692395 337902116 615717364 207480418 895730309 291009702 687993545 924655233 782366464 762152890 989798063 479493498 41351690 131891117 856942586 80197972 511903632 440738425 27744351 918218444 359987058 179012172 716649938 869101670 288906054 544696360 440553385 895976282 704489551 937318959 331393673 538948623 962157808 946524454 767455318 288071985 751418647 517532632 110186584 149479179 576034152 237699508 923637096 517788107 179679254 368877508 56148508 791256496 913561407 38601997 968606600 22874930 121005416 727018292 861298416 430643288 592814249 340268450 311944004 433822498 275564255 201874315 121978660 316499691 13632516 552970550 857033864 292201517 620907908 783873107 633501224 588129232 832164207 24530724 815330615 423936988 337920174 775047250 573037554 503562037 660346443 620217901 204373589 309007856 546918457 376561932 945544279 247779670 815660131 694844555 419329370 843204052 8329414 420142409 181142948 754555725 294497550 996322592 501152588 508022572 705454471 878703290 867016290 124566439 522188594 103088924 287893396 575539259 801785961 215555281 192299655 87370695 594904342 489848823 240344874 528640329 407688614 558780924 177883677 435774363 617316670 912653498 314911528 183051230 96245127 373135837 391063974 877734040 723031280 911448764 460115734 533151094 878380351 173187715 30110715 361875916 174752167 674591171 49044989 412319306 720879776 546559293 503661399 779327116 154005533 626528596 134271870 245360274 559939783 983140724 26211506 594845541 407667510 665572128 254554684 834957274 146249536 789112991 368555834 136169265 895404538 431026194 351685622 457368706 65176176 761788823 438784694 638449080 36042184 708161667 388810199 253512876 591824487 879228374 536128276 697900891 4978823 754409726 566199758 963851029 307319010 779362472 845367622 317084644 521300874 641269424 159645495 330254692 28539298 689448242 591547951 252539666 877342614 391397896 367862795 932353580 542547428 19616575 924307089 759483773 833727030 98807612 664934463 197113764 980442018 515796093 275486920 19184245 856657942 798160979 864667908 191658238 563481685 171972776 383404549 872695506 649990639 697770659 60356838 710294448 435502597 451662033 936981698 830661406 679724126 188946464 763120207 887801605 287014086 573962381 626913906 241612077 426518932 485823382 655437767 907399226 262797795 958235064 269200301 645000783 77113842 591441144 539870926 420670009 500505237 94620634 266747173 661949146 497920731 526246245 655119995 112833393 61582194 678594587 909915505 377051564 703575743 806387665 549358861 358586826 719097802 661203640 866031998 733033199 802751553 336070884 4687445 513479368 629662730 126469869 985147476 91176236 409091527 972673396 21783947 556964951 666399946 121258854 151491533 581215969 517737543 706101628 310138178 411355452 855815074 517228835 374308270 290520342 320369023 641308657 47074744 23709763 657943416 142499450 859368914 312557311 792340029 250396129 74963089 863032776 549744806 704815395 522407000 617635788 367386124 127038611 643949446 436112522 777377484 591384646 819823096 387702024 311171088 313299545 204386932 584778497 974654415 704215786 83973953 421845654 169909023 868286510 4226187 950745581 271266257 731024571 584996983 666305764 832320740 492986322 813035873 347618054 674653396 353129505 972181889 321220299 96203647 88795981 885763579 456112872 742313758 976655481 226029439 164595344 973461452 371453257 201253083 248562565 270435162 849488468 772397182 13359015 889767967 551907414 874783245 385599322 995399008 697253295 61800594 528557820 742151245 541177992 864154876 411263371 279596962 772388977 922971262 297261598 922805805 108863686 766058232 484551063 921197293 923059075 421683411 914338289 93734303 746785549 812528573 70167536 971239446 665736703 418860626 687250114 356123289 440515141 268981890 249612104 120477539 177826959 484383989 327612213 376497904 537188855 898680808 673498686 799409890 468489167 155543209 753982090 912431438 372958007 906498922 951286869 813861115 827706474 763824188 288544249 704498137 12031464 647250683 254501278 173530961 21609847 797249741 721074979 13231584 203860479 615955395 858338856 221235300 546896490 827747246 484803188 789133216 2821939 269254265 697089202 11794092 691614882 342719709 285831868 21026144 343680494 415520036 763845647 35083691 224653567 56884160 283302609 187040986 984390158 950940253 969179924 180866143 263073361 353298157 196239251 900549776 91028819 140172114 362974261 948155708 82473375 434245066 122977641 192695810 558331729 681922200 112041918 359419324 138243869 321419294 116856148 117613604 972464847 391456825 829845141 250862905 659113322 520617592 401150685 890276146 619561937 410254175 380829861 996496311 40833356 471069131 497432620 2336509 171698061 382287296 316625388 474450213 968011834 804315744 570275692 912917085 869742063 301708413 74186037 942139563 759446351 604180072 230434732 500585051 949595133 305830210 714978427 425934124 73325559 740770564 292265424 948332628 412316593 573132464 46632603 730774290 879484609 905351134 836949556 714384032 520474604 896511275 376330282 899952358 142196268 336081631 28352498 935698560 468425867 688395328 171886426 139576400 466177767 843722604 725689984 756586819 193642869 9685606 508865071 446861228 148102030 160556448 621542108 946002464 210218739 938452431 696280975 252217773 787689163 329329924 577278075 737289052 765119464 557175296 600367623 658450881 79559806 25503680 71186501 964128545 306236713 125614618 272286789 845146709 191366824 925954114 59470362 82141661 344175188 853497112 469138294 699910005 890444376 265350478 760504012 555499899 119106467 727276091 180362168 515640437 820994986 269093926 336327104 737655916 843853324 801754193 33419321 372729066 480421090 560066901 433506145 17411421 408598064 368467902 729858043 450843586 324544875 853128537 469222059 630170896 419883617 674019507 472324154 676942294 120798131 285295031 647267171 804178800 303808237 928011055 238642409 74132444 769914865 199285028 297703179 416391246 462611988 985039473 519766101 300588910 317968301 736539145 832192471 605550829 307412008 416167147 42301 559687334 501469149 911570418 976334249 609050464 528532266 479357433 67613347 81157529 944736282 23265348 959073034 85272296 653192244 483884167 900860201 161539772 559725160 251319248 272506541 578832108 218545778 534442273 412213460 80833743 377103966 959143708 556856689 844084234 546506988 744167563 632284495 634799410 239469707 272622904 658177514 903935909 180704824 578043765 392978769 508365050 148815142 638574344 83072960 643791744 814452011 252408790 949243939 888917359 874762914 652920597 321765506 165346696 518240758 983299535 528970173 169279803 852618270 219760898 730068724 207464251 631850635 18704384 140189333 82577363 541563682 221385557 973742384 115499418 709553541 654041741 995895828 532667466 89639380 159609922 122321955 459212739 438333523 183585654 739787743 261039366 807042283 408943593 206696210 855886064 293937146 427042434 633656304 295670935 802144278 912810395 665169125 102954367 376237213 95542890 118053895 861083624 245309357 408353030 883716245 442978489 485066184 512761548 205527457 229554039 658648939 208685795 64695505 198636179 302745769 135668959 906714543 782116151 916667119 877842272 70137802 292735731 690178540 573917552 763598376 371688754 724052556 911194683 669777528 568654530 795313334 639543233 818490005 817062939 921860410 867040467 538973089 539500968 334996098 42477435 394984545 716125126 401935919 853767871 859457487 461897376 497547726 914311094 598480647 606541725 253485879 913633251 263719852 387197216 891629995 734376737 157137951 876483363 278552207 227822533 209876504 686067322 734912582 223613974 112086993 470900569 850078939 253041527 634610666 225782983 506953948 986440708 475837629 220391764 497586434 441728279 739566106 758276147 79936464 21052061 886571047 621422088 960645488 452300361 873299910 420799115 76180345 350258208 417601349 340957860 495367819 259808035 106228813 564974632 361342265 717873397 862393477 795004106 808185693 348173196 206518990 146274513 141137450 33399480 229267531 621176169 701887000 963997660 612678451 633339480 105654276 382607054 484001413 834518670 591960481 715473785 398079373 275634327 978776180 581763607 707216338 455454876 830443245 754021592 634353330 982514958 558407586 406794985 659375421 220287136 928910123 453562699 421939346 582401168 805204268 554690578 174893081 183295382 950631261 943438967 880568092 547757291 311896584 440274173 303301551 330750978 243197575 720770406 905482922 912004243 505418373 19546845 781715070 771157616 234607300 338347533 761035845 796448679 100676051 103113960 994435211 539805435 174575787 21116717 747070786 562107259 389227166 691125757 137690392 882746106 779993825 477933160 809772656 959817566 464956893 77001001 995694603 760484695 449097661 842744873 262278637 263420371 637649054 599036543 558203652 955392577 574938308 481551327 502869512 345940500 459665394 464783368 655993879 822546899 480777234 290658315 473234156 612873742 895416471 926569278 542557071 591921813 242699042 2628318 831919677 627316223 851092933 693190919 863673200 700953640 560206984 577920772 968797016 390395845 703192054 557662037 836853764 70883218 223884706 400167633 729233412 436331047 117252674 781427786 50041726 545254050 406764609 806440925 838650393 917023167 719677358 718107767 536723196 126699910 18290680 764190839 142181835 794406908 978799961 774866357 366079903 121798450 961476 163294443 971902306 676013436 462639377 283783970 29192701 937345761 727259566 900910715 632371056 853946575 836433567 234027176 942814452 145761237 355304492 602819722 406833415 570000967 799914595 80606599 156670061 30608339 579965252 38484220 659185898 59764469 878078477 553662906 9191196 685922820 107113466 85197597 12281521 148140124 422846867 534465104 401580218 577610769 572549465 878635295 902343777 559032728 386711779 186420197 315110250 744456971 226572972 156888602 881659677 713047619 13021972 647902045 581227162 333088452 287737499 46248365 673895067 435107652 538474936 998703733 469677057 312002976 987275797 522668562 259785781 880296775 129943689 575290010 160598925 52671757 610615639 586692444 301778510 272050602 50725312 558091205 176539898 593824432 928706247 784887745 695212513 201189685 782386078 206052855 626689581 693808031 900892544 726939254 92887162 576955581 499800057 980477469 760332203 286518953 192330022 438439813 332964514 294396944 743535632 574711160 137361755 338781029 390027468 650434213 729174311 541729516 269399269 555684934 712783826 331387049 270982198 783611524 938981325 651473166 561770213 668516492 248766526 509810475 753614336 386595089 43028406 143923854 585350649 539538530 437758793 930403174 719657644 436137131 350201497 400172277 785966543 524372425 25450656 444364035 144710660 944489491 135686963 516883836 554273498 482899325 539029937 823182058 935471792 439170416 483730272 585528913 334868722 535643519 196132705 576213286 911268712 542631610 844584331 58011664 190671387 256953472 46724558 182683891 814566783 405705679 273482758 849925947 2543027 501637157 47361126 609631504 630916350 825594220 849883984 922954495 667721154 322613730 433503310 127681225 565028252 968971462 719955551 358937262 108115714 133854839 750573290 745054688 428698040 786910274 367565964 464953175 609196302 87874004 837559503 314097498 269414302 204710357 833193531 478875631 306458754 189892095 659339013 51043646 424505806 844760719 504783506 562868709 69887917 858019752 663506873 906778931 445147258 548361648 799842417 267804043 84138891 209174929 225355800 94673176 893512027 503972912 80692373 798562127 924807716 270908589 666286835 167922111 941807443 1944083 204679126 546770177 591821399 893774767 172151945 294243098 214565288 765262128 678437655 837404710 568601839 454223449 172957181 579550900 870994780 499822433 988682063 391141509 411784137 723441193 532164930 402129288 979065887 879516616 529449620 161073802 201615499 105342847 624606284 867934709 177707122 196904364 398135412 516188912 365259998 575048481 204016683 314730238 635391378 909261418 126920376 140581339 96375329 975167834 452324742 264791190 182685466 788276333 451997666 517663252 386381887 741858496 189275430 735620489 617552847 771102881 411624522 796450966 256511965 944778233 842902631 966989567 153754736 640441351 795062224 351165610 173013021 854548785 672663965 475976358 645097701 705285240 488078366 106328885 688613705 505125376 373592461 891013538 53571604 875908972 441874652 114855374 518309421 583776068 571644925 160202065 257127533 700653702 718994416 372280402 481822875 486113190 929289974 228137963 323794308 511347330 873986566 141130054 441868866 239209311 107055125 630031392 662027570 837122077 644392290 287300653 123788296 90211735 146832682 983189859 868266292 308741623 744681984 283016856 204784534 680321985 3256413 409954960 498932132 421890992 611506741 89832615 502669120 928411439 436485495 823245456 566185825 469742046 735108061 903677975 880498019 304206126 369145464 692414582 182219691 57537295 683256972 419468109 139358298 638635903 993823479 767611716 822165484 81921418 786805808 340004428 112502427 886637124 6781649 136770742 263708594 52230270 356994765 288004264 989825940 403347635 275795416 663934361 729384374 902662284 202258597 116026167 527762949 200605457 470283607 242975399 989883537 632480734 192405609 278715713 231304494 286557628 930397673 890033621 377662254 754202698 208828531 272801068 564899256 984346544 473066100 93099373 761155291 94173083 975048645 267167050 382257689 904360669 80908668 797951161 454858461 572537646 396661747 8449930 958149284 852061847 671823597 671155915 340145042 330777514 874858882 990807586 310230571 555861208 815311333 659587249 497265410 249254412 183690217 655132135 941363266 914999975 828596289 211259977 706813810 287256774 179707029 47880561 38128530 695080048 444632411 699629924 352112248 72679539 430293478 985968851 236116973 295265170 505304433 216871286 723002566 416983956 15893802 636833947 919065866 454078656 647967219 329804371 803643162 160728032 931252477 471935563 638523087 151222398 825660499 186041228 115058802 260096078 623589239 705389777 917609591 800161414 962986271 189999069 451558221 803197059 562793052 995190448 163483942 132029420 726059755 49795743 492469374 261743576 378786302 45680423 341272078 259323529 364349750 311076301 156686802 953475469 730140947 257490670 84422465 904601795 974308000 649489183 315534110 957757513 864000734 434465158 762652593 61025646 835215276 143457101 300493133 568482093 156728511 599440766 269613220 619686172 174498248 388941613 188480375 591132255 146324886 475764714 864941404 510878206 173714159 760220316 35346767 183456295 978481965 955393887 748928249 814431361 643279866 864006475 73071642 999109465 865780221 297007935 431570119 848016227 581984430 944311543 229414257 639763007 832533628 716328993 174408846 220773785 105905384 918676675 204345414 500729731 128759532 965027677 278609899 401352299 896460128 950770031 432828643 444886573 750964524 736232602 292992485 984702369 787011567 442746610 378469703 730466817 106930106 486658984 20909026 105364379 639885390 109360715 506283593 229750647 353209568 330177499 583568572 493923882 563613649 626759910 997645585 695693965 164235151 848119269 739009662 771574053 608595594 818777743 817208040 690233841 476901436 275744763 204765657 732666312 616551663 840867778 946001222 436508537 533801993 421942215 587014794 583239352 983095514 394758965 67857164 478402127 810652805 37275318 760022799 612424789 353156444 753478232 69854266 169965489 160108864 64640624 186535021 428560047 489005128 933681462 898068071 763979517 101375514 85428475 383670910 997931080 184692036 117492746 635081421 87611731 800121492 918035852 278543278 136987129 326249542 460998736 259883488 685829888 583840685 725983177 939026241 529733778 826882650 879894416 528392361 251176836 929998120 180401458 535120710 230749633 684638288 906671231 113498133 185778881 350703525 626013457 215046577 493933850 436714185 420222836 443205321 317308908 304468126 949930574 938327915 287118352 325921344 714871414 698483317 871853508 961532088 332686065 324008175 169305494 815733003 195683603 924635784 168403109 712476150 492931647 594764289 851361343 148756681 112229839 477886350 206855636 658523236 102642762 135482332 155057588 64955825 297435356 698882662 566966637 818820558 948718202 749599299 845983187 895400833 550390567 129241978 854041424 586861490 842559738 582882344 903050505 961867785 510777811 633505872 387918102 379352385 448592330 624943030 665359739 838188105 785269561 287386042 384239679 849015946 884064261 90505632 414260610 371016355 614707423 168297721 425401797 797309176 758569597 340010232 265538385 522808385 221449446 549184253 691927521 813547621 95451680 752702504 177895493 73621730 952317003 200742264 730111486 735153155 337432424 904668490 606798450 83714274 409728754 189865428 492061283 964593745 864583019 530018672 888436246 766533682 924019104 318883280 144613612 372333581 307620784 157449388 39027006 42671720 966895301 304887669 833133037 351835292 692715625 296813367 95023563 652760452 145833157 53935143 691200555 106448630 5430431 549811573 674340532 658067317 295129647 310735541 877180411 338596245 141531962 105371459 225836618 748840856 759598783 683722578 381478909 288148150 380270636 587853391 319606570 491415330 67526655 193773566 372759560 414066474 735082805 334288216 338037783 409279717 475606973 583953444 803250629 22562501 748659287 499222584 972964360 915726505 282610268 454375355 687412650 4169632 200219977 270631719 700439750 301624326 455835475 699529235 579982009 3838783 996024340 384033964 433239120 51188303 638582361 526247913 782912713 817949557 247898012 440525408 971949723 568725435 292617269 705052311 751405047 360361851 849382148 458751498 858963902 806843672 455101754 538837456 263756057 442432384 978345448 216758947 555241667 832116455 435358715 246796276 154760972 173312647 55915245 589925157 382649069 973316830 320961407 9027902 391027137 231865755 640617453 581301602 466238878 635737763 493170751 100065840 737783716 889902117 237281864 513501135 876307752 931001270 93432841 989629775 6730387 746757166 894968538 92352699 668633778 146900298 33458151 427705838 720252540 495726175 806253583 275234808 354632047 753445490 520326402 882614488 546164374 980356747 627969815 527085151 286974750 209185078 846056126 707634794 99375799 178847302 292993889 710656793 698317570 830221775 755065446 46112448 91183327 361324526 582168290 285291016 416961110 281981262 527771518 978263495 725321010 134678504 704620377 168313020 449715137 207821218 362809291 609149484 701586468 491871525 959063922 225584838 844947770 916482587 5096291 886328728 404978342 852302826 577570691 209029860 801001093 997919679 847639342 896648346 429816890 872977369 534931468 237057080 349759254 891710946 66206577 967577240 792683355 717805769 35038071 45325336 764572092 649287016 921714702 931083056 663290138 345955934 621575949 382836580 750555951 853032901 553288161 889620327 833776197 916188193 945581502 226663188 493803989 876524814 121849886 680583746 400018270 46158649 102483065 247334512 470808070 459313348 198552742 10147600 857466080 363017640 879392180 741872831 329907167 805181499 451693038 369694901 650589769 668995942 850538159 243393266 621149598 515527843 890886341 402213708 935192303 908573915 324188374 594105342 35513014 935529936 461951341 398702266 923712451 723936915 467378411 923798152 349118283 667820173 517114286 450058976 371172467 714900269 283154804 274729816 194430574 408655281 543023409 220218736 3405908 48897870 489841723 415209851 244094524 911939593 330015784 614128460 324505704 213379843 914002063 348430680 807590785 642303617 958499977 145729783 283527371 736137389 38907558 380500573 885305306 414477296 482639512 169502932 444216421 467711196 127835514 705301109 598406451 194747169 563039414 284240819 630698286 453362335 994430109 673912548 456757731 834350395 188695510 248724596 436887319 471330906 671852071 769730035 717081471 770832918 836348154 737565356 69864044 24642403 81917151 19339145 250192134 872383484 146574106 769290061 576604676 357569838 89048625 696758519 941483073 586816856 256769192 129926448 418728276 707347517 878027903 430529676 226647363 763759796 796982038 156340699 747305393 740067419 816408739 799721019 962851351 913643390 641367931 236894768 39904559 21543673 159367806 733841366 537374267 83650023 430119343 672420762 784048024 175073443 791511039 79749116 499440851 711489857 791141256 903986197 969894017 334572640 728347737 738506635 252536960 848949068 12431168 449814636 369157747 583644144 360511161 974772115 686456658 410851231 35420395 871679868 465283638 281315326 332884014 711419469 285440601 634257944 671563839 779499084 994178299 565730358 377430039 570691325 37437743 260791051 623779762 935337831 692736436 75119341 250472731 816423846 7598622 302499289 316409163 575263541 727983107 194719347 85149087 647780797 604891885 977303358 618214308 646502149 878995323 823164526 143276333 135403968 174798937 900166913 768545153 934458644 758965785 775915656 781619991 102895256 495490072 40858608 568668139 774888787 936993544 658088416 328665452 540055322 666782717 19745738 517526471 898746239 710398585 726125811 393830439 819961875 197320724 424925517 176286820 451730337 647306282 385135071 55773009 61703294 297684327 279472151 244407209 892118955 754758000 455143612 40120529 707674970 393269072 621245767 977312005 454067281 862277779 560808916 378338127 637023953 545069030 227178306 340043975 702416865 664507525 451355959 242186350 735707112 205002328 381943130 897863089 344712810 805427909 786462397 341561121 861583687 30515959 569144808 577306554 397342724 926903251 60944106 757749106 243262912 410628170 966909081 353758999 12268157 692395766 786799245 117447451 614232549 343014969 954361137 244894559 109113547 169234904 111673759 913207759 629852639 235292235 172644776 257106970 195365666 562846017 284436767 122991751 208793834 914032068 507166684 459538936 732655535 745454476 757776556 789124803 127204285 215199629 485818213 620544383 856096485 512494092 447566134 293750505 150781674 946817715 965209233 770425729 223106307 679280380 627087965 810182347 449005151 937638498 824686534 242443398 209519923 369034083 962400866 538390987 535165258 737966273 981343170 923598382 77692837 661323747 635174607 297056909 920770158 488231105 568643174 571983824 337572413 22835535 358064736 1125892 398812448 92457659 106351199 339553002 728989300 59437884 484054420 450702997 262220065 755310883 598880891 651558421 621785766 181432837 28932270 848009274 16451724 685561857 548344331 803257000 219482501 693914543 446259354 913447219 488022999 759617783 986785412 122815217 133543168 515613380 237515026 840298169 474036215 288834974 585983820 189589752 193210887 623464423 704566277 770715417 707239430 223340695 406785548 372581414 554538389 917040780 413116428 960527294 520123256 148752075 695258556 462538747 793315280 93900867 214428252 146986282 445276157 363651264 231891416 13947132 724575699 843032420 58872470 457883666 627516236 570106447 441761202 174976086 562789696 346558345 624751492 36179643 306817323 633953204 674953209 444922639 341156252 479035391 599621111 485937012 851290944 187005448 535643769 928977651 6922072 235838449 603429292 329836742 828355014 860658578 952271413 171519159 708920156 532876834 368960831 641877388 726618083 250352552 762862624 217066151 843063288 836419616 1034094 821504704 466964374 100618707 843716285 273189653 160148460 236734771 468762638 293347364 602114463 703973058 904719555 418465800 339141376 322456039 305604291 988932988 941407618 294298227 102305075 395311157 885468200 947315728 692420837 216447284 385903658 318004471 998249488 431919734 129249895 169147916 93909034 262208889 681673901 444754685 760938572 236155774 974477361 342302022 110715746 528281247 986340523 322845863 758739365 212847452 469079929 418920028 581550103 729112629 795119932 605369144 633629229 791909327 278668618 358786169 351829444 709703271 473946642 176363617 752268384 983760556 247249181 519761791 992674142 115352699 495419577 783820277 535952885 622596671 881641186 637974092 534964443 26667604 402398246 878198777 10724432 448107309 139044301 29683312 888262672 432808695 30000083 190265887 627359922 819131903 31803478 563626807 596025054 103914776 887718880 425564952 752340770 925779738 318034943 2320099 655868581 361278451 823233889 799328834 235851249 97498536 864590534 344687984 772931148 639178663 75075035 263789774 137858772 530271131 959948468 401601537 956636691 739977321 642904546 293888502 1842300 431092982 251126229 554026115 934576874 655369823 837135315 936970055 129435831 144994917 470030509 983420998 589089466 285435650 763714778 439837163 600237264 53855121 36014779 408529861 675415564 260018383 865286033 611005221 127831880 680851255 342520566 25344301 841094093 178781780 684211011 200421673 494994727 958099950 606805976 407412270 931981112 589796822 966647246 902137574 431907119 178133281 272363048 768211025 542415758 447092736 37047041 425430848 757232709 707546198 502132364 346273089 531014812 254373632 781598632 300636671 228074921 361225218 530597726 861409815 816218555 306182338 403444552 866285149 538946288 475359068 354584019 613895783 443656890 272824995 920336507 122848409 725950857 78584108 466426982 149468990 130025356 405679978 675091288 297732199 583868937 961213357 816799958 907681048 955578731 321903314 42027023 553345052 117692608 425021639 894536958 434484899 896251872 375260338 977332249 47046194 459577971 917275254 415894983 862365435 141148051 434393278 980976322 338895580 269155537 678977440 973006534 733101947 505452960 776042480 997055698 723939690 507993281 256086806 678095254 796085161 250585287 702235063 95944413 484659671 240431081 148113044 121910339 484396019 518631993 529842314 660097489 827314240 94568577 859384312 33910146 675623715 246156896 201876860 940459584 792403596 772038304 216967974 689206555 428633114 891603552 928393160 51255580 853812887 247840835 354412212 598111430 908771841 154521812 569430338 708890823 36081668 8339083 746636018 817660922 365892415 584885962 25280793 152077674 968637202 243849575 847195851 376089618 93437089 579049850 212058306 294710525 542218503 35121375 27614431 645895919 834991486 137106731 563981958 727444288 681222007 945123970 770332598 575925201 87962792 630500861 553364488 339903897 284791476 239579977 72047764 936544944 56466490 691648609 125600361 644239457 87959689 517901352 136770154 283997244 686077849 939188338 271877550 592880547 227843240 714360347 666154066 567327019 995090845 768373875 266740171 830515051 114448201 499822687 174793531 364365547 783193659 639769599 837937761 40714639 639022045 378110028 59476605 99744378 88144056 735912557 10456906 625065839 88184842 724267176 654042865 679720796 849228556 167134252 708103202 855551299 115285953 860232094 136318413 837626169 724601414 664800053 816098844 764485986 140003740 136780537 48335497 840023303 232895227 953659392 855036356 79631894 713360555 880780498 359210690 116681128 971237588 532389018 262259506 513503597 610551262 481779029 293119336 13918021 246642440 948758594 701012798 128432385 354067115 668271964 215976723 956423332 820009986 396312738 642797545 462607905 863340573 861012050 407604000 491047563 924759778 652524362 519325307 325236336 799440276 829005666 147751009 266962697 746673794 675910235 593033589 616555105 412134349 187349589 953975155 220993799 999561789 532679012 809210644 827384081 811844058 677924109 125604321 341214125 590718955 543863032 491419837 246459555 448641431 171263323 31937201 691831127 999327620 648175727 632308941 731094433 233301866 102482852 861791310 231870527 600106481 52682396 754199402 200464451 591608344 723575830 410523178 673454089 75391152 712962407 406116270 336851005 569621928 228265939 733157742 730984130 747758213 821859416 944863708 764275556 527857491 112736927 43296940 357101090 181642547 894707375 562270323 195069772 773851628 335141171 753558302 56871053 400726512 127109830 45582942 791462613 992068506 181462774 41797974 387216523 941700421 680328987 265185016 66267472 362626937 62305832 832009028 511619031 381376509 954660145 877740611 485834055 746569799 400349912 671573744 469945798 996789705 962039430 159998239 740380258 289362719 631227828 786173704 457563043 677450805 163295335 651480670 596658765 519523371 954516626 483420035 583446337 725742680 938291654 754730860 539143407 824275935 470775643 345506932 295696678 60555562 261595868 965800168 687018473 570963199 409553424 843110348 962532876 166195673 497956013 24711799 591603769 66625793 580630411 424414296 284280964 3613378 788808582 377912369 647691711 748300928 975953801 867364539 423350667 553760501 255445801 454327815 743432870 172483525 696541023 841756931 977317530 879124639 907158946 725911358 858985321 320623409 637347629 953524068 102248380 231689499 790555765 124725159 334088227 279401602 179408910 114596778 740658624 531325129 324404392 706641679 870740489 990214814 736213236 294577885 122447354 284376517 899699917 711670866 534339030 830389350 100105801 658467891 455431543 555134701 118308013 400575485 381742212 600784679 534474911 852645617 864256398 471621049 214061863 925195543 13304983 788943416 229577101 372537797 584190244 958951811 592491251 540407877 245256272 932488442 711459657 951732913 947254479 99094324 136325175 207942455 967386253 799894272 821616636 285577154 511427051 296652110 139430224 669332045 427886497 135251799 218515564 373951625 980233168 474588144 903392257 494517263 488975884 196229111 338848649 977574953 873160872 519020245 969407743 871089149 615542834 568265680 674854466 480694590 909216333 591589138 901224710 284237303 455940106 677111265 380120515 740589532 149236619 284044773 310694991 248223781 692710468 556997260 852720367 280152342 178320736 208276797 504729091 164062853 202250225 365692031 342075195 115391400 439890771 976545334 678943477 988777426 255562412 567834873 522708697 99811492 786366088 131545806 855710234 288381229 432423711 913264580 877342462 289423161 928983407 874114732 810751337 700663702 999938975 191543447 370527092 488468234 835123621 53271259 736793628 955557620 673129841 945381486 641649150 266719546 423941510 652038780 957579770 32644018 596446708 330927864 342231500 322149575 718139859 837738903 982398148 95290031 948853297 556655842 637941573 113047358 819343836 943673722 483733577 809688948 530237047 202796575 492016711 300295815 442398011 222460327 173732066 234523101 785946648 765013386 848134641 228799450 353670371 322672854 75491930 462275875 131078023 175612524 368426729 715610918 64806342 514865319 181668208 896192279 819054196 761494359 763585623 613408368 18871724 602546059 459831840 748651537 974190545 643662393 605241214 602883658 386877186 634955003 154967062 585380388 74502156 474509802 35063465 477135699 525379565 894564575 574783026 412107280 264696866 666292080 409190879 398009880 842534760 802518426 534657372 795513463 210395364 372344906 812996179 534845807 283507690 714779469 83084853 763468469 26609212 650362596 519468697 532271367 328588744 897941017 324436420 579937 61745668 443361103 203803361 517901161 646341382 555409681 676037610 683072924 118899027 904349688 167459210 43739799 573350679 671763407 174070619 472678641 692592135 424083183 70909896 472614369 317413429 104305839 18641388 249788011 579381506 522477750 204170968 411443387 734009914 565446086 573627905 221285184 573157057 542242671 695764712 354598325 287662329 400975979 900464741 400477212 183362214 607895040 10659995 63788192 542588595 138974472 517803060 814315290 30725052 828624713 420443377 834826661 625502692 481267862 830749697 12914115 359650615 636425877 474044986 956910134 288446773 983703577 220931562 923943352 882972161 257125549 64621421 538766776 605449222 341122082 964064951 608880853 819137186 65826963 438041469 382608336 983725593 924253810 852745455 905096633 757556635 11359263 683875541 191335316 887038644 875804680 637321755 639679383 949825245 816175422 969590803 493914994 237216583 432008579 167963525 718530791 366495857 757831025 189316391 14917074 243890450 561965367 231896522 485592057 583343503 956551207 900761964 450938844 917854414 804686043 406217306 798232224 121393783 466976219 746944316 681482321 139451524 482579273 722484963 468051198 629734619 565249742 277707236 510482964 805670438 312111060 664273929 852569801 690363098 558778085 21400421 191461511 861822893 31988199 638772349 776934306 241257601 824352559 902103092 84307156 915055576 176057829 330922643 525206321 34057510 985327512 622989382 998543000 80406362 747622545 768747593 858262486 304895525 455431239 916393300 189334262 327533359 169270288 167480120 530315566 984187803 471206064 647775992 569605687 503024864 512855806 352245585 199179915 32092587 237435761 959968193 997924858 261489000 36708309 670543025 723793893 797588728 735116941 99338889 783693391 710902317 833433327 650646305 690465372 657053941 90792389 419586773 387552006 146245182 94511032 302645694 424509403 192992447 352497787 966574679 362623783 806283734 124493773 48061551 284037581 154357382 178133746 742261483 27413993 157434839 784932152 90833845 278214241 756214820 391100401 3674822 231107467 88551040 626376144 693142991 569572404 834362614 158142046 402066124 912138256 277016938 706189718 173043418 845213350 476382179 443322437 626032775 608455047 590045367 123576486 765415374 265433953 845181957 92084818 906977071 771566212 821488505 791366483 227192159 788870977 693846033 57279168 854462292 589647419 450083652 756014389 599040130 228832790 230361827 454598835 624313813 238523855 613364026 610902910 149940255 425290975 729853518 797670646 388912785 598904694 986933406 339494833 513790271 41778024 842685759 850696439 814249882 882373637 310816405 822550265 738595607 25673243 212828149 760444824 263117618 876891238 929856205 641720115 340927011 253289444 260187215 579112561 685135837 755307870 800803856 576526062 154692178 488514298 461989984 217660038 132989660 63679115 65321244 852588775 721282005 410163142 191693024 521020100 21627401 531428000 381605781 111458109 973596727 318484692 464122536 153570698 958104637 380718816 243270227 431093355 122683056 123016229 769023339 273287124 314083396 810124760 355597245 224361460 648638338 278245367 964352333 360657954 217436849 986290244 894459269 869207419 312102746 478680809 717057207 777900912 705130297 935184154 267785372 572903488 584452451 174287976 89329504 485534696 834833035 132341567 179459884 850413555 494956525 1937666 23059785 830372835 235630237 285857441 647289210 507351751 108284429 470553211 459027227 602044532 241888433 384003155 69023547 387911785 592122040 101443355 122705788 331994594 387233006 947576197 795437552 1793944 905654568 532118777 86008265 486598025 791827226 442083767 883118200 595886738 458400052 319663696 462504466 868865286 332789944 483653209 831857551 473251681 461752301 351062437 581430742 523071002 477498846 777122848 846052940 946876883 533452223 173738401 326757305 395125598 488675440 246555115 965909408 887924746 835954200 994619593 421560583 73552088 359723821 880672261 412420956 242194060 620670698 261400498 348342675 889240440 833280276 925553198 29993908 515010288 378544290 633809650 42095097 612597144 552915297 659226355 802432319 920219653 248971328 654960880 911025572 605724253 991506476 370231396 926157079 278482577 451498015 715535918 438496734 611347680 460987124 175732320 680163414 107342298 504842632 55728471 284172406 294002149 964145540 367309025 905647643 927222572 307245259 691760679 337952282 741329198 694782132 727088654 894044899 37267652 550900854 89156280 83497745 304978217 12696010 357549258 657597446 280514454 921904756 119236465 382591365 474479629 718304456 147429178 23160027 251417553 903436797 946285039 969400942 93525756 191763901 562511207 562382780 295456812 326727678 88327634 826121206 258510692 574887322 271515830 294996310 764718675 768731337 177346482 430201238 825042575 36048394 147925718 977009356 400324617 285689869 731973873 703486349 97611836 430241480 720957272 275724722 77688888 97788679 510671878 165756543 113927434 195003115 897350777 897582042 787328978 494503006 654322080 805717251 912906785 320770500 275477883 414998197 136788509 134141565 134541872 308860194 667975501 71070466 300462769 442835144 269607231 231182844 38179717 794305936 435464797 298554835 550297458 905037975 376354635 245025940 548462000 812984094 56512444 327188790 232631294 628211422 171224360 301096772 975452981 781045173 69469233 271801984 538851753 720354667 389740143 334987866 157450829 156390605 533264124 476939500 353544016 464177623 358664865 698582759 78883961 906480047 431821832 589639848 821093432 600417163 291180737 92959792 604269648 855201546 116209678 783751250 576487128 189547449 907471567 542581944 460497625 782546575 378032009 427173346 260392123 246826560 276796530 947941153 32459249 81674830 409552812 952852197 20369676 861294024 715815356 43495601 416221910 253232981 576344470 486999885 39065727 517557413 930969412 724983336 903073082 941458570 310144738 467067821 506721894 395156325 235266070 451246793 303658487 137320530 905333728 993738002 371721693 244448330 579071690 707864773 955489173 34894958 965839414 395432977 377635713 811216229 303576996 184013443 909531902 943994887 114011666 767459141 844224965 426634198 605791377 369933970 806417186 620635778 608509618 939596571 696380460 322156056 484002312 145198537 97111862 996087133 111036633 455367423 547741421 786249061 722498893 449296502 631836212 14622735 398053209 512263990 369046410 981764175 527150675 297356042 936982429 338528081 701105573 887746016 391779634 284167780 138586438 262302574 661662261 380433585 217188032 84017128 422075719 606550145 995662799 94637328 51661695 672589464 692349070 232520526 189098758 961837128 214722000 552739874 295555774 36392605 704213226 784442909 596110727 350611316 797181235 503984173 972476676 318196004 656604867 876141747 428577798 505873782 795482104 933587873 585502726 424177441 742044415 951434869 327422171 96697296 527287857 2681699 575418800 106963929 326795553 84569567 773712854 583882130 677334120 938036541 270873723 506267872 127309190 115256156 566543602 427945757 590990784 1052671 367170299 615332851 629374423 461133496 570952615 361837645 302318056 177052755 700812455 422644074 381282310 935344 494996736 927657731 809435112 57733909 922243354 274225245 853842344 457388171 645231113 52258645 356544838 784881615 288172967 77865843 384209141 120343764 993813358 510526033 294019218 849598655 6295456 362694855 469498617 527376986 138095944 424391766 222705758 777074237 519485231 922590296 66224776 209571948 10252443 487067142 38768254 840366987 824148577 708095464 921681711 449259819 456605458 625596229 977548218 613191110 764590124 37045683 157868433 143264049 787595735 82363420 743109335 224403986 741110448 969776387 53714996 248139070 139054277 199536464 506844232 329654250 723232115 372066730 552386963 35346818 828867047 292646239 922834113 498914717 473568394 885394141 330971265 873069165 324297873 703197938 206573788 948333885 216567631 621794095 435807753 955493925 511833333 507397360 869309214 313167311 611504112 729661468 516982601 876162840 263093716 551621698 635249454 940638957 816213530 33243326 284240720 515227033 364337601 613629561 957090023 634400971 2080716 535171775 968885444 421477775 931990981 839037199 871733247 640193586 867966625 522359780 713077112 529070839 273943545 411353003 545248006 930569633 927149935 494431218 725107460 438418512 585834601 916206032 222282896 742265657 176790741 950103525 282444865 370779287 177650905 783854929 302755629 181109655 927498693 5994003 420723495 478261274 277221489 485886823 640604799 854088836 759084539 187131394 505474350 547255758 356472982 830793493 21929621 527789040 824353239 960360480 21531115 918981395 70915967 745720755 95427502 106293156 848400459 372119644 716408079 447759533 237103359 416691877 692954555 812864334 790879466 863116152 103283098 170708284 703355075 938357555 79675415 178130310 637930758 384379463 592628129 623730175 946620034 974611826 872376 399056993 442094605 160917004 521613597 634627154 641237877 854187882 457166522 67314070 126719299 379295671 873360032 672293992 543287219 339979827 232655432 948103501 949709193 841431407 888056641 115248130 41790932 201828099 106652852 414516903 968522901 762409683 133272293 102977552 462704409 542234841 64397520 479834172 427537869 247966555 288241604 644993362 338647137 977100353 710383820 315989376 851400018 111048287 300404497 436328971 766488758 149964420 972907980 622101400 403055555 662665241 494344039 987253575 849098187 883842147 390941124 796275429 124907137 944611915 531749411 919689095 108327726 573485200 261736845 118785094 548965979 437569898 83306378 303010652 654763032 574291170 904374294 795812277 252221653 427467035 627021423 187373026 429054753 372428383 605808754 17484259 103054585 933094136 451005508 609304569 40108403 686541057 798837639 996720409 705312020 202629012 42044074 662309072 385074835 307766792 474198333 662766086 314054878 32278315 492051056 303987543 30272407 461588893 624955381 354607087 37301809 452824727 245731322 536880150 436758932 314884438 146104816 721064698 369967782 528065690 134098742 99648153 864232435 387487892 767190570 726261628 474140055 955607119 285473455 779849654 115880515 666861301 534189313 247051135 539690902 267737104 158117750 183931448 634481478 80395797 889649406 674125613 761159610 198348509 767575809 282105407 197712498 904362195 988645829 167332641 91923228 367645070 701050657 263366276 639649850 782524055 530132004 748306114 123174247 63463950 733490986 903302361 92649246 905360327 413316924 78548573 369361890 510672776 677034204 330375977 431069231 87082588 844248628 57630594 530181898 969757707 375435816 735928831 902458799 751273723 760196070 904152941 995476854 743557821 917286003 444362065 187031658 647877849 764661425 506532948 332152850 759397832 904179368 733301209 203780988 221305511 186495803 854039414 954382188 459605927 970445401 891835498 912301569 228290601 839444075 978075801 452247262 544320707 659536775 882628243 432071359 739363061 252142269 946806388 482751594 709957307 505763523 17181813 504268817 683071436 339289839 488713303 311461816 663061048 669942214 43814090 859629073 249323355 595889415 129354646 599504514 536338389 732605724 244405862 12096321 73494145 315356243 653445421 607476667 627978730 763731866 587656170 238361684 900666120 590358575 402689546 340762054 305801292 615595405 525565797 86320886 148461817 267977383 949006495 43330878 82694934 689986594 917166968 41600279 731130842 120668150 395333213 116816820 66491385 166332269 484271609 686441643 19443997 493271725 408657039 873204751 670161621 666523661 192475327 225712458 335398317 480088215 598288096 820146207 993244607 235475156 588959488 894439728 124926652 227776811 357128992 285372120 379191434 125610000 935912302 77665232 771988098 899338852 545622346 595161309 796661967 367528711 984407748 418494776 214071330 169517440 706744653 540150964 373025845 143261309 343481083 466064504 221191343 259350289 235173558 451176141 259644930 474522680 372728714 3477153 516493871 772560758 111348680 677444882 760653466 833845920 704647021 671916360 781045432 908946465 514951831 746410099 55964812 259342405 940345766 763128890 885464044 285132535 141587741 290995029 822092546 419049088 131206644 786122012 55442145 764442504 102903771 713507835 688285004 554835925 111896847 524424924 212967203 268421086 454849238 766769539 369135549 331482455 436923595 672575998 27193186 368102251 676031162 581868527 174136567 594307022 47561460 979173212 222637396 120083705 295282381 798153925 317666115 141104727 717062201 181751364 80982387 577714559 263746822 521824403 998065472 431464354 130769550 717569174 628129882 604117488 409460096 286388412 304587690 354721873 537949984 259159441 565072187 429974203 52917077 832414543 956979676 532953013 622514515 261192837 787749134 221260293 301645016 123679357 257077845 683621219 60349191 679206181 505305483 757914068 464111940 373227033 755179227 485954428 881259341 355606332 821729163 477424143 394267284 949223179 189687315 501179834 281034664 764797939 999652740 762457747 460342712 62923592 228403038 513814871 248763425 132774623 69281151 913118765 487655927 844368648 564480139 827816263 361334302 904048396 305791090 338906031 767858592 652440263 108558782 385188278 343158012 592686902 680903850 64107465 424622508 598063418 656337991 435106323 766299247 958414758 628908781 15643367 158391335 248241026 609120976 118400850 172917013 804281463 572458136 67467440 278320951 637337408 679180156 367126253 432496522 646374621 54567027 943589484 44757144 246207823 622880506 88012732 851124047 429970389 780921760 831289667 671810765 204635443 172625238 735658217 915396068 372920964 871234180 667878389 750107828 342824409 944054078 638460109 864991666 508218694 783407724 811404029 5544858 565781081 420060357 283303269 271503963 570980713 946528573 550478553 422846149 607815737 679201961 772531554 924362740 638710086 566614219 700358018 802707342 553058245 341700161 107320012 718172532 574943603 337613533 214730126 727231068 33432118 203444052 446393413 142952726 264216302 871154462 667206288 530641316 292265310 599273937 76603782 596321415 89941909 7471792 530700005 50987595 489631972 613149355 369089776 199401408 649234645 774589131 360454626 272269062 116851572 948873279 450704761 283109383 514419889 867462279 252978441 134922081 171098575 239470299 730466174 387562424 19017743 588106468 751485350 800811083 765845143 120313926 778908005 97186662 480588782 789435830 257227151 684318308 957855451 941512087 116343754 535097575 53949288 771170725 930208367 524842082 322354922 119561809 17065800 867079574 913056923 130461164 122301839 793943481 911680987 142483642 184625267 29536602 869577728 173895918 858554497 116024388 81440755 895011494 636241109 33077369 963287344 227758338 206510965 811159210 467375647 627500903 697140102 928965397 582323889 131504443 230295600 335865674 396866870 22455538 60408458 219863430 375199103 497532297 966004110 151592393 42293206 746061097 900896336 152960890 146214897 459303877 387445495 588480410 202474954 563542626 660854774 23770626 679850775 353205386 401299660 132222109 534369676 221579998 3810907 694974598 719722458 605681200 40418640 66202597 724053033 407256644 65266810 972169467 531839884 193589464 543061272 343475866 119310077 422246689 996616732 449533024 425324358 138674601 118426112 622915612 328353261 875167215 330700157 502725235 531721539 230970632 96456920 700233598 125002578 146455033 286315512 213301337 461458052 899664239 732783587 332000932 886185400 350010522 367283829 766320447 919073332 349937830 782465323 751816954 423206621 935937407 297062212 534666046 842621006 778906580 144945811 416132890 488332292 892252710 192151990 625895461 815387646 477629452 40320108 310414616 138449124 691546422 600873831 876936685 337285743 396500167 729584022 752530564 782762077 591061987 902221347 665518086 701741178 559702836 845524036 870898625 995401473 780739375 606445312 197318926 829197103 735860882 649302145 436519895 834232698 337224501 410072518 689338768 143329236 608863338 903659588 766918434 821394772 123609873 290879443 302507169 936746803 785946893 866851189 369453178 594236587 898735054 37967374 466033569 60063061 950934093 683419764 401715562 854790781 622201303 893026701 391444150 641286955 61201588 262797956 848543261 569083525 278896577 580721032 740097856 106821841 771063893 869669181 555431847 530878667 171568824 143134894 988882057 33337520 922023162 577312052 372266560 397494901 720350081 860355009 870751614 125174967 424152105 517456160 868012751 47042363 335557735 563647877 32601730 541973744 98575167 228845949 737898212 486021107 123415316 786930941 958267751 142901227 769131402 595120845 484114197 341484203 530388660 109203137 898337832 839618309 100209473 450462764 817332292 219413344 210999973 909194321 751980067 560637710 936793279 709410227 291462426 508803759 313446347 939003697 406134191 95695023 790098431 300859998 549134481 643255584 159970931 492447240 900882087 119391059 719568703 312354967 304253064 744366273 176791446 722922439 577241049 526159879 793832821 75264724 24115474 593436015 183058346 131926128 79457907 821322082 491913598 945348634 855655577 886151311 450057941 862241278 685325936 968585610 8775277 265921200 465032460 194820522 866271600 641939119 243201726 125263896 709504125 71048738 745587611 314180997 891206812 408369441 699973618 43349438 841765597 151025168 730181960 246673450 497905200 651937604 316960459 14192911 220158965 633607922 640689967 653213282 516445107 312746767 287512756 133930419 271933015 516126202 6089975 97978497 431682372 46992043 102430086 821808689 549465734 822820503 631615664 730858265 147208866 460282699 70591661 507230996 986864644 466730363 217312228 107680849 988998896 620494335 278848168 328375374 553358933 864353375 45510744 884413406 680993321 583688867 213848166 962713593 119285331 918965872 278381450 85533969 217854932 657353410 761625438 719128974 363983358 635047357 846415693 473126679 945537637 773682042 967382879 232754053 999236262 839983080 463783919 961807449 406868521 886539505 912266578 804520812 55495707 148120279 863194601 331079549 892752982 96350857 808242484 579696424 581587528 79177189 653764848 458204184 317313806 840508892 505149904 681493847 333786635 982128602 502160486 941695755 137087548 381934639 708207964 903203777 529536654 384164550 653271479 316975275 793482924 6329381 170448101 469237676 431877470 566603270 37097771 565548841 301450142 726866954 644616145 775870631 71374820 85386200 212461489 380116719 66540036 646669344 239193228 200255014 225159565 495082717 876890386 895936841 204800388 170679660 336038728 693805144 219350261 121309614 957659515 792007248 270529645 177098722 885967402 157606060 597004242 819567875 243618984 748999433 719223783 540539536 26375513 89711482 282588684 154807401 901210384 946777398 667779309 63372603 52363543 555543077 606225430 788127390 718612177 440788739 719446187 936193742 331082233 975435685 199044280 717205145 428413743 420053354 917746749 31936275 525226606 121152995 416222961 575821375 581887497 330495810 827594490 472796970 487967597 356600126 458074799 257238621 534526298 168946339 559137489 726058033 13576175 8674940 259610207 74692912 483405366 661814031 351402701 264567212 459991536 415876030 666539003 108061279 272789249 496230304 311825807 673512022 238324819 592923832 143595410 607432441 749894269 787990725 643125469 963493719 48584197 560107106 19560746 328798045 162673706 826784972 40072818 13976207 620189366 97903422 947415926 41424449 295551149 206808753 579311839 246376422 290490094 719974187 829568912 988284281 854052489 612885323 932014935 825182832 426698168 499384497 555962316 150442017 925319086 467297252 693076763 117011108 238586091 579881073 121587135 471455542 906013178 676267541 411649474 108330578 569435261 579136187 469878764 800888985 36483600 482086200 8537275 759135158 925029754 635727945 268785053 395214719 808008052 999313880 785246497 489640155 513380621 388364669 428886367 734965562 283748505 542340416 574488044 246516620 893861083 331317486 822982403 714500134 504980180 857073821 611059789 113383747 440884500 805948426 584675037 726416497 303177789 136139552 281609385 851473201 161694795 230255612 487951618 158277757 76657663 241100449 857447288 945477804 743426217 247941672 544159351 744575302 376256506 924233091 209342288 211666943 804152060 106325799 279364808 911935028 480804333 879373156 882471709 233828867 562130723 683913514 752322426 847031437 705849652 227316010 853851807 964886521 43387711 373208375 649058344 548220732 381565894 890576102 843667881 417038133 992409595 966667102 35764387 733510130 345514367 955400891 297973765 428127433 739520473 721825966 661895967 771411678 710473962 572809172 472291647 508680483 352110705 82642813 218102531 264953880 903097233 554645980 834802666 790846508 492905618 119896004 64553160 425325771 640626346 802817868 602673703 725272114 842162832 672920751 791841900 589778439 998794821 668518477 575093016 487464738 114924229 813046026 736307664 80570504 42360899 827789113 845059390 556205512 416278931 834605951 364307150 558726566 721894283 947030894 91962002 418787834 231478278 721644634 467256201 873520336 846815460 814337698 102192742 324836524 527865478 729144694 634890446 217711333 397495407 105545744 234111688 388867591 200808053 875459870 951228793 97501663 72831801 589858126 849968881 866217721 532102341 757146646 689227162 173251776 368113394 267397191 504984737 335647388 655238483 708509995 747086910 226571953 104999282 861240877 652207402 975371107 800480795 556875708 963137664 695446832 692938821 544426738 575330319 691816330 174041039 652881216 268531903 996995421 346001500 791989116 323864912 77119742 741391457 72553592 740793912 378156746 679003192 117426503 398491802 837924249 589950494 836883421 327525247 859210550 488624461 913251110 993632351 138773119 529482714 388049280 411476843 202241672 689856717 362459856 680862113 349133423 871289238 555716437 583641563 783924488 797880879 691669033 527625793 720287833 672121261 656281060 256114578 608577253 572378373 21371502 657038681 251455697 464686711 10527914 850017206 238170786 691559829 964545443 903520566 142897281 323958209 813435997 154600807 958616 393805367 20103756 335878293 746283153 834844527 861010213 516835869 472763567 184975653 877175086 994414592 325777437 438586911 158362203 922649834 512495983 748890533 74621960 163148975 405050922 830609080 916511130 262775346 865515462 839932183 366871965 178947 521508146 761130122 755526659 991503255 112630840 329385332 763945035 518987579 42227895 442134874 413347976 869215137 203264113 496849272 399550071 689343346 254808794 832687325 728701240 627750102 414303937 772554291 497083372 663043459 286354181 781832364 474534364 994256643 210078310 509307839 572411389 851393264 25585500 901834437 996160300 61198600 695982315 844465362 980351494 455128140 537395017 514835060 820291794 989135725 535327670 909033237 580686742 326154565 307118424 863562913 246835243 512211926 166327765 414517222 810697146 957331182 919438400 199126688 847975566 296469662 853069027 179801417 286664719 663423540 454095161 583798308 341612914 654257248 170825146 89716461 329058301 260513756 712370309 925460431 261706530 455331463 859243108 745741390 129035172 205214569 360134427 407420934 284213906 935292691 845274353 882472490 860485518 931157661 871690136 536533074 220380159 603298995 477377601 810841721 540516479 736099087 57839325 85799103 769541292 442857701 977126129 268884474 700753 129871946 566762897 491363822 854346666 844726598 640448471 877810178 538053390 108376640 459290086 140284841 806028088 397409796 172310860 191862442 154779038 39101402 426452846 71724146 533898642 997726163 551371890 163109293 669317019 556399481 661022858 287391817 812211961 920882304 647693212 101444371 587165373 635872503 511491676 797241216 37836867 260251019 540663409 860090953 933718866 938661373 71493743 123209091 743261075 178156257 143074520 877109120 871320628 290545666 789881259 497620302 75999210 899139465 293883665 987813211 711746185 707451463 361675313 491940930 82523288 962554415 81049904 474811392 432097100 439575446 546332239 459455788 219894824 755920245 289804409 177945288 85920728 344672496 781006068 273114177 288188212 743951829 121080151 111221279 769004408 514979242 836332948 629977834 37515414 870764897 577275441 288935447 373990882 599447790 305347070 868823354 892775812 357354655 693480035 950456678 40762234 324766972 162010150 878050200 514670667 244630569 792023817 328968532 165941951 466155580 112288127 407423276 754368076 681602801 136358319 106345706 494339608 576692333 439565522 443157674 86221067 942380595 787885338 1884079 282439471 275609760 668589319 542376624 944535169 289687077 550774254 314996680 106876490 419710743 783814667 15454972 259846512 42211856 574924365 142288102 380696387 427574020 69243748 131500854 249333615 201557663 618732642 825320124 695502834 851913328 326919082 827911566 22910016 776662147 571050622 74837541 417596636 108125957 236716293 327428076 996341654 576502759 459313814 120825650 583803778 899328687 566612489 297626592 336809601 86620509 8536104 640897813 112929636 141457174 682673508 514608267 20581174 590403203 392361930 461947676 308517592 188576146 20859722 534312406 727418390 459301400 581578330 210649937 136068224 930128226 916617533 352633748 317241442 103140359 368096973 629825106 569372667 583942146 552724929 302579311 825520454 753410573 519646524 432252391 460229218 874413103 228422696 202962969 645074119 539140159 202186417 961270913 946337289 435700354 899748142 754643534 691703130 809503785 784590826 621111036 708575019 188760725 691433553 532032365 122860986 245063918 585016953 949181029 759456018 991586459 222736417 356893518 824759810 489924914 624661633 229533405 780490843 229507491 847192728 351099293 490865634 20492211 654580013 507166399 215248255 894992415 455022416 674852092 798642887 326056387 118475246 888822280 584528466 883350200 161268208 353989242 866534656 105137210 370432515 343718949 389904271 711730095 611348402 412964405 97378067 644958784 596287564 961912935 583208390 939454071 242490334 365424103 443900692 943413069 349388937 938275841 845047052 67016585 470363384 586019443 409746009 932710867 363260005 3771567 916172919 802031598 607326653 586296744 154192098 135396997 919424075 994838985 133864771 689100693 126674763 496755722 73534595 786747594 902117218 725860855 490635756 915611390 318700524 649736324 29605288 301119736 526213919 34879803 793740985 670034385 559988032 707723765 295882273 752098218 470626475 596188169 514074154 674985534 711195876 272927728 40499332 975324242 375553383 462038714 946548657 669826922 961302235 109641027 831110398 682166374 78371784 152785711 878196594 190306097 854146411 781210420 503683292 151696966 878731066 682940447 528272197 220337906 464561057 531245064 984505570 903462952 853034190 910603835 393113963 722992768 180833594 98130461 377914027 909643574 493117880 622495482 600742486 678341045 134647307 90748559 371871248 20038648 407071624 380334377 174314721 756975678 6986061 888957361 455004143 138046398 885062482 339057809 175949597 511522858 156883168 58771874 591067239 954436925 343012748 452608341 886177902 140219541 639750085 443821240 18038556 107791138 481977133 977011771 323718338 877122860 227341365 745003337 708973304 866928214 141282158 922071000 193795068 402931986 102468632 558668992 844200524 893820213 298688579 954841665 565581249 134239583 744685056 993688398 457089047 999348204 59002594 380424937 148083728 511815118 101887676 394340511 871203752 960190623 465708292 985287139 493420469 226191069 426713613 383058899 722227429 730493744 666843652 657589751 606410764 204283646 829854089 973901607 911042503 437409311 368523458 460093850 855957941 27293741 677412311 35097 934443321 946978024 192388335 371988569 593911684 45806078 721470773 273157529 273048179 828630087 659587746 43491760 991539493 284323046 489608393 172723695 231434044 964421552 536684122 341821176 45502535 561158348 239905862 122855669 346976607 54188927 821070949 926857988 263673409 573382529 936459243 219902006 842163394 435940222 153069598 894367760 291552898 674639252 279131542 27907460 336467840 355603701 213475226 643381762 133579897 491482133 184104212 797552524 80037532 61192874 894158667 775416936 298831466 638642697 595890938 643686252 584231191 89502855 449030626 833762590 888530174 542263811 503942755 151711364 569833900 949148230 528851789 974380929 968255659 946239289 607795325 954990754 473114754 262107886 60683520 635308852 456889061 95061733 810264188 783593901 844766198 292564852 764921231 654153040 411675818 45475309 288841655 631317262 582184147 421632481 745383872 636994177 311210785 273809916 309857572 961125087 779956692 526127739 775120561 587697769 851427395 134987141 199259329 849812442 87642944 250402598 898785680 980039987 344818088 41062360 930082452 281930618 938895258 399651098 676596599 638428310 541665791 922819968 506624592 887535819 301823423 824809061 277317980 622187608 311210623 20733833 736201668 523909761 709280967 181210818 985608782 29837231 715677141 721456627 769328868 254627748 339805961 121190501 70257537 590406862 164481641 74934309 508058715 90294735 861183839 979737088 496172837 156097766 706746393 871284483 398057307 824803444 150991529 608346712 66965795 732830788 908534132 174749222 400464602 803680796 604547888 871166003 476686693 61253815 424152404 598457158 186596447 914404475 907963351 493290885 917618532 204030760 105007997 901799976 371454864 86357909 854761269 594693575 812858830 682472641 183559897 852758033 220881828 9968315 95902787 970137933 563342192 61373002 727404421 478621782 617668264 47254548 845597907 505141451 880325093 328978143 88031063 245991088 122743155 452330737 101123633 244388913 805369521 538310364 945620028 911580056 376871617 810859085 386558787 594560567 351325347 663747024 262108416 189113486 198180285 934335913 841724582 168831510 731524946 87222720 690316101 353920883 428639291 781713710 872087449 383591388 40859193 688220360 82959249 486202184 464848278 371303031 469640902 641309670 569333055 500547467 589458262 294194650 388511410 137919826 672496306 700427743 303341219 238384319 462607319 728533879 40223069 162827788 25780487 935460777 646879570 703168029 252116461 506900771 321745335 820969696 307736846 390336444 513718490 26788093 218584376 827456798 282367953 769809089 232937495 143083603 270861114 627915350 962074254 251641155 86408179 750276273 877636483 943390686 588837615 39828559 129588787 552011593 16517520 886561421 916742632 546387218 574423235 274884876 352348077 516958908 258022259 82068770 841156554 214888621 878726870 416823246 109887080 662722903 509960024 290956345 56194234 464533996 579187331 32475252 6544238 135234243 527597269 196619538 662380659 959279547 910796393 765222989 702373052 10435758 727953351 247019995 776640195 851492122 777871440 647796762 876803538 136395645 193764665 980153767 555279108 121732037 812741053 931727949 814645483 303596689 925478692 335643954 636827066 844695757 883732380 70287179 424607045 964601801 382041203 180826667 129252160 542937843 730755572 477789739 352354379 738625377 432622671 560928258 496757711 394154925 183454890 88566873 762752566 965408297 798884204 598309402 650271452 163427554 181324319 4411057 774889149 481492871 812212051 333412719 311924946 612327096 51468208 300371660 277769901 204679258 321869468 507418638 679508053 348139711 502166278 757577360 10493324 276679609 473733451 369172308 284339324 812654334 959247622 794541483 114710952 908185139 360819748 12809150 329599381 54239153 143923960 264449173 470114563 782886348 38963690 258405826 875947215 633241336 371453223 924646841 861506602 431506622 319256742 74275133 17262934 615689557 730341014 609702655 909635381 774286577 533896843 934785900 153997670 723827736 1519778 325627355 389909389 667685990 308059360 718525074 343129446 668412828 858246626 738334837 96960630 304400914 479662769 910438745 258825175 153200957 499143721 888042947 424586144 624756574 159809006 441363456 830607093 636198745 41051910 281625559 753204316 636086248 748222567 267763085 574301276 217883031 897533026 273343023 259765170 382086794 691670960 856060389 257248022 389587627 37366077 679721613 734217876 435222935 731986518 617994696 504358629 687034426 867666890 415161264 909101011 928701210 478128878 210420233 360136136 127352274 174203332 49615976 517865633 745307775 696414632 857499232 669544958 641506327 916348452 955238569 657692305 483704198 461515131 489038729 243843234 286394145 964290738 609046136 935075460 653544328 935260016 727180649 359679601 614709307 653332709 474340672 953242859 432850459 948674404 850486403 957750363 209492877 707078702 669662640 971682905 998161419 367113935 305912753 880138736 965752219 724585090 162377645 822717786 869693509 665741903 416473723 632694216 315690686 279116333 38823925 44842260 506253772 223263523 698347568 647821975 748501413 517604978 279633846 327795428 38744307 176673262 255784316 94170963 634925180 539526819 552592958 924864373 951723069 932944374 369710393 485884140 154772875 906069652 957154106 227230346 850601378 990057372 222833501 198527310 475771922 779801755 342040193 806071701 354846104 495182603 509963758 804957848 351663265 282221662 307497598 392533701 663302756 352408034 374146612 218816882 999974414 484842478 483540550 997942994 154845257 999056191 62561910 513730768 398361109 36293386 781464068 119895159 937084073 630686770 34944103 459685955 818695066 680406752 221891231 932982737 680139622 710967444 964779328 914046281 568887866 563333195 888426320 491153300 379328454 342011116 272132483 992952642 807102657 483836994 160743230 940504410 146516761 601549760 674988121 865285939 277032592 334227317 853051734 125845491 652292457 139241302 914481742 532038250 890247883 581680682 763639964 252468296 356590083 925292512 171676782 70701992 226222859 377048778 763749882 469305791 326164586 671591728 388996444 477156859 515025369 756669046 445680212 305788810 498240535 358827903 777647585 316647897 528734238 68365319 314813392 924965191 760715290 902497364 527380813 99909059 422721960 88371343 670695917 378837227 305228068 119329215 561518089 659081166 299674885 729767740 736941319 3119146 263970350 343514703 157257545 985621142 881440350 17464993 625106936 782093537 376725774 716901184 455303825 422298061 494971323 239283008 799844732 381878056 251629698 940683579 302290911 769239395 143220970 643019728 982088090 891163036 5494558 422332286 450742587 706808154 827287431 219611975 475848608 720182128 621844578 127167973 940563511 875596134 302499063 446433057 490825253 103709699 767545999 903342926 121791032 702822703 401432850 775122078 32509487 69378035 166518593 993870228 521823121 992074941 896766956 319730116 627503600 767967063 524628979 299026136 226514838 88958 832063102 879987606 896371164 300025618 637118650 119625599 809838238 487622097 813902433 429565777 547121803 744401823 943826236 36042791 297479179 918757192 933699470 100955752 72377463 390176936 821057297 269178948 377444857 732169367 377279419 636874029 226006157 701313342 643422135 115267041 603423249 372961987 458775106 642107771 17612574 823251524 544269776 148028173 923276515 470327701 995625189 966899460 224745723 894516658 983962803 720025443 719151173 44699000 765425280 794569114 307098476 654887724 457205782 521936098 273297286 245498630 750537217 65888630 158407776 826367054 587990429 876010879 265231897 180961614 173963256 629015976 901823266 16893742 943128865 413340483 454647584 924337493 967676863 436615553 545670079 391340126 528394333 364583643 848844667 259171521 38835469 335064368 534947470 576034518 753307285 342380190 901104411 120782093 249552949 455899984 908592971 755263405 673356432 469553152 793370344 944256469 669545431 952752455 948748376 367394201 719889769 471040390 495458141 974152179 952587968 705972140 82759398 337991980 342851997 522546437 598692252 701423588 755322317 177633677 719546679 682853717 604407382 164467578 721666538 338369109 118127556 54723531 27697035 899345889 596857759 112427683 540242417 561150551 577715982 949713135 466071201 344462239 394054182 320232198 810495047 585785350 189238763 68270019 390805568 821067462 846289376 74638033 358996624 251244696 20203630 573217301 914187295 745773635 873436643 796448685 187896165 545509263 927773619 549493611 331131991 585333155 695723059 304683129 925951171 4763679 520879746 864018308 654885835 46974126 786126386 839908909 889062503 570674209 919794671 682950113 690863833 358981599 751433854 677341012 82368350 186570921 122142306 356161007 62723492 817000726 541296123 961291474 113699165 373048947 518259836 359884833 275319852 581978271 389180877 76325267 327055005 376937772 844809908 852000515 119794090 505101552 43459401 889905731 98521467 584163379 146338926 540429178 349202542 706210498 744978664 422433277 328539640 322242098 910963319 608602423 99046390 346996555 219535742 732348401 237855535 541566607 946680166 855154177 801872341 273123097 672686511 81005950 925586201 752218949 869463459 282011361 826255498 761358940 432234460 994014656 65191607 904539968 741383624 814101794 128384249 826452237 655115541 421209661 146942669 498882321 839522609 912526275 885379514 734953408 223146226 196438855 553155507 392359076 363319288 289191063 969354663 92410877 16901006 233537832 381237980 434612442 431032126 262167506 402869179 424913781 117810123 715742976 116581997 518074435 824115248 278343227 873722871 22202858 982666506 507593255 771552290 78237239 814443723 428396897 29689944 370166011 867621612 88743128 627827076 321461099 213367790 830954041 640505156 796827043 404606169 187249995 879845726 131710233 974118963 396621996 864391620 329524667 253769275 921719222 886957375 537543320 651301392 401667599 374937503 263847406 645641734 884010664 249434307 620976109 204881440 652491189 950978646 399448187 96047225 291822089 149880068 542197775 104895220 887546960 726214553 872536174 861456571 272126102 449917471 856778186 27817669 611721452 31093306 158337632 86655347 596810672 177145544 866563881 530580493 857518533 647731613 564892649 267014498 765677036 477388138 570886790 307293727 642329485 998681984 834720976 335418117 736780394 49377570 12215974 578794155 524791172 634842524 515295258 532846686 498878411 889302825 522883511 192215805 558777341 315867050 774094142 551178289 649789420 566397627 242096622 511470046 773544159 823535575 891039453 794854591 343064297 578257856 703851926 355772735 420541715 184471884 851155188 47128535 287458188 751299399 103724473 175600569 948472859 57819310 364174670 251002536 377184861 551245518 251338028 872681925 375656732 81885176 211017341 292910012 779385625 536642704 683840305 517241911 814705787 389365929 96290499 970432260 826729699 173988905 164026338 738054488 964390726 199848976 587709900 849019344 880049898 709059150 585623776 106355244 842532223 226288648 763280862 575567745 312678397 659482428 573029209 260876396 456465381 59536394 782846537 177144605 960404439 434100921 600810065 729520462 903153410 176425426 396738444 338587984 837065164 911096152 201391047 832679378 691414532 5031893 531550404 614545209 823501168 934133891 318880090 350078608 449755536 107687624 851606700 327271495 624262842 80108127 193740871 919682487 370401052 449585396 775899372 137300634 648210170 898316520 552494042 618348313 48269068 65344935 632872664 957477871 564817818 111195868 555504068 483603635 883915207 49515852 67317224 446524456 749504919 819110313 364178024 452998593 76224959 855210101 871848029 244409317 557779186 790072273 674412185 144017918 908052528 904201619 354839076 195644379 362266103 404294134 702040784 489391788 255934856 534173245 562329256 25745431 747113754 707829682 404661141 702061763 15079314 704961495 439907186 89657214 119882939 778083582 767265981 499833431 91007751 254067777 16459333 306292526 716317637 228412411 380527401 240824014 318704631 798644297 79183186 158843466 362707226 940815901 113087458 2938047 525865754 384583522 394782167 815803265 102077544 711126143 581421543 215145924 675490282 800087880 675065938 511331121 113720127 11482886 953899670 177502478 530555678 917206209 733967247 861077302 538461342 947490811 67402283 83356536 605798823 841854887 978542042 718698661 923017502 827170219 371752628 326593895 438665844 596763851 618792817 688461390 118919242 238727917 289790589 111109300 852001457 294481492 277738684 314819492 604274014 560817983 102667004 213573964 986569432 653614848 240262804 508646136 428195298 479580293 717919659 202478416 929056315 889014216 384003153 452755366 969091259 852059342 210253880 697516795 200780129 297122220 639354453 481551951 641263113 681240223 476721716 861020203 661237750 383969047 351891496 482598898 473176084 287561593 82271142 438211635 300013533 6725329 867205769 887285352 201287970 986468198 903594689 178055755 318783972 490452192 687950206 537510292 496341392 140305523 73383508 621807858 290193637 1606565 895348662 533303779 74943306 883047481 665208980 201262148 660535078 573715805 674299802 115796701 898556772 669945608 915781453 349477673 606882667 464175847 94960592 498782108 28124738 772356411 535854332 642948204 186628894 719399046 925763044 167851450 860021942 255569612 562730145 130968805 907643885 963982533 394080230 751310904 452680888 28609675 372215599 563278424 569314521 825351256 81937307 255347024 522451907 545383315 277132085 855501002 228659649 606542628 199895749 577166694 350824481 933000799 999963361 510681714 49355646 729077566 46676931 926366448 939149982 761916403 567928275 101121417 579443682 113390277 962606896 520850827 195468545 12627568 575088380 931787441 15672186 457721247 241911447 629399242 819169133 405406734 624326083 463132857 304163606 615303932 283542570 438975058 632810405 291220560 503382659 341721706 210462335 12719609 829903978 737172182 512934165 13455616 425878793 484366619 379126026 695391946 874312708 481689943 581238356 227974859 318589799 68755980 830854879 866445400 871578561 697024782 666118182 619855318 349580392 417616560 787885496 586692218 782646525 61987622 603019783 273362880 438731872 344079898 298701133 943769003 688306736 66698883 483114771 312097430 193741286 756779754 761515123 220563211 407214037 616859562 950752575 767965898 329164379 842340183 45617699 109862502 235562392 151609391 197737294 276614422 773539918 96691081 896824924 168195898 237190601 94547386 876011825 665273550 159664142 38847363 217994272 782339301 535022349 392259637 454477023 907949354 137078982 396419548 985736251 376264445 433228290 291900813 330233335 432968380 666879816 931033628 811037092 430044891 968974826 656754109 650254498 332508256 467003863 297525037 376875046 811025928 713242466 113902822 791940845 879441400 29066862 517763 783651806 583547262 559674806 888054301 180096892 977010374 141239036 398695289 645077858 390489467 461824813 388946574 277914470 286901896 960136872 79187793 474333740 314011469 463081676 496908934 449941529 32710692 46487903 347668370 684704752 622789461 860999527 371721659 824731208 83282943 235363505 908439911 997455780 107945958 597677418 76427261 786265374 477537996 28007797 267061850 902519228 352268658 648824056 748092484 551085984 433412469 623345085 358536748 594417704 373732105 541334390 611562548 29519174 153359666 133229867 831680766 270551216 713389761 928630278 780385044 290755047 622149018 719667418 864954257 968987866 175486992 318034348 440264865 711736990 712501497 410887478 950774020 132547492 820706026 482060722 218803638 854671712 220113470 544722238 734930200 994757644 994789444 298622241 253883242 718127506 288287309 78361829 502352960 618777744 691546895 729415538 415572336 206047758 410828995 771841699 818976123 757272878 55744247 660976495 193646242 4370229 698096735 166018297 117499114 888584279 14311446 948856747 715196170 212460620 74046940 363340186 916318878 55245360 567093313 40685765 984190946 916328080 302775179 387818894 323388966 586001260 94963867 38535194 874238303 500140005 944220004 436919706 146159649 869309659 458874234 119508892 397415026 114812634 95810719 63826587 407550166 679515197 630460957 400977753 558852239 868371014 366805665 457155723 701827804 394585007 486033226 618471582 838568002 625959796 268918955 236814495 72228320 115697405 620444284 100230773 728803972 516687840 511633822 60946471 776452803 568411308 109376640 980790080 837180404 927000776 53334247 534116824 344230866 61093942 460157432 787940738 98907703 547936047 466657246 593365023 785653340 323658245 696591595 886984107 878294919 112125892 575631053 517915530 343060557 657573380 393801502 916073154 753295622 273399216 935491448 430035716 566846023 744203555 226916496 392427207 257315931 74327691 569396478 537335134 106417892 36604300 659624545 300949896 834745480 523577967 429237056 733822050 251445187 710656114 630770710 77576324 927735627 351892688 847689636 438402956 413030322 440075799 726665305 151748668 733216215 955552393 102299215 30857633 833645887 90321330 833738995 226702180 838149742 897410814 707062963 154370506 869598860 570920011 80110028 627661717 893158404 950147713 318311005 202202133 59587493 230818287 240327806 348882715 690675415 86720177 868051809 23218774 815406031 32308116 51914885 392669684 351877577 596446204 908108551 289429031 723735718 290904480 410050857 477896103 422786507 187771284 51791835 805578007 334478066 316209483 916312133 762285459 373586560 50786674 267503222 985719003 991880468 418422838 621849972 217607549 334486529 319582421 553903756 523793067 968610788 987376682 630667096 183572007 587098604 301430288 346818928 743973804 12183761 404422649 285574165 432953234 294512329 977983667 98486544 693917466 691199131 440099256 559312809 711331336 718012258 293462369 709127078 894507037 113420089 785487723 406500762 560283249 687264087 481672021 90656973 814480544 574960177 721682357 646642112 210098471 120516410 226530309 823291134 193178775 373926868 345975824 292287963 845757810 947767148 716924542 383374467 365501717 568549353 805813894 345075374 273539005 677213578 707760068 297538173 834766610 847208508 405459172 51822851 189124154 411234826 757635168 593394085 501278847 257466197 942942108 988883716 386535771 359847532 486690961 560859062 228663045 663636645 890362787 444504868 182640168 24182951 669586183 856038970 648469808 331662715 666856814 300919245 640153590 756128990 915784011 403319935 875506410 920650764 566064048 824903528 677870271 316154591 205231898 190986993 763303948 433696315 20541110 959402908 930903817 1501836 484812637 803274504 229587788 71639839 614324971 55560387 905764722 98547260 379122068 930565502 150537791 736213026 332844127 314634198 266065995 142550624 986595372 110494213 655217136 297955358 166187486 925545940 544665387 21065302 979884864 313866979 987247681 764724823 347117387 242015363 465484572 183084611 734337250 146141885 582999738 220203723 987220738 809453505 519081607 497728961 833415434 705815650 350853487 789706642 477562562 419637679 161615173 1131521 524485680 817393345 806670618 852684254 313441974 624862927 118104034 854386106 330792570 69088844 575829904 779662568 399328787 416850032 603411973 916992307 121872104 854248177 528335654 651756909 870544393 944180469 106251242 597141743 237132578 715777850 359043306 612949368 767923797 522963409 722478784 665159500 286389019 34433946 336399728 165829444 594115540 174074335 749358110 156508556 498175023 683007241 851268692 176676693 833571354 685130076 935663742 246221833 365088894 2563700 950347118 385177211 718049296 211340211 10224963 339545386 488011563 404943696 798420132 349772798 872093621 165611665 163177919 35547524 544263448 723649699 260219801 694680455 715092581 335377514 474192614 784151631 855413925 566510347 197330620 548653380 594147022 176072399 547410510 322872378 861093207 217947594 175586018 504569246 638605195 81288519 435077913 428055402 155796524 284328757 697367452 337067411 176165892 683693877 567331645 542580667 728734958 181061842 925564979 884048688 399815878 416053450 617031796 589752412 933475532 9175567 230641786 431491941 123740886 478750744 928344687 799643820 365353424 389573019 274899950 260077603 628706531 469339574 664588182 638087157 24445713 554496174 135451682 342471067 226361032 770774337 145944936 821678404 679235393 875074306 847483945 856390657 296951900 805264216 164372600 244040770 187626131 718164230 511781943 483971593 147560067 536825653 972537294 274718880 980096362 139625477 339469166 171515555 476789787 127490521 787024059 906800065 760382283 386683659 291877344 763622566 96199171 788939753 72570126 896601585 49349740 585755212 919776128 56209794 669232445 95130623 817726727 738338864 222465970 94719972 661422938 855032321 214986318 321916723 338389632 47136755 954856629 995979227 646257880 94486289 376742620 241851056 231219738 874237200 162801242 450015405 314583818 107000210 136222998 939612723 498407690 346463278 719542900 65760767 632470147 689125263 95704717 427669689 614581624 150551673 912599205 697298533 475797826 906107897 488469998 911582361 177378722 590137754 456350392 968115482 128905562 659609895 648934396 274773314 754386111 446167983 813625686 843939261 465425008 668042538 644401277 408715282 888702151 163336408 156685085 773340360 783443819 957915523 656554427 967969645 115917870 825209138 709932951 205769974 91327868 627987052 600358358 602802103 654521078 473233378 870862125 847976511 657539405 401393033 505513802 860936639 276272455 332692345 889934162 112674507 877063619 498202562 365131661 804687765 76048903 994139065 125307282 603808798 904737321 514396850 254875001 109795759 641483751 672827485 288356004 237315106 590992931 78094243 163542885 91203581 318726432 543737945 999045820 983829958 192824640 601656668 540833111 63935414 188253730 663151098 124790891 179036708 140559182 734624208 473928975 125694625 252201958 411240024 533635308 195693969 784716060 104838439 895174909 721920751 468626859 128132160 511932509 605001837 590797695 11135965 908745789 257781229 398291865 168810197 680533862 335014539 496182291 417930015 801573558 307287315 579384268 59791342 939049405 621680273 89560433 708433504 320846926 392090785 858905546 469241073 292162455 544672637 716720570 118546402 583624756 941857668 835567162 568269956 763111139 971073937 546682944 881973004 639568065 483849030 526447920 824077491 973854909 98008664 717331616 604177143 762880963 982992499 867430391 425191623 910085285 974038535 149106027 969395954 481274083 440988763 650871605 408466063 165864256 140547275 552113684 397894499 21334856 979512658 365810801 628600586 860382280 175155774 195850036 199809586 763015055 618803535 140562858 767375795 79282416 64953690 349767890 319771614 301854645 897092500 912534891 513732762 344251193 775025512 256468753 771238033 609387797 737451780 129317634 877261244 570011019 138964290 203635531 711638891 111414035 78456761 437381791 511118692 290788434 577321363 311395554 471340461 443424364 245274014 21815049 722349962 221094119 86471189 532786131 329291082 703648923 302138423 63103886 800882917 630553549 432669461 994419290 305691901 209210481 875525826 973342395 110952685 584241417 634530433 78872077 412647681 784923376 583921459 875628715 225084017 187488637 679309085 873777351 910608331 408730597 87073355 292195498 355298228 988676210 118675217 480327881 477603274 216805949 59437731 957137820 720186654 580015167 840977315 813869039 505698077 655609294 722201313 829214479 912668418 125707580 402591187 933004517 668779977 565061024 802007516 15535798 577569276 976920348 696710437 181614159 339847990 346324198 782864987 446745208 103347555 616441442 255268396 383471952 79278047 912351892 566478718 650757614 4555728 856654439 209065541 823654826 349692006 74814006 759195443 484978034 578115653 876139652 690826053 603750522 139830421 311811204 209854907 346889206 430341868 719599090 288051184 247343377 978551775 877174377 169889970 488954659 189427054 465563289 529509927 746734948 334385379 355895891 103648001 821137852 690750137 635786193 536157863 316084192 291273076 425529025 815280947 338058151 708336020 509155692 738609343 17173735 409084381 321770780 997239074 709603265 313523074 69643622 344665640 864388501 752452497 450590412 235398817 330379959 490881303 572545104 819772885 30684665 982142380 136429327 432251849 943518046 302270498 297239846 358942003 999191361 878376564 334100032 348644667 351320252 935642740 471004653 260723690 997254303 584423290 268234702 407063099 823608556 619323595 383091272 430533185 750264848 622339763 588237645 196218080 317833645 145794468 648487982 244190275 458371233 247252384 606004257 750645144 166542299 842809777 35769888 841789207 114678753 179993314 385052394 838249124 535947324 57885243 128144884 668957142 859598292 229567522 975178982 2037436 376989242 525260515 967124840 381374516 385153787 476411851 436457129 35068980 521875966 240530893 924797407 681805361 25916545 770062952 219631598 263294618 477882985 777780295 121254481 869433147 659324236 705422092 399733353 179344833 562589928 924708956 263262707 946272345 639656156 328241905 457808101 378173723 830418775 935248546 777214042 611132034 287379278 452746033 798923915 439251809 179766376 527616456 312622363 384795888 210381083 531634946 780736564 261034080 122494724 758845204 116628279 979748589 622892871 874625993 327333597 465422398 195743217 380015582 88509891 82798423 855648197 889327651 412882726 363589788 316359197 722111417 917020012 501869550 666383282 406186211 934999390 125666882 496140748 707266757 869310743 450514780 471107358 522366988 244138237 36914986 174932574 782113160 179695565 274232952 69267483 190565511 772680190 239754135 78243699 739814516 720949363 175762036 935887495 701318706 702193503 944050481 610328377 56195969 692653066 855495038 68881372 546399509 585582488 109380661 571921086 571752762 280129371 483411956 498242417 111510337 747845384 891469717 94585933 57320509 271227771 860208317 320452099 56263955 977839207 240052928 218274936 81652352 268549642 642519878 803314310 256016442 901921033 863161092 564130791 616819613 86131659 71213847 340359430 647669292 236587533 865642194 452586653 482411540 186432821 817593959 989590437 80062233 458693018 531193059 589153452 282587159 855989671 773865345 719082403 717689317 643703415 323535667 263988594 966563919 898840405 768120461 528322206 59723239 246247889 121637192 73468715 619822314 535307891 88278829 794915085 477947386 200375389 310520633 591981914 215422286 788681304 454676827 392067318 723946591 498749036 727830240 29693040 725916260 361901882 653908737 130576921 736942244 622342529 446700570 638310388 844653228 675345227 885101793 107231009 320493585 931405909 870317579 695544131 174514585 357280335 260995408 923238166 160664776 54541362 510805729 575074313 923790782 22334894 989426448 769309907 696621828 688649060 565083303 498310285 123529182 997888781 621724872 652231277 975012426 987888486 28044781 170949665 634153509 552727189 469605077 383264909 241464789 213400530 528316300 679591948 324730380 44085390 132176759 273267903 584663074 542185050 873555443 28933394 369462653 977552161 814220877 859437050 876800950 67142915 575999729 323472993 511587438 908403034 59851575 850846099 126143982 947552941 611599060 110300313 357991334 245918807 84634982 829193011 945641129 470575039 906776019 877606699 743070563 226596039 952227600 724949601 570517670 759690669 143185666 831593537 139908127 525698920 438660610 860244150 902279791 175036922 614763115 167558116 400000780 262530992 524101541 138299103 503463493 14720806 581169287 82726894 770267300 693895171 445676180 922658071 2443821 62427318 216696444 880980657 99286825 608935332 683986282 600532344 7246845 313557059 932216658 250281170 582458021 310048581 158442407 224061832 440557302 990215548 571851478 480133854 261691571 904907038 60351629 194779839 869039847 845036511 221002745 566143610 586222973 729973797 848219378 479154903 667677268 218182011 400644164 452978085 94698465 700545996 361342955 719196292 587559479 64163214 598407082 925212721 164263076 666924778 77389456 918008028 150443536 274153422 732383420 215655192 887629810 612918620 689180687 778299930 660924877 368837167 158324572 257430036 396372379 153557682 314472566 885787985 510146268 793193304 911470459 871335772 673750100 240534571 912385391 598074634 578434691 733989440 348243501 271997479 916387934 808093931 718073990 220363541 940019697 77175512 296594576 440092386 643135751 795707036 398848552 144068294 850206611 559536233 576802672 145513542 947088241 756742324 472928239 230824747 715538831 98632824 348553507 923555483 33624466 659098573 86665823 625770024 451569110 893843907 983259970 29964055 289237274 650691953 781775630 48600084 889652807 914554625 655106594 769514732 586182061 837497494 752576862 118581595 982406315 247646913 782324981 237753108 395971911 228666657 2109335 461632789 223140676 4407445 839527694 414105291 766516525 556852670 725213771 949853638 983573612 32594483 663105413 753319428 480395036 934351296 466677171 12169295 259602817 102423784 893721303 694801130 858575422 690109667 181185611 535635657 424023983 568256928 525940179 309659469 134324321 165700248 667486219 662658840 550721139 164062986 397891315 369322177 61763000 632432611 831703512 579957543 772865676 613726071 928401419 574634240 686661416 656895980 252692970 927857905 357987019 382332889 399034671 670904262 339423722 316217189 609193154 335953355 125292959 951952439 807301269 403048679 440121275 700486692 247953824 508731085 451475063 79280002 488342095 372149371 568639086 845910421 492278782 391724784 378138059 952508307 201251703 429453541 508946044 438108441 400296147 648117527 451286719 502790151 453164649 433823319 564058743 655427455 494816217 961873933 56394462 659694338 247595013 563229882 305873310 823415449 466568326 785027809 988975274 39863377 518282618 35695282 272993323 589896422 218431478 670559962 624878703 462102854 243308001 497239206 344167261 923628319 218565241 77740585 825544704 701915838 86505651 23388906 702189507 850551440 52572706 804307030 186932750 745100865 796182979 929475710 61407387 434185435 393725147 221088938 660547457 253510022 564365017 395105251 290557169 935374268 85234101 791242839 203483942 552667090 40071213 979336448 455272792 393236397 894254467 637034432 224387986 260591793 246062873 106854166 368828323 152288864 747997066 948993380 612828853 727520752 664293868 90592843 110640471 716726730 237435515 906853583 817102086 738484081 738414772 618802625 217363205 499095460 223787480 236679164 841187313 186983715 466919616 579826724 327425478 264894142 930235325 65666299 797013676 683811870 428693832 699403620 281272891 544624997 369610071 174676254 151309685 203715212 256654112 846069358 46790000 231666158 393479202 598675172 588894480 557412086 283688131 882413798 252406718 802874525 166144044 467533516 653376679 874641931 430310655 123022620 922697853 484645725 509641136 298829816 967487603 431338046 72753930 517272548 615390808 185326216 122018741 447820577 647157311 503607719 752039482 296948335 902179659 655380123 834602486 495900069 694213179 752928226 727695413 989147205 989212710 499328146 675880405 240029470 268956517 319259587 20490498 216965091 628515092 371542985 559031124 915987214 892101814 890093773 533209217 63322667 173494384 336486614 440533591 84854592 729419631 882513592 361670044 67925857 765075726 869175712 328470451 791153300 16703979 251152708 637259978 396277567 631564622 179670162 715258290 480383960 505547141 908980689 511440091 790436573 686014557 760517825 991987467 634251564 270663630 802416417 678579391 848469691 478921767 97039887 621739061 457414718 990003863 202217678 175346195 483392130 28542509 215999876 332768300 62936660 154738309 925801842 257266959 667691343 904538741 90258934 39683301 625113348 478113300 853246472 147760159 42285297 345858298 945486067 518836711 976252808 143995783 252310298 558590093 24150484 841825111 214854609 772086593 36938919 445607958 613266861 507688276 28493635 289972196 602408092 488355837 223906929 28581159 707300691 765574986 162573523 189374456 465199763 583330708 271761748 732510839 631885439 916873559 566435859 746556662 445386550 83502456 103129257 359794007 130128092 263347463 721944536 103507017 897006112 187345384 173144412 795274923 361947236 762807686 909879851 315442934 204847549 156814000 204712265 608634273 252772011 863928314 370447012 154259872 41210472 31636565 188255843 525622640 257643471 891807367 739803715 197492879 363916417 888556869 623789069 460097224 395058397 730456771 481131341 873913405 565494840 127793212 68543910 710177116 620897501 460727632 365322792 881669604 309894767 268788654 403410528 463415287 652834065 404292771 761618807 813102065 332423849 116982662 784572944 833140923 799786266 274246778 715719797 942015846 590284380 914166898 671850702 828334071 140182417 868951920 460144617 419484777 266723506 997225606 521691771 19279212 212358468 32377946 17415176 414017291 817494393 808352117 318316789 612315810 852210794 981338568 539165830 93613006 629723658 271359886 734741058 104039499 867905077 331500025 891304266 440068201 817424163 613471856 587214693 993354036 788897645 42757366 910106074 485015144 784755121 647669871 468913274 720231974 107296086 431625538 1014567 337530392 398385093 103198393 675996176 313477137 225866528 812431251 886291762 565252626 382840106 163791068 221308807 901220780 856945562 423137385 528185054 593366467 369529159 148491568 370395820 888802904 691718212 871998132 549293600 723129057 36832150 135883429 22055859 932431594 262359604 143472873 294854177 104709465 46042231 822264617 977357640 273220050 916999999 133469700 979442129 757044432 354939841 452397305 81144649 329264238 792695299 475221322 732166434 516146010 756953199 758341917 539677905 786191503 687385967 248575585 833610587 394709570 711964346 436596261 362876771 357424076 60226928 387338936 704805313 428131430 932619127 957806620 527814222 165219185 752663083 696267615 525814065 801347950 127159468 85802131 263464782 37611356 948496434 631529480 378408828 378051352 797397825 713822970 382212089 439980633 104301174 921400286 30474853 589363126 174625622 187460584 332858542 326687750 908361592 566785362 113546445 650458322 320936767 824656684 929521329 851233488 110309485 18568998 397480820 91789631 431435513 389299497 98711158 823032149 323879572 552617131 38937115 394078417 269863503 933514252 735465517 316595332 34000433 215477068 311817731 745017775 45036715 721213783 539936456 448401235 903960064 348131902 54127155 889551679 601545658 975942791 359435641 850939526 129600780 203020508 976565919 748915732 856834252 649657294 184929872 692758400 190258874 43857359 272713073 355245590 214394549 983876042 292785879 499005590 61107217 91891811 880646260 999923377 543095130 512764601 313021497 631775207 550216181 179131465 468092055 94624902 374536885 626020208 757065075 266353041 208604650 878601090 369498056 427450603 6811950 407608787 657211448 60689690 509714045 366193082 924619426 580773504 557839883 976422898 674968863 402274014 567929934 16287605 669834797 53822137 757297519 632284468 514997358 711456293 668433300 33221946 404652331 920678568 134892351 895232814 105200023 531404816 50805926 965278662 664845960 550210600 942315242 537062703 458965072 758275162 647031365 83186218 178141427 733263459 847409622 611118152 524827895 886373149 299469754 617029994 249242668 19824087 407747486 115839759 110830132 519494653 166746371 487410877 171047322 401680 95684846 90332183 544230038 383113307 92276662 465409127 964089543 125454602 790565580 265575329 929513315 226153549 45146752 91162731 207638202 321627921 593321272 876205116 172686594 356830817 511166519 225429083 339101803 473394069 592414892 220726000 959270047 825830996 763847890 130114434 408611614 388671587 389921529 855977678 276617188 605282435 822306156 152739726 223953076 258591050 474370452 918440699 271616264 557150385 958815924 619951168 328446096 817863357 205275762 153892235 768786352 267578599 473904548 696661739 233329162 552797154 174046965 702997566 723000266 392026045 246167829 50315112 292104344 189257755 943306516 860924675 903088356 575169373 363106376 151520795 707897313 816442609 548088710 788269151 861933193 445556226 493764560 127752554 21471690 706289593 524391318 553862495 861736493 612115720 286825849 187149682 587155949 736102722 600002367 232705034 84977616 846331247 206037742 506283509 686716979 251458459 132400319 662074477 79159907 570414091 427169916 490906880 506777918 467843079 178504588 517884161 596080184 616302286 857070180 163612749 648313976 876360559 432339627 277368155 479849804 741008080 241698340 890949308 583628702 390258321 25285245 449758896 249576491 120555797 806781821 373257687 649822900 392615564 213822400 443366469 704769526 248259177 939528941 926190235 994953826 235679517 255367849 630168887 681179047 928395485 264612140 610387482 87643889 343355515 308344966 344960456 37738713 220727050 112218204 295534651 437190850 213455413 141557002 907769807 223682445 771481450 28418583 656577620 181992166 973731072 257320981 344896400 740727431 516889068 146284992 928712753 990919275 209124055 393648971 155584190 528118834 805550851 105116131 693042704 841715547 176876582 52020628 658915605 340406641 772843297 846268801 248457801 268618889 69931620 204736498 299863530 513719760 995636629 894975956 804821889 345925177 724047456 331873915 672154768 927959695 291681451 9646849 598818900 978492225 791523399 290909737 204758263 767565752 369542768 943558428 321648413 845241559 935226886 346886194 851816649 654072425 330534850 139317362 245892429 871732431 823780861 318887592 915672013 266282564 357378031 548171504 452238351 954042721 819243930 625805951 216861419 41854988 215858397 427693698 999960446 108098539 790717333 246199671 52816367 16249646 598494624 681433100 67210606 470526247 153049191 263988726 660314342 317777575 899281302 978635633 268256756 145066626 373173056 707511791 956078001 108057927 281308865 358602511 728247262 396937419 537088468 914728565 720240924 564338445 279346678 943679784 577748737 429786880 451611389 459912395 797987898 13701796 13187317 288071511 697946278 839904384 540995508 625455181 144978565 503396114 472021149 456152027 459873816 849454710 753762616 606707893 780866145 70679341 684190787 247623002 667728285 151572662 100052850 759978255 204344075 838529806 766948670 366353531 626713048 217206797 170595468 152463556 262313415 904022885 713744425 57818286 960623258 124323608 256970180 547533818 293089013 841760984 280535463 745867153 791993061 969380122 654488144 383326668 520826181 690987270 341645481 404475664 897612699 438012463 850274934 822162551 994965940 691850721 257790850 104756736 404790645 307795075 777990267 437084223 47295278 582950302 657822971 848651459 243251333 758763738 33549051 643712920 778245243 971139033 309514624 808545795 206557621 690336409 213764702 439201979 863366690 636463251 172764006 580327097 715011989 589935013 756387541 160380547 317139195 335530709 130572285 668768297 11897359 749338185 355994243 247872789 739746475 82121231 657312364 667488713 357718221 819177120 41260456 716034179 928034749 152118256 375088496 613257993 659722265 923216744 617622797 70331991 246009394 206738034 409551656 795531440 436285959 810906681 505046153 927514616 693894261 218478772 219845554 292418882 691223855 920221179 650176107 740781134 564221900 37683551 732452953 674123039 261028366 77571746 943796993 258645781 571117225 811783995 543276525 471598939 356444794 417984684 567449006 366248912 373943964 87572875 458954359 559661523 184137991 643693257 528143043 577696102 486529830 212757404 709602396 104676111 993905680 449692632 145316599 858306420 623975662 513144191 118973705 603932883 664725013 568332187 614739766 135782727 225433216 532267045 733008346 654596560 788254562 920265675 226261771 840759210 337448443 544560969 94089136 95538514 442841673 724056931 337638429 567663250 731115243 184441430 700889897 381748443 949194220 351920944 578894302 405258803 870585950 999282362 651496218 513750997 713826259 44052662 615684106 673122263 987603155 263488048 790939932 32074931 611212223 26717492 34871518 466587859 568034083 154884197 862484042 201378576 427736639 285840532 129217602 179596611 272154430 97297517 89559895 614640467 67316817 690264930 814970252 215119819 227633781 858129299 978342822 308820658 483136581 563852350 560660562 402720961 899582087 49348822 326755246 321558081 581967794 920019384 55316096 914795615 460781650 579169100 19843087 794888296 596446652 317789733 926244003 874787602 556645006 512649782 805385978 559232560 256468396 672231662 202508328 458929165 689770439 851016580 65057375 56102594 329577349 166822369 772877115 666605743 419014160 946391191 469075335 833084697 887642473 609843928 598538676 573347286 761097624 841567386 116728082 924684674 317774250 559402863 914115138 848197240 430264013 283764369 910604019 409119606 684454503 403906682 464982943 963944754 541072486 326542211 937024785 421287053 7669035 248698913 354086206 665373189 286127733 206949060 370761660 33334314 818840042 798122569 375458598 951756954 554686994 8308293 712937909 487948557 970220193 755186957 101224405 516573321 111381868 280321644 123697520 941749045 389796137 185747668 826849938 618371878 26309287 924090381 345137787 866812244 328478828 731874542 378684593 175927432 942915362 174424086 830018556 471748181 251478389 236441566 427792111 388313397 241941221 417502947 745049148 162155684 549982476 511827064 176547439 176472637 73367642 377823277 130277732 760937731 429339436 349515612 999856125 303745611 263598438 724588853 558128488 837634679 102453055 628495685 758766044 359728026 809305222 545172140 859942636 140319376 848878225 978424527 729223706 23077307 978716060 197918220 127231387 667575082 125503870 423993893 323313733 924625781 411259176 331668119 590452435 356863909 189214210 704898650 157246462 570724877 984124015 928239778 446116349 395101536 684229912 806084609 616538821 550739394 779127355 806411368 900686486 896614996 607737820 433613969 313013286 9003316 141144325 420850129 920304682 13303578 959386343 619249889 384106600 462824925 718493339 357187587 623256207 145241887 259381860 683451008 25504051 104781902 108791175 423027454 682486802 385758242 57601618 483424658 18175142 723758005 195698955 473810968 806536276 438196874 182859509 594191107 428796929 81541074 294612737 31518469 624375926 691809570 621812937 669156245 699040349 429616138 821467873 867891241 13102815 49010941 95942247 780125689 626569431 988709977 633109772 454621534 762163056 625070639 83746459 977076763 588407652 245802478 357745896 594526633 831454622 157604497 332193511 964420790 816586197 134241388 381696635 288768316 946091822 522506666 782930662 538110449 769310661 70089786 445902421 394948841 90335819 555955567 605378671 879188916 989223576 15959014 47924894 94709214 356963721 554488715 539932687 767085372 498198403 417343743 433158229 714131687 706455151 621245531 453940196 915627711 255735987 575331210 622987216 991562708 540958249 482226146 44887351 91610114 324027157 684448700 438106989 428107309 529262312 501865500 376759682 982543771 203308978 216803481 884865045 533458641 402390350 421855943 392950688 850401532 792915333 489102268 9720601 238101038 76713694 834885484 37093059 196033302 642446395 306457237 184263181 690520740 1797517 319809530 621636302 788131403 441886099 233428927 467932967 555106087 716402884 598860102 341258452 47964625 861956564 133708465 954494459 350296544 999552080 983070202 154093256 537228581 167632612 309857962 419295777 221544966 536716410 642094948 3124325 321788471 360447921 440431876 241865245 968399779 262398765 224201002 488247810 726633584 910568167 386536776 933622097 37249159 821583116 236456577 119767086 447915134 805020430 290285297 784036948 711274640 870734636 8931204 648854950 932379192 287838630 819584523 348979157 585241252 45630366 76629864 101185384 873747695 412556791 827307332 272902695 315258723 34344389 393552473 241200458 452922729 256757553 795835008 814913918 902514960 925615277 171495590 740591126 854166654 283260764 224432761 126239904 352055728 723545784 298099287 419336674 641441638 711900408 355533070 945595421 701238495 214822522 10475730 87667678 983292241 958726923 911280660 203833133 852417143 758860047 765344017 364130950 510102359 851860271 485053327 214750610 461369641 571923106 339687855 906892016 275308059 499656849 657441359 876322416 188326965 442322907 494348670 587811745 619829629 300621719 657554981 581247588 749073040 595597665 879854861 379613605 787322893 363015306 291428285 383534892 104433238 806499855 978401405 99369886 393814185 914383718 225829837 389980059 102522246 722740098 355463460 478517042 556848651 223220155 101645351 389775282 920868131 976867831 51606798 719650621 488093123 367501640 549409806 634602567 832344127 172240583 762303138 965792889 615455216 459467147 244449723 422233360 77610091 570464950 559491956 514510133 180123045 851447501 24707239 729239821 867918057 836822176 746893866 889240667 331758597 858214102 146860266 762107500 272069749 230664459 843776942 263795030 562219446 63955060 600596384 68683357 700830954 514888793 142780841 1914575 298543078 273080273 520403551 280976012 348358080 158577542 132300743 485882731 18327866 399339737 110261912 626024275 356897503 536885699 845795859 678349570 628470108 825239684 278609220 842616920 796435143 369527939 28008091 743911798 256947031 227848148 613427920 343816693 878859832 10367107 722919030 913196772 374328542 453300085 245860077 14685910 422451337 581138786 475983689 884035252 423227334 856121174 102758156 491190265 480171497 200411011 345440566 320018198 668670467 826059886 909064665 531821908 776157180 834326649 926387218 776974812 852158471 825753934 97663999 114123721 282463867 380941106 136779582 831693853 936639496 382583936 753936476 275946596 831614192 428832647 407493744 875470009 53035775 663746345 138531615 336452343 482535095 211678398 479966674 675434822 573489898 644339716 570252161 198258886 575081640 833962572 177415440 837727321 916339242 199987588 372552354 662251589 191127852 393573876 514953667 957877437 815721457 107559425 487041532 251105280 801187166 301533290 542133452 453693906 518308407 750756647 34271850 257708059 86210734 449021453 196595806 589352243 929923521 966671106 33439445 636952653 337545379 325758269 919489406 252720341 400737457 248287362 970773446 696772456 254675213 497385393 806770920 915123703 709626341 932299193 206710827 955829543 737292075 923301871 620389392 584857622 606906403 631522997 179912158 817694020 773416910 589856677 756788746 598246422 42109010 570653113 541470931 841247376 938863532 58662651 420347712 385482857 256026928 95552920 382196906 91696223 880784758 575210477 61442631 337703169 46545893 481652157 970427260 768832325 143655390 209494841 359942420 212619364 26738984 253446817 674834781 108464688 147544310 498175710 592954254 344757780 722026767 46139680 304181835 136506808 191134754 501644414 955435873 886664497 253464893 842523296 277113795 405770456 184662288 177608099 935503907 493743068 423474570 348180013 410363141 414710778 265576071 541657823 892568742 837373412 265796751 680322760 640980792 996845280 263507098 229264460 479985868 889383715 600909439 175688309 674141769 818078659 443042340 511306336 944987149 305586115 990013091 63985079 787056095 669815825 586365058 843638440 661197736 643038715 457197424 572132156 834548671 588844870 704816886 652987803 665053494 207144342 803442424 129615508 309594394 993928242 930914389 813931281 215329757 645990304 714205066 372913218 813508352 593698303 667074630 648225417 510034254 683795440 140227372 722805285 399541390 111179384 785739390 82297577 654283678 173037423 464190236 693480885 537608060 499620634 901944914 616936587 54018908 330574376 245096690 92984908 661845117 197660124 32269028 893326068 646869692 28912201 524575703 434886839 300882406 138445468 932726709 370293136 536319211 340342025 739099536 226058956 733074257 54376913 643692086 828744490 348230271 397994423 881390177 656001339 495660546 882911948 681142128 241673039 109343967 373960503 384856041 42348694 806774943 926209378 546015975 677071313 840583944 513692154 191636917 871962798 899403761 901438441 655856861 423552227 400278195 17667664 90034995 917419497 795160275 25945136 501297793 420724627 198607186 161267956 683620276 915426334 903783082 461576702 336768339 615331746 258617611 484096236 947030140 187407318 674016356 316706519 564272984 822390253 561501480 556081505 809357893 579407304 722115726 342687102 469738914 772222631 216738109 408079877 378586947 344463036 24752630 959690670 170783024 759637763 519419076 831660039 235457688 722028698 574345929 445281290 233172174 972204969 100849105 893863358 749198279 781737425 654748219 319565021 482714357 123596633 321366526 143948868 963670862 473325038 324071729 772343160 351433571 314718664 40885449 599376069 472753253 892909500 852126210 466109237 321459931 77140444 766968168 602924334 272250837 120224128 395739184 455871052 418834589 653170831 983293119 620620374 192782856 888041659 298429762 534419564 963680962 240745256 649300677 377680331 371895493 221596326 487523004 584404671 263631728 10891605 604512528 924048363 447439372 92442784 698138623 746545892 154985025 197677996 480077085 36676929 434920709 100258017 10283678 424360496 674004541 959932758 76993756 965100283 616185131 474765869 252111387 103206070 771611643 360373901 162064900 585055435 401718230 517783302 30289694 366680091 632283787 394068500 416512883 697980252 840930245 697697618 509537073 899839626 447706000 161268071 431910751 122457474 566814082 316083831 584614784 910445705 823331550 857065029 513739291 368087727 792625743 53544758 976099757 81326921 92157887 687663075 558749244 728619361 31507570 834878418 633484620 929287510 340312979 888196336 999517098 291968733 860984607 840396167 615176825 106040057 680588081 472762448 35821152 478126706 100491301 199829444 837421754 224091028 274494551 14143327 940885091 773560225 494086513 656262839 6345210 661019333 423340077 139764272 523882640 12675702 839966498 284654643 614134559 5388155 56489313 778110724 314120050 945638285 138741475 594331577 794788126 781108901 949621893 929663447 793870030 954470078 288406675 844262089 252271721 320282581 911249207 539945394 370987361 203827872 898329265 153177562 665294427 101897362 568322716 712750091 922959055 68395898 11396340 697704229 835772660 591873331 599589040 79991974 407053461 995146995 747059142 119917975 498505015 317025598 761605219 868040713 610452525 934848123 250499691 507329357 151636468 78779377 571072014 716102360 172449405 84732734 734159722 601544249 603914962 516006907 305757915 21409882 120400299 254062672 686878745 442518081 675421175 419176268 132740426 796048150 938895559 827297002 294610229 942631719 387847234 400387668 600894917 653318102 207643337 999880997 627454592 179382490 965458245 703872619 623990739 213214051 690394794 683438255 306728722 970736707 634134121 584398581 969773620 960480995 706673028 3406550 598732090 844569396 818944383 143365712 371523356 653713680 537525049 860177676 451182539 943988899 595641629 361801772 725187845 984427608 781559738 749999731 777710068 996768049 190064774 278492831 703372843 441038532 975019953 492367372 857915893 700747126 186229227 998021050 77136022 395060539 765672910 611566778 576392011 842826470 652469547 392952285 683065627 806678046 228064281 705333411 227987859 248549720 220682030 419456320 496461142 775888369 512469444 751296272 172751092 521557835 35703116 146525619 173394867 468133759 765861046 914233185 262507795 792331405 6263366 765236931 244384056 497278556 406662715 816242161 668697797 675137668 694255630 1438841 841685385 272024555 10764228 690960707 131497296 32474187 178586317 425091343 167464349 693112721 126690528 446572314 4268530 430028299 459041185 669348501 447633262 486904416 908099522 435174745 724958800 558857556 558682205 62809648 836283524 720323605 387320367 874156681 265923179 624719201 100386063 965974209 724606125 20988896 386662529 62354863 553980457 265957570 456273742 201906188 896474460 442361433 727603360 45672923 912914051 566201985 222821196 565253013 176300089 6609018 445582528 787656490 450003239 812535688 738626248 730107279 249861161 7075301 92764545 639820665 553337927 16218356 244466647 433830695 435673280 369869837 258204581 935943890 422018584 8190427 11780107 811533384 361491707 625087458 498590253 704725286 453815339 158637010 37695519 588563627 358376957 558086061 671994165 579094545 206129296 6791365 155511798 801398895 823376266 790606696 38087532 983599888 543439514 837174712 757865096 197026960 129819973 70258699 383998050 608674277 914373351 598967509 274224481 598020644 217999670 219423164 217204944 396622610 999972860 899738252 122340156 317005797 261921813 896749636 767936227 895611504 85253369 560121690 753598974 636724196 49386800 509078294 405701732 34335148 957076547 502496342 658398108 482705670 689288353 107435453 612546503 52205134 97215433 181755259 55013332 787872974 492425981 763272822 898240954 912456938 608635322 412980576 917131539 817472271 790395353 200309744 276045501 786195689 178243358 814895444 151406761 13300800 205738257 49489967 897249474 722711076 688168942 761265062 273598820 728492469 721979872 535234807 263360529 238691743 576675932 458294366 187013421 411978603 225616576 497683146 710374209 306056000 525438908 953544600 926373656 4729322 982052694 787106814 297718170 150101508 662775563 509365565 195875735 988777018 534843869 978156773 869760491 173335679 769238463 189975225 835914341 535803821 89580836 435650687 270139971 461083149 352081146 63935729 713951528 140596384 875922290 306799793 434211015 661697852 221223483 470692225 712650503 798274119 730768687 968847555 188954958 930487646 854388998 780967072 256887885 899659709 318183682 715609264 302752459 669010912 941724808 977715604 966158281 154421441 736810800 97602410 788418855 292372923 669073147 474124413 916340723 756158784 91073670 163423736 969983839 334623360 50657689 953355531 116745236 519451481 374145425 31792356 739704785 266679395 217332967 69308613 672297281 561660500 278376219 35430034 989751344 688821606 527644665 907540597 427266577 812599086 899389313 450966638 788356838 559388459 41388637 167639398 625570150 345927282 318687242 921681487 134304074 603919513 832622175 612202807 450314513 273480717 438589537 688943996 167757624 770097259 894643876 382904426 316160021 784099625 308662662 481738545 717301527 573741849 257693569 594563252 483496640 288096983 456611860 714887230 853484555 988189254 920160172 533268531 849967666 164317899 578653553 447423122 855760209 21536583 177475521 852016770 172604605 710716777 912486340 626672916 494217038 663459853 136038995 318559072 315254332 548421445 651541499 483015071 921527899 239455851 575228603 978741317 289465632 388487900 880621594 405392126 90993866 111261267 456325285 56250024 700564590 655620726 641949501 893298946 645657803 589140453 342681572 18713047 129210142 907536225 956932889 353138474 953492601 807809604 955585944 914564494 842039047 165403786 675037237 93377001 192584578 169512610 291311319 25952305 940511266 505951781 309360925 498000016 803348831 325676315 110628487 138487261 921176415 630806470 846050237 204405702 562521093 747561093 275606030 711675607 299882966 150250064 875070534 555615161 491578843 490701412 423400978 908316959 192620230 619861542 312032586 612276052 206388338 90968855 360458086 179809033 759751757 634769159 118673676 32155499 556369964 9921015 590136670 974431177 652078492 895031469 761642177 377498753 200475780 130815269 145157366 494650811 827529949 108572778 576702405 643373692 329812253 322842922 672871688 845547736 317847387 211141234 801128694 39884979 814869564 374131316 547755748 325092802 894662507 70974875 591088237 994760242 287493035 999160193 647777625 286839481 539332823 519474289 127377953 904758909 237467358 166653999 172308931 642789845 657458511 710360813 926008310 414771291 507607591 429654008 916569669 145728924 847469923 805373915 650546695 307029947 102990623 132996621 407089598 371444977 975418101 520450668 314039369 636604365 424400536 143371904 445692319 646727866 84754619 360321582 904877864 564592492 235373716 318199173 440748889 742891493 870913543 277665549 637483444 634090367 711424594 934079175 369736092 800173903 120571939 64901330 359493393 24490145 464921833 466868965 501853752 957787054 572204296 937401186 462424363 802099994 380627517 814428571 100808272 375355666 535745885 374780884 379501592 61990576 187678453 492632009 750455275 350424391 456340373 785776760 214502149 760264450 717736402 530066764 115604609 640814055 502815907 666688301 88786258 110799851 456921109 369645072 685395484 288830542 554540059 240676140 531330582 809792867 172288561 306473462 128675092 929854825 805547926 400025558 440082836 275512325 927820351 252116884 118301150 544231711 649803990 698586497 771862513 198306184 475710420 865138786 730632980 146736632 22879925 373003557 515956749 315325583 823995879 626275559 251536 24027221 680664140 226905730 285576270 106134877 444452345 612377650 364579771 377437077 681458883 167145988 420558014 697874151 393776755 751229191 535872722 751565685 63474840 622764843 361486716 325047291 207793417 678832931 854850112 825967974 19888906 271838788 953936298 68520522 991464386 718858988 971800394 931060883 438811272 510680218 931344874 515804443 591024201 735115867 937847297 442694107 364754472 316007387 799976903 603035453 940584082 921116966 405547573 264094616 533377437 834337004 781230343 720976496 738088209 997289617 283584854 942462878 245944760 807576245 219646073 284047636 535166039 815413706 297790326 614911330 126749246 160787461 929100659 479782528 501420752 285338991 475825765 522505330 115256322 525012008 524131451 960009880 63560821 529875807 209517292 306501353 587044472 116587629 487864240 303594098 82250772 486362692 984070975 22694834 926141679 690332457 500474472 681447622 479483595 465530135 599540848 281426942 28968478 3766874 194462688 285304544 733278683 692980492 318026953 539891785 477988844 448063509 255921929 389858309 560066738 308346000 236600574 464862400 794455279 199382821 207662183 463399790 587773080 541488234 467026295 39915399 530235433 656236926 490133904 426364153 320753276 377993467 419535493 591622725 415489736 983404102 949008694 830042883 231392130 158399712 244142911 330796691 69028749 629612227 583970255 766071911 998424126 335565033 601424184 197257882 39874099 87809424 716459084 994964648 723485627 963597759 31610073 551361091 143019476 192491448 790345565 919132566 968661418 564488768 499200746 995330654 87902568 883012502 118902969 764716769 937863752 607219932 939703178 423648975 977860134 269894902 216564121 2804781 99201018 734668813 112352147 937874878 438071106 656784845 332287435 176079355 614678011 338060171 342844887 551631240 283253701 511670332 391892309 90621915 944217796 154107280 480111456 595686225 375765609 450707982 727747376 830948287 45624773 758298673 708929476 231241447 936943291 107742675 831124386 354977211 328887872 294356632 135176627 189439196 768466807 105550312 378463500 274459849 456798036 888324406 328462233 612114089 658401517 989613546 535812174 12174262 687520121 508844783 578337039 774331781 950430504 327635137 557863242 561642725 511768581 34162882 361296881 419588772 672874809 66401185 334583996 362866671 787522874 281862455 407982373 259841770 41784333 436092754 414184041 867421976 302764371 971368453 635738633 538644855 567732328 777227370 699022261 266238013 227636639 830266179 678814754 595672493 220591931 999482394 381009020 263188856 114528539 358493031 911026730 214705340 292243685 82370315 877172067 692175376 600434212 844543559 913243584 670940267 719003919 580634485 661815726 406712025 35730763 9789726 793163127 714228467 264513892 264890741 860074799 796315616 630616365 753461021 99098615 1194610 427234828 707886574 814557467 189983080 229262090 658040649 226284141 703662564 73802754 467941628 384786008 3501799 561054363 341687196 474972819 34489609 212625651 78165497 854775627 75565899 60245879 238353274 823202493 662615276 457052966 161208020 341778621 491178016 929547876 903810428 602039369 945227600 524848992 60582872 210407928 508318850 391063868 405902454 191875380 970354743 450839650 809462851 406282280 740647358 75216473 509348007 250807201 568753165 493470753 747973564 863016391 734739605 551721189 61430309 906661519 37768413 88173664 402221339 710228902 392179818 130677977 490774205 11935090 799802757 943329363 134322981 683097814 579211676 28317160 619357037 921689704 284048965 331234638 4626787 65629298 195270680 798749695 318134353 152958666 694284634 522671094 539078259 557013143 211550541 923698504 806178302 539624746 991872569 262326392 10363204 614558967 978389499 104207236 770843482 927557517 809947542 91665762 607404684 840969118 788094112 814062042 610680265 336294745 491308566 9180525 931217736 634287396 315495888 338623059 863880008 59074398 561710225 388020852 711311078 969219836 687735360 458655882 415043269 472784438 664794874 177293281 227100323 203270177 994769044 209345769 220113230 596389717 195586267 795721064 984844974 446009652 131920262 625928236 411354010 833365620 200347153 329188450 435782327 455791948 801753479 974159162 881447103 566950683 657476108 936984654 910537685 37448772 883243627 216849336 969249320 989581138 104568034 463779494 54534154 276372979 502962801 967973971 299071018 982431196 484926549 479890982 433257679 545387046 880089804 211833194 666476167 300685273 61631355 226222540 706037454 622165446 561702623 789065785 581466488 995250889 517009827 815108939 763606686 810100621 945128502 413773879 828802548 543991741 841485357 820796491 156363813 210492381 121917750 540335671 894075411 415377493 765813438 795421364 518523298 794147615 692869736 364847943 795961724 669419432 216866483 816609830 833487964 948444343 290689338 987331359 801007308 695307595 655484745 550718094 341773398 273293950 646409098 6521544 328178025 567008461 162438399 14945642 658154757 284677868 907460600 276973010 328291646 884356225 825580293 260132519 417442398 344911838 772466118 403626503 126970748 125524320 612102989 172245937 306392453 493799369 965541438 811882070 633925394 132688172 320033474 672198939 143552864 534941072 114175557 209456823 846109789 556874177 478425384 227097839 432358810 864074200 868330483 162266135 396217930 439608591 794325871 407775874 858872203 488501171 522328292 968656578 351817609 668014029 634544744 816021937 919930263 774502081 710917302 696950364 981263677 429704056 710647364 817223489 194789806 923267719 630430901 235682169 25272847 624142247 984378400 207355552 337422095 516622032 20735692 85667147 305106809 73628802 889462997 50354786 726831756 175327732 402405188 489207088 441644036 169344936 976894059 787007799 44366856 138984824 354328412 467541725 942714382 134884870 485003489 627708489 39356184 174300781 11240357 950210688 478093093 885065475 746506295 137184445 847116685 666375197 923672163 903637093 653987728 527919481 895464716 879440891 355241454 255936785 316391765 433859072 98772448 454857008 47942641 189297843 844073538 577909983 717752607 61317361 736603586 906128556 593278386 679147445 801354135 90412463 78289811 892889688 181126563 403539580 38753909 427675669 725648241 721102221 155297303 85541094 184937351 16744956 491894573 808437002 897012447 207749839 318909995 131047120 55252181 434547532 304581616 426844758 63417732 22370480 348080511 475520586 754107068 52425297 41962621 846219792 928825030 285773830 283910835 254221278 952724725 586504611 273089713 216989848 908631776 611024116 209996305 290594269 221428746 408922284 1086923 442658986 718481036 752820676 846980873 518435696 564183432 426923554 256997498 921623177 761321038 21700435 561411837 516438383 770476469 529849025 784603779 496332703 250298606 310510101 397007250 575649444 794308101 252572401 655081399 890662515 296215593 991036039 513199361 616616656 327580405 42613977 513096299 867993631 593323624 228236857 259694231 689984055 679607730 422914313 575958591 290291496 368341001 489237096 597262144 699903897 358696243 107164677 885396912 692388995 888794214 385314169 374789011 16890804 105541815 985768764 682527057 400878177 975071911 690493077 952346633 707956327 911762613 30578843 184307014 636991631 369261564 23370598 770028741 739295243 517751227 80698078 935334475 663070108 731579676 506171136 8963520 413323745 251172375 716681168 359281769 91728821 483172609 323915805 375724619 264114874 338932910 818170722 320068447 672041049 655851700 639175265 96260098 914668150 205035380 980835699 168610938 842801093 990871375 346004238 933409305 825682030 859601797 352105026 73949179 854121795 889053060 802725854 350001978 674574085 62934879 549607121 9090612 574955483 234507120 645511193 790045280 258043591 929714881 506546007 161822228 90421873 119867577 770195383 976542499 536305069 870975738 853262970 329450689 289619222 274408408 171055484 130309137 264124667 398277010 797136928 514648510 721965644 102126312 315321192 753037641 862717459 629961850 432879877 155241587 365352214 128563261 582649440 365455311 347816454 293726686 671348802 884407341 198270303 878292845 403289553 452907990 530876239 355365815 996165492 287011812 530387047 423381514 81982888 847293428 21104354 44418381 664526410 276982626 514566477 43811089 627158301 674193548 423971004 96594034 896237911 203948335 506956314 973043984 450646273 352644747 159621281 403719154 932587055 188241407 672784232 366776542 984914669 174051492 778621579 571575078 121866504 690574924 495301560 59500116 787346748 908303700 616698942 133649895 139174682 265707366 252612737 157285048 359811952 943363827 332223031 502993063 118682424 946025207 69167900 768574393 302170703 317128981 65391426 493796510 41323028 541026999 591270010 494599132 745047359 992092480 486179228 564631283 468844636 960280224 413807108 876120112 688127480 148799909 939049275 948969852 135770581 462115980 832960638 423365072 770423341 809911859 176251916 69074230 553606189 196189697 292012782 258808249 964493794 692578683 776901253 967039372 194539057 525998365 418119717 790217582 284821593 757898305 210949373 879938262 840292891 729095637 974213532 657433357 306840829 44918307 606536176 76743488 596621578 54456949 304404442 287123572 427922536 170655671 273080619 136304984 691773301 689068419 177892454 751411814 373384472 731246697 454613654 21359128 972398120 503990070 908256557 813229959 798939125 990684523 931702415 146626425 432538273 662664412 69119017 433983304 212237996 210531164 590926582 963721969 908362507 214974651 581304816 441201582 489360821 19805363 385287801 300760460 276532292 497998360 559946195 355526197 374159292 814309234 454429135 874656628 700742666 146858737 287714742 49133981 385990781 944605793 142702583 961917402 923655481 514884611 308003881 791468198 532603768 148252665 824857082 438524289 318945548 798773174 361380491 763551226 568226054 333525532 193532208 466214889 671970971 111314919 696066585 684165812 333964163 238653197 951131985 931475054 559714942 216594185 193248135 230873085 286090928 695447219 596227356 233641911 495915774 53664931 285743720 537646889 899984226 616312980 488293405 955588188 167744774 832036183 541743976 217542116 584819611 609083390 326722719 663874531 79076558 922444157 313129629 500028666 315645490 741894909 851828671 804760217 178286678 352868245 996549195 106430193 845756629 753148782 107133620 829684916 870710084 655046983 870025620 534802216 426474526 45518633 108749357 678872987 8450862 4150532 735999753 383088993 96786170 266386554 373985776 102421999 666488475 169984142 723526963 944807249 716718145 62064534 666929142 714208691 487784594 574557185 26550567 817226194 119479436 297583713 549394292 974606908 942150864 482292674 518981063 291216573 701727038 984707586 256032267 601452905 485169677 937128779 817858204 933650490 168743924 388408989 148999551 49204043 484838548 662513711 607524043 245072111 43575758 640957415 212834066 421949970 834827485 591748731 852345344 860151397 887660039 963398381 899073346 980870188 686886683 766279527 550104776 127531518 79266281 395876944 781835465 675339441 424099105 375173609 283781195 269414327 345274138 542331458 211834404 971609334 622875575 183682071 361494755 298969383 718263369 809074297 696316374 604948128 857246781 820538705 427689486 254125230 660578132 137033111 677113382 583645202 201130199 275723949 100972745 693134791 374204093 718409931 360500064 44852976 659322171 887294258 581053059 646748747 986969658 123990050 97405234 748808218 273036880 89290281 465351316 890553569 248515606 707610655 475459194 698977529 736429219 476738464 367447344 380271056 124642151 289800703 486518430 960613929 380994162 846269066 488912968 367567371 239443482 45598114 112109743 987938908 320317764 79656811 69177916 562001563 135381587 801843791 926510414 509724013 704789474 195928264 273782202 805671119 796608275 910612468 916453005 821628029 438879652 251784020 211735527 520369477 146506377 115470468 408528294 500228048 689038984 907116655 970557655 373020000 968140106 38487187 978066629 675123818 811082188 6848549 766450743 924751611 785176919 144730537 859095797 788485469 724821897 78858284 391827084 15510351 877998042 264429112 595484406 186166416 425789466 649968669 749923234 191515313 752031665 353501742 75492278 980885468 541213490 572511668 700712468 483528351 229655653 380329224 223285564 661618549 924228296 885864470 551353811 666103926 244803075 835225842 615017245 917490477 445735779 620918633 725317316 423372348 99436755 567885641 401905764 897884144 101375427 668875850 369926109 72515832 679990987 921599214 434314806 259379778 371364457 329535507 433964986 760923807 19460086 618085589 313186876 860924039 740337653 493389964 512100160 466361914 429482035 116035324 486975068 872039086 435965173 840296243 29889220 553163429 553719259 18831900 633921453 153457605 70112039 383375978 252868506 110377838 883557388 79235947 423748964 592622144 75312860 911914700 390549603 92826579 414773564 703270447 952181476 950917500 71060626 722990283 55998435 713991401 674930564 624814688 374152647 252401018 254554262 539472382 419993909 705032723 550497567 456437260 458234431 31979172 409971143 57871826 609333271 627263168 828680455 547193494 940203827 450638222 131559356 516247553 638326986 95856226 142233442 712285296 618567166 159775990 506520861 520715571 708417803 437720620 48473028 124995366 328230436 154954376 748787262 402541766 974917011 226655261 94669483 604924795 164466581 630222013 732438336 64862799 353957958 994972813 246784316 389299430 589451170 3267544 511687565 355132470 649932029 341713349 380911723 892388617 925003838 603304963 143131849 461719047 456206224 140036647 815501755 464169060 47195951 27989208 672591852 823233497 451480157 838866757 607098650 524913950 733918052 770391809 563525592 624555892 151008085 386461099 202727859 157057831 285947237 315006962 367189577 144434011 858720094 509765169 883699856 347885205 461325387 946018283 547895364 320579106 364953081 522811416 537326054 640435564 887214397 311262342 447701067 384641176 112533107 435966408 236382472 106766319 712350300 100369495 644648289 840028199 498473328 360878405 891885193 770640635 170161955 568090558 640990002 380011803 609736113 418772473 565271020 635153009 998473732 788197321 299449581 139891798 52506226 616053389 379381931 865917362 508102669 196694749 496966730 677989136 274921623 797022016 930817482 780691250 867591390 532814242 439272147 766297447 608557617 983204531 408584647 260408131 63730412 526209694 366216167 627111375 720346377 372753327 53779644 839236239 169110501 336642529 813363350 766236350 503425937 666587276 76006627 642656689 242635142 174176023 893356594 830271046 141977527 719688791 430745698 961202733 810021914 206586669 248271254 554329225 9846719 746053958 563424464 101928446 385515472 162595324 334278568 781425421 545257346 812383494 420777683 857065737 322981949 246797458 52968484 851218459 194584177 234615220 989287058 848268731 762044422 874264122 661951257 211689721 474495561 198365247 516562552 395000201 925608373 376071626 998883935 130987301 677823111 572689480 822217971 397074899 811074951 397991397 952159929 64802300 765482294 575715586 211582318 157604286 741600181 232513441 754321304 112617966 972496618 707279773 105856665 735413296 588081370 971177119 987505132 15725187 942355551 550061680 460086657 813903172 942104706 469702447 413059429 958710457 433609766 580601804 493559490 960448531 157255679 535740343 712711885 306232063 970049137 215723081 868304792 710145413 176912349 939145058 302041343 432132011 440403219 873456188 507002349 818015173 524319682 487414467 888125626 575435732 674942384 185709662 173470546 567073062 511349908 691263549 505338127 227057668 804503470 202514564 572242006 639470412 515372757 24615081 912488970 800558335 729871478 799623846 15487328 599812607 912383175 142632827 212496497 188435753 371368168 291359865 912260014 542131316 166478046 248855382 262764431 476055237 290937046 777391586 728172616 815361705 749524953 475795526 356167412 637630435 879103770 403604633 377592916 26078851 701855138 407123883 122779214 595122423 387449094 965114416 435500 627996163 976918306 793387697 70773460 368715229 968933560 802363631 81809974 563678158 112088828 336089083 913636206 977309394 413330384 579287477 631894929 339743573 128839964 102572992 766296438 461294073 94941914 921979626 391031913 528338230 636410926 204193301 304619072 15618019 126361777 815965380 809471670 327536510 60510716 227154140 271934800 29264770 250011344 194967059 50505305 124856240 739002251 855164284 605832970 929347037 414060121 892901824 605423646 70554489 208263017 346286876 275184002 512307445 903902742 743951108 715319451 815199974 643868022 649817125 676630533 393356403 208844623 740821697 12543797 668881847 248471293 590453009 446077506 813662517 694855427 396134064 596283054 898963558 882971077 909339187 518184608 509447138 638688644 422189202 409416236 890183851 218479120 722501971 734804604 877515838 341940259 881649567 78932467 916510556 360242409 40977212 979823238 48082368 966015991 47815357 399887973 625772722 62918133 346184032 25916670 912952249 558625189 469453178 438718560 519303200 327592824 1005033 725861949 156476563 183185104 911247218 668592892 75848434 893462314 501190826 588854173 293429363 435596685 45571924 677291089 927413922 991405746 929175175 154588283 2192396 954840140 114320217 955742489 877509633 76135863 791023478 513587024 659885721 579414233 638736024 915251990 194315 605532903 730088618 746099044 605875711 884202432 762893989 95052699 797741272 65924974 666272358 880200193 79582969 645226379 574026292 788809316 308544458 249543873 39929920 619392441 858716006 27438044 955558829 987039056 875873368 59013639 450598156 349907249 300644352 791888575 608623354 73904010 141223371 534433501 296826490 571039327 29464651 706167847 783033051 526811220 853910500 264337012 585030947 154356772 249231630 103782096 875329593 491599736 319998755 312511924 352025233 337441341 521256104 822560948 253004017 727202403 291257764 45976407 312629615 654741817 293460019 94255830 58908600 270313099 311011914 18837259 709393668 282765630 964282243 615788792 320591703 22148639 191077809 989614809 389833673 505177848 958408212 509809442 783316532 121292356 230554818 228043276 258529273 605806008 556371667 710167040 58780871 138671834 170450079 305216641 403825126 842303805 556051036 867520821 653340504 838844265 164751430 324954727 302143938 87221326 205717272 512222751 818813344 722388926 672849780 177451413 377100702 149528898 836134057 236169439 985724919 757839309 789989647 548009991 552861723 887344467 750997660 228328978 197483825 295310096 917245041 305573866 942550972 396522706 280402864 901361850 976814630 636777288 748024240 25314028 433012291 886704671 700167013 992491086 551893943 432622815 306191006 565149942 152587019 277858054 374966126 724886458 396980013 546532741 661791549 491443446 472442099 562355883 440873292 269337659 675506849 901765795 16942525 948696146 964103692 190752347 698760952 402076795 103227356 276955194 113203834 693815948 604848597 761218372 382716804 450370302 434095551 143693224 638130067 831571372 990010199 536442777 137346205 758741379 453166911 371792722 614327005 7438889 430013296 458891941 239686087 864403481 826408091 14342331 915225168 256540581 899366854 879261196 114969939 170498166 726412457 993426988 450657126 946327948 950103565 554705792 420150455 83939099 263118140 200468788 778594635 971656409 794856121 989463099 443570355 565868832 497137923 425938024 389066932 855773703 704249674 602837066 920973471 925674757 451464715 702568040 692422668 601533466 486885034 11330149 107744962 535365993 23303618 635875663 552102917 810218474 70964 588834502 186362371 58457772 778984052 500923976 676564557 920364518 45144295 209191431 782816308 745719607 410424790 376106702 215142357 978351556 55131114 889109268 831039685 929053579 599680847 185745810 918460102 359348290 724369850 813116333 34985211 986499179 377080704 948058147 217077206 83222392 118930067 331574802 192155025 550742594 377586346 368958722 342809356 828388933 107444507 626446126 231116572 642039674 980164852 851772390 439509121 81078548 834091882 27213573 210329189 95032093 533464512 362483170 659050378 225441087 177892557 476337888 835768283 953039773 143205378 19944174 353542093 208443073 97932148 293158058 424263168 492172053 392342146 739670641 588270544 540710559 427965843 223721317 800272982 612447610 982077631 384208270 449113312 845966673 303475119 652400518 165231042 581218742 88035946 55368629 530758081 83474768 767779666 176185549 969185507 829044350 379304410 663831887 515504384 408768628 485728985 341512638 689571202 725699418 122657856 979126167 459811563 100201540 59588525 4114789 50010124 996957700 550312876 910451708 224510107 204450624 148744115 671364324 532890208 409674804 538998180 659503956 459397590 355739620 255882230 580101729 466777664 238371127 747096149 694857887 823118381 554668795 85229496 102099016 666796218 885026280 980856042 942969313 867216172 165938409 997543543 586120673 20567486 619970619 321980849 491221424 432844390 751970958 409833663 324422248 928915911 514091062 227639383 237833981 593426161 659902869 599490407 436982933 667032402 795987780 206741452 36065048 397355686 520736805 803029108 654575481 769509532 221938560 239385084 614229292 68682010 730100058 769835129 196046497 770984757 688407717 969428286 804377833 24255832 662949639 861300978 789416989 800129603 937908378 594716794 894728532 674816217 887475236 802747280 896825381 572346834 113154155 292008942 753333460 873620864 254806277 979541066 895722085 959048091 738944242 550131961 940239833 928944414 160650583 812787485 306893211 723181530 99035905 428494496 625387338 463906492 268946306 622764649 583197395 53022930 496394821 687887497 770313301 688978581 808619267 177027354 900443323 64013981 225186345 223265741 479718034 684392914 19119281 992613348 986858066 339859052 424492472 211464167 96145311 1548899 242126075 301593936 681449625 233957042 934093517 594708222 940079109 76093050 840365400 483268563 408384506 938545284 57067803 269458752 782895229 989333236 911802763 861535515 970584833 619896199 139833441 957284070 831537287 886477359 83207582 78283031 285867387 417654911 330656591 669975587 646117605 44981729 936273475 486006357 524659007 242935146 348167339 379847590 10862736 295928503 501359841 598841356 948760018 661061191 779742496 573453996 583791541 629057954 411082557 463927279 776072319 488507509 901122444 220248389 237559401 3057410 438890169 506395448 959106405 57246949 174316090 474900928 973456049 784305019 234515734 728961448 935852236 340484467 391780680 248731714 913312017 379750437 323065708 511050871 465833303 296671037 244699144 26732344 614334215 272320781 107744299 595558137 873715862 693580319 850994548 132348844 312474503 987577847 406509040 617730449 42488729 573410231 853990619 548401757 307088441 492883673 952518777 457324225 214421355 775304575 824010432 622665058 992148562 893109215 872293754 222719754 811977469 524146709 658158795 820631785 967456868 665346032 73088046 615242580 524150303 30955571 398183890 860009965 699645682 84403494 873661150 226427885 937459351 380088925 459708461 254997610 13402289 156765870 757636237 684303388 274953010 201440838 335447810 224459905 713980210 576493963 434317746 282176455 997673991 502647461 647320669 119123076 339198201 427090042 330238133 551366969 884847290 223583547 195197287 392782341 258302214 961197705 365962730 680898036 998945881 218828245 88503987 47032637 936783793 897263176 801845146 595015407 27947222 895907962 280543174 582619840 395875483 999757569 457363720 783312415 837686664 545463155 155511159 438160624 52567906 773094905 479346486 850210926 302487995 440653616 406082983 456313016 290985434 561939846 537099031 964601100 395302395 439824082 165497524 395251276 432208853 965704486 519391857 971788155 54768843 672365885 127331381 480787497 778087673 609596269 345618270 609140205 243385174 335933608 56804026 591856843 712127370 265675869 808213449 731511435 923237868 115221939 95710545 258903657 131282225 1166858 282572083 586130816 551603309 781153751 266980283 169939316 595331942 809351347 37911600 8543984 209097368 469916393 845117507 253091526 709834755 908141155 748808192 892674454 874484957 532028498 819725693 285114388 592655187 115169248 441934321 675443401 741894901 487423028 958684489 966937338 587122180 896221208 483575702 555238558 153698476 962802495 300890073 291349489 599578588 204213240 707929602 313479501 923028061 246523871 130218700 654529662 116008453 898469837 185602733 323056206 327194211 376902737 291243297 615821472 886801020 531131038 909095210 981389962 254023951 978031269 898895735 845253255 593331819 2914148 245916172 590453621 45760888 785265818 172151661 830744299 669649461 968447444 777524651 429477078 344208075 757695233 718603567 495724239 278897701 409909097 102480847 984067489 856760515 369287105 485960628 547196828 187504526 798706524 964058822 854876865 466261587 367283007 261367806 3058623 463045275 526464947 651299846 349345478 546244622 852051701 414578861 114396586 759737987 508542834 411160410 756216007 553627076 932207619 365932834 90117777 342040315 839082375 892336479 224334549 73980497 574012799 535446192 702152167 942764773 955864025 616553797 135699595 120331090 914241898 684461444 438018678 406790253 9406638 831684769 469909420 774361519 623523423 260749105 289834491 920083491 812963475 992170816 643337903 787657100 751008266 687599477 469788252 918195724 766778677 946228780 899856434 922365237 367617343 199856488 495944254 77988778 484698651 387731198 705874582 332646040 554829077 814155013 923367322 96816607 616737998 622207708 398918675 386536070 823196146 358063551 490662067 901639973 865569172 196542452 151772594 956478304 96816941 890516171 428129478 690322634 682034366 428723520 822280996 673443058 318643990 770854092 668666880 570057000 157000198 740884769 949897149 578538395 589491859 926799903 874941821 239519002 204031680 427369491 113013707 545271090 461355771 706981400 61499173 850477105 428829508 110960584 286175078 831182733 203113313 568813803 853037122 388592380 444912725 868337371 364335901 312895106 667468031 43168934 252373608 760184823 832100506 825006313 460338954 216935889 27944624 957590459 542122197 948497437 517545707 409682888 719727258 849329869 580355860 981365963 52572985 386543300 640564868 727317344 349613299 427804088 306363131 595072900 309068161 639126378 950541443 74359821 36782707 756938590 425059255 844215099 682725594 117662148 497480297 47929933 355070348 655525293 774021437 692352078 900544213 586870535 574799223 390492309 122697095 767339485 582306533 57866285 117054903 6767981 904154271 382011624 63130971 313562583 921664358 651463241 832995754 668702774 990978781 3433363 780097967 879241063 895877909 705545842 883449934 378553433 201023177 540402813 192470760 807794149 300152347 931807256 694470347 413120619 12401485 229732680 707387066 824250082 217587286 942398964 295049049 654550000 472952816 47656943 612095137 907091 787767476 927587170 510382584 12895379 412699275 417061688 151919023 141978814 49794427 608374379 462362260 382249316 603998061 861433321 127192566 864097236 84880380 730804273 339053506 724264819 860619763 558061756 767598134 326417839 974222657 480538962 953910547 768814107 738622903 124495721 946598356 343782852 301387523 816261885 315351171 538104721 233967170 711765781 434865419 633793756 350484266 669565610 453054744 92160542 218082846 901821021 624439054 315895921 749763079 487945996 526291098 496085142 65491865 24575396 976571398 98544804 616154249 203170338 638910180 306030559 970182421 547010034 619628424 931506699 950593169 882433344 361259506 137574897 243190189 892529716 141758792 263401798 291768878 389556002 715402280 357749317 362225758 775974649 153107824 326796936 537900671 216250033 464252321 304630077 202025590 787269280 29981108 424572802 98600198 628618705 738060118 309587824 128282407 803798067 93350130 925909155 801905782 638946750 916479142 455279518 883146557 697512877 870200770 543395294 785053286 224745326 69003962 966809037 112033755 672430483 744783990 434856730 514903518 822112616 117659807 130762694 958812868 795187977 247611633 569028598 757247115 404243157 888656320 785296550 749958699 97180161 569006281 493922497 297808684 637037056 397589684 582856552 605627201 922403091 283493692 217071470 40277311 416695046 993442891 656042192 318425194 110398153 468220628 968725840 159821594 942192646 291284109 26404813 763618005 528859697 151914314 39244231 679287292 177881381 75659550 187313714 122151732 923695426 529594575 86245401 668819498 266958162 226918038 283609468 776334788 363278689 831004478 231749762 881747645 204555096 788963979 195672925 774500865 67205709 738617664 149550683 735362651 832902807 639314488 808523491 420715698 140667320 426041805 362406989 218161074 749879356 890232252 205757461 448074484 413520798 149505043 631722023 114331013 879804845 458312848 835395633 993833556 301683086 428247267 743719189 739857332 277928322 517212771 64982742 583431583 196210241 779422796 963241230 935445460 89593705 70132097 43345059 15716587 517327345 108602928 524657893 530068055 14085934 128907552 329829754 602923243 962357857 45354026 32649499 701034241 244439393 957417065 109641371 50763876 280338822 287652615 708608238 332428218 651149618 951950045 201886553 116784024 948541262 368016683 818118390 790960792 867287153 459016530 565663731 791759511 569542882 688945282 415430263 929537019 665262893 546754358 96276768 917856509 779401895 409982962 642213763 409848871 173555428 205314662 299356802 684435601 304050320 356165004 919343434 17258885 669995901 316446188 425873500 936708591 634572585 665444900 766888153 779785704 626108906 120068905 562451648 204641945 358835950 483347819 583321090 683405421 823167971 945924443 842188150 397187815 357049332 510884085 743630954 427817403 429740394 963920283 449652066 179536735 834418488 388348 424695976 384101582 341370661 399663861 703036720 619329936 978783310 602376874 343696047 258772851 320185763 940821872 488309153 857931085 77120309 522052339 959809604 551839364 388689701 838907956 688001021 793410831 76637704 341770741 859854153 299523969 762196299 690789292 880817175 762011000 565640294 66304528 963170298 199645262 455260708 354164703 876539140 703065795 301634407 552067400 514666154 658249375 160822734 216188997 250533707 273459966 140603604 577519331 543359197 912654181 123641944 259886193 39047270 54245888 743033858 122578421 858774455 289452527 253191579 806958124 508294636 182176085 46223842 628056763 534535163 755512881 412921825 488708742 71319260 636855971 260545691 29698910 715483154 930460981 38790442 868290472 502231500 560446115 239743427 144255553 641479763 363121654 208672032 313808387 189396314 373152490 590560573 498438384 501930740 444561714 742779053 702800982 79394335 433084242 881213826 585657968 851534017 895699752 525483660 162572678 718187695 538500455 639757304 273620803 985318730 944811234 644605160 84103321 134553193 301914481 167020270 723540485 11867111 945461326 252365534 741545524 161877816 893359624 438911881 514377394 656684599 720618592 610135731 9115423 395784079 440188824 575698921 619290493 816253485 534340180 485960692 891660893 628888725 909442317 569442852 27129702 794134431 839982703 315371306 875693178 285770639 303438999 705474946 58186189 20252705 288324294 2568384 538869056 262487464 119265633 20828236 272197952 370914431 153378201 938698679 187601165 90654757 111512408 602049597 14853395 474213463 372974807 698396641 890259370 195605458 889159142 442780858 35832055 711140805 682697970 11405903 328814329 461232267 846133621 431538742 910200114 146332195 542756458 321799893 762029444 698403443 220622347 999247966 375863584 771744551 481363316 355620966 250578395 77819946 888879356 186625218 50065343 275662288 883029731 967354020 194679657 123507467 528427647 945590014 24284790 799570124 756671715 671539354 215249912 705574581 898280759 452566589 909654977 864139327 60991048 644766677 631591989 771799276 539570952 510399434 877432575 325182074 698617731 99703844 836627478 890484574 799123293 184256266 918075661 568353740 313242111 537805211 188885609 585733167 785949468 36669045 974949868 400675372 557237623 34731493 376055608 943314346 24801613 208889201 697559221 85783025 855994154 276813734 74635437 753169150 711066460 43525010 949230514 809945880 513594964 848725727 485950753 192647398 551430139 491807611 760424761 916437501 772984642 158281069 29734347 318964796 174592241 54648380 703311278 399060387 65043613 283060204 455385240 402097872 72341438 650733232 421313019 270881823 204079643 873184814 900403984 775568919 753766668 609418890 518759603 198133775 367102676 852477204 336808571 318514205 806855281 250912623 563292082 867390692 460482507 204247971 196469682 817873543 37107929 988087486 797595677 762640303 490828502 878777300 737304527 852758059 686556260 992822817 789071608 352311548 876674750 822907210 631224252 12542976 997933768 78658330 284899874 553103055 379332196 968399706 433877081 336889160 474488881 762701424 5217621 512621633 746481700 246479527 457709455 729384319 425054816 785447833 590757465 364810247 340829761 882290410 532018227 782733038 591137612 786395606 935211336 43871645 473407443 533969863 747419734 337679455 899172232 936147641 840635424 637718054 69062081 288057744 505586463 891452767 760951589 381233359 693949378 754680470 43098410 569298846 761292164 366930076 397513305 623172048 46894094 571335878 777530267 740393181 778847175 91992187 918961904 548116741 700498341 331713040 216308975 981337510 595355543 947017813 727292808 950359944 920552273 985907576 872399924 87752184 965973118 734562033 278661426 722060797 551953774 285362352 482329172 931038620 497712670 174579765 509884420 207611327 334910066 633755622 428795317 204581720 67312786 449704949 66479612 15430332 783975830 170664575 498764316 170045887 423120066 68250216 722776631 6161313 249557982 677105478 970529407 917602559 114345748 125027057 832756944 825587867 924735636 225059137 562857826 219997020 699444835 685725787 623064293 8444649 342832094 497282235 707302864 897534519 829850509 797768261 432523733 515723597 30427644 948397534 866867045 772918334 211523132 499589699 304076337 897476187 513515143 775237498 639297303 685483 383178866 251798314 783003753 66598927 192092585 86970481 162106064 418668741 326129022 493534728 751073500 671714852 936491240 102888517 321345452 368058552 271119196 8586877 271226823 57281119 529097369 265217411 589198613 854808978 676149870 158301620 60144708 910498859 565212199 960917484 490533220 815298419 443637228 541605840 747852883 29696325 352556521 450395708 697272445 992224559 555440422 302382705 165863690 481119562 343473130 860672306 397382980 318125335 150164518 490474287 272427594 633563885 612308631 845289965 471721857 852514112 647262413 260354981 198204572 239741447 718204599 56964173 538755719 689621950 512924343 477707539 283461005 215809679 149160063 833852787 629707974 17528454 60024458 617852658 607091360 483950088 662762598 1240861 88883824 510793513 225177692 531032475 551105879 421098561 42143256 82513063 215646004 532453490 466007403 895027352 915030084 403229916 570185485 946434519 471317482 365868673 138246017 946939693 258430697 163666992 639399202 99382723 583965936 288866758 16998090 261432934 359769901 173122894 596032169 700985322 483749802 77986294 752649544 122794120 658316389 580560655 522761731 179215647 124331389 351681466 972065204 496755290 206962932 511480270 221242835 21646921 682564949 311973617 313303036 737703186 81081454 486584830 354875256 167787756 926482360 683492453 896897888 647659381 397517797 316478802 247353003 178252426 585918056 827444927 958253236 2859757 339480911 96007353 649805141 378059472 527160696 917925953 776164366 532149248 976196662 717511139 290234539 764792659 929224557 336523585 988079429 680018649 535989461 860079100 705266708 565073248 392816260 248442223 765462081 741597291 815580078 80195826 693189978 56946597 722655175 387559236 752670678 686149124 374788410 890166091 608297075 268520045 655389831 486175254 456829997 758810989 909256269 767915234 794642316 324049290 254157021 538325553 933891910 864877987 721838781 245422582 85607955 616395822 76144343 210603220 884931822 4363967 776302370 328210666 733501460 582580872 376890094 832336270 516543130 857496556 843491734 175695002 480906093 910527313 695947677 62524138 297617137 662864371 84831133 371030925 162162870 755695132 753690523 862022387 774927138 343779024 208964028 734189147 134629317 65715427 600382958 9803550 264349405 735233385 488202060 634708069 948007685 770508153 462063554 981766915 649650793 411231875 295554204 612347787 192472494 30778079 637027622 350078388 642182685 639593937 492707263 569565100 10411848 602497300 216953417 159608034 487288393 86431993 281374729 791724953 941944807 120482905 703813284 469579149 794795404 155199296 65740774 181448818 245333776 203123737 840846547 410231045 982485341 610682479 936348928 910475225 152839586 509107994 780854680 34440829 978084774 177052171 178662140 427341449 942052180 432861632 916052935 293371072 909089740 108818266 351129847 642709077 778801384 477335195 4137851 171437125 926197221 843684148 67615230 156203779 262102429 5451806 254417928 983533879 209264474 473582728 204685362 661152651 469022606 526760931 342028455 946100987 197402962 811322518 629167268 451775413 341237403 640900800 865381977 292436849 482456921 159447713 539328394 489046805 300519353 593522441 924401991 468648885 139893334 761381564 448381512 795690597 420551185 170831001 522452211 372396677 746112550 603293624 194511595 940994421 496928714 633025926 432983099 435142895 434665976 948041223 48084069 784714930 653104549 903273604 131019004 490627871 177349857 758942034 959416004 679422939 512982997 767675039 85813783 832573517 757175331 426234425 804383603 808300380 568161859 533235794 303490075 998397183 92949086 745281860 556636980 982225013 829016465 524500266 867368852 406181174 525589198 541313351 216894666 305800618 755484311 744421566 843418206 882737217 769141329 795647036 940369224 610214802 220614037 287926641 73196809 175696804 286912810 978435246 925948018 983603858 858303701 1282704 238534230 27178781 307107820 131650604 101681975 949471500 728316950 975433895 448954368 460314183 389261797 896368384 254182239 576375115 123660258 132047555 367284548 1152758 158067688 670362484 454935127 847368497 412677361 265186409 862815820 407305448 723583802 38516818 621170381 25437591 186186011 205344518 361214240 173153438 745964019 915347914 664912849 809030460 539046818 671876639 792589636 547101188 333085269 886041931 382347846 368654090 121432977 99687419 289767821 636089884 337838987 195878103 154377775 74530734 891564661 721115939 665790620 55460954 511090111 253641084 569194046 446158158 87691720 8105375 330619634 636220845 835308763 224474155 916988903 926619997 786551295 296225931 625706814 300411135 685940517 125164927 59415011 976204245 261110747 54197197 744334657 895471176 851753587 102356 447951106 919011597 850853299 216694358 486980410 911596415 302839631 964753618 528707908 60818690 985049013 487081384 795750212 157574845 728223710 224579462 62181146 823018008 165177648 298099839 66876887 151000069 269565490 3235352 960217819 416158355 887557624 30898354 308797634 614624153 615745689 735574237 930767297 955406510 538052887 452718260 470568378 857075225 871052232 810489647 548149027 281381212 734942105 453419231 529110707 335686874 132376680 853610881 468695961 596784507 193210740 178800003 716836251 21160559 242075434 315893596 718746769 215520714 543413726 991370210 584301201 749005340 263636779 455901637 392145424 316616759 990606946 208999371 271557505 399299502 214400002 695068308 300353542 699588399 813444733 350179336 279203626 227284094 770731405 37961019 90740940 649056404 654362242 394852269 48586911 701951591 909448941 939063062 302923332 95465114 139717880 14405244 98044090 519521010 471627797 796859111 699664710 525617107 859769065 844178676 359631795 826221336 721372416 302721089 49246116 847386909 7291955 32044256 498552733 574098217 563359373 852636949 597736136 219313386 604838546 976337876 647292899 669038929 337769920 365896381 395268763 118755149 708136476 715491538 69936863 39818970 396518443 559506456 866058811 731050583 966767829 470358174 49569198 316235428 163035192 413589698 549335303 629088083 175024714 746091665 89829239 201519724 153536848 374492045 242662031 728960683 923866574 944804305 583695904 920717909 172368142 933562196 706720943 995149287 981446018 762146321 638640070 22244353 978399870 773622134 971576811 455459522 139225089 990400436 326365319 944265442 759111744 9767867 525658773 521773490 26133000 344027602 880039653 20985753 14772586 485499146 563832642 797608531 65364248 131678739 643696911 760993853 704637268 729959090 341019058 347991864 288974362 269302743 219682866 200352597 750163160 758691724 269259693 312402750 329868986 220281759 528234362 463706876 79229100 653186972 346795801 43885421 879857955 365096423 603707161 573382183 123813663 618143157 223820626 515748289 657553273 363090406 780760423 774764559 952669136 483090852 70279696 567416884 657210818 750536267 539657158 295378406 547505217 406144881 140584986 385892825 566440694 717284396 486520648 512612848 305289635 264381942 747524832 803948929 726580662 572551177 254492465 278173788 287889545 143662579 213073353 53810295 995670869 498593775 4947644 81701206 748178485 887188736 440582140 490792016 888159363 826009758 688997238 788675449 258671839 923823447 685156444 152616410 101393289 90839123 721984651 823516339 588614837 319476422 859254178 254196667 865099490 3054044 613841386 450195055 365728909 76822636 22874996 205174830 754784969 933919783 142047547 240396447 420502845 348403164 567003780 237442628 794715527 556432656 744025753 986752716 298877674 723197398 122091429 919641451 62934315 14070426 866640938 354428024 642423873 136956362 716424156 446888328 141148295 201231613 656654497 442578182 946312927 427072986 669041875 285434350 840579616 330924915 630220832 272595112 185847941 208847463 19251813 975665465 833428231 493949707 564531267 895840621 528925631 529647505 958350903 272141975 455259102 692286610 751995566 348263543 793078005 441095330 811612310 222439330 812542937 404531233 886098990 762935506 890744447 366164110 410212840 247813981 649909669 242150007 594462223 972975828 799853122 289535389 766608444 791220593 616377013 612134023 762756812 191733886 878434052 586893809 315651378 321958654 999366637 100101500 269683202 723789773 66593547 151531403 418249401 70906991 718715461 560654881 304289314 896872612 361511705 6718651 695156238 545873908 372626292 987241461 587333912 361538283 412026429 466311283 772158316 595083663 785018322 7274084 801591610 533425056 942546350 730049458 608837806 356578684 189165848 547035652 793880073 457537086 525279684 454235684 51684129 15322236 971192327 810586098 77430571 14905311 978689765 28111650 544558311 751457672 723204464 116460215 67154531 685576073 667098744 308880240 468542930 103953337 652674735 3252612 979416594 611275221 317139195 566762938 501867485 219928817 333995818 430409401 77372862 852660957 804712006 542338514 676102284 799913203 64506690 228953433 203380595 713483591 222735239 471834499 304975167 727733497 936791099 489193044 952078138 223185497 256644767 197850452 898759717 577138785 960653166 466420911 519118399 895476323 902811369 387843763 768110154 856023998 255576954 225663297 168672635 258646159 179280656 613196755 646619816 758402524 209561591 709491233 832009408 292787491 613138663 704162885 695357363 389691946 308388715 218302020 504274649 31647490 21337362 408193159 675517074 920529124 758311193 504163198 591448956 335795597 793919601 964157578 293037714 389632875 13486428 318456973 279353630 592425708 417458260 776425945 711905337 79501225 303736606 22001169 654360749 287585111 512386094 554588063 349722256 270884643 84898894 536036597 637551565 92724696 878410889 279861041 678082472 328328612 397507885 644043995 699078284 884694566 673894159 258978404 114400651 367922163 181200436 528982468 638550335 258008725 453573804 144601877 245948052 541889158 70861822 621043058 765414476 673009496 403783086 857188773 690973984 345776294 554997511 574206362 594633611 423233526 796237580 124938607 993117353 696987967 617555368 670431403 709795484 423623894 5857050 426471 425938571 373643464 34578519 788761823 378333607 253490042 550169980 18211633 625086607 74351262 829730807 345450079 983800354 813289731 79785418 532371988 909849851 301888999 59523227 459380177 917652499 83073327 550052615 615501681 252562496 687949881 468705621 964865663 155063457 803441290 865236659 911966308 241128247 562067391 904027431 136884762 880999190 710544253 130678243 73478041 624693765 395929177 905058905 187021859 173163970 48710848 947456374 127631001 608388225 167381833 826791321 816046382 27854714 388293359 608467507 992814155 940890447 264450837 477270892 659903857 350867279 938063807 921446340 402573222 239992291 210728354 710878497 218938025 780951165 424189778 126183618 435550378 816685002 592249557 425673247 757355748 55326194 874424448 38064737 144522301 562876710 621674243 161531782 601176777 719034079 729523382 923029434 158138365 594280727 129210896 779400956 561171142 123019928 84995910 352887613 892621504 499277150 256357214 601075407 553534391 338066625 773119649 245804108 497534237 243942177 596362355 280807511 711675501 910277192 902327280 977150423 441662071 390738806 906409820 68817625 926373006 709137284 820291801 910348030 193576596 368813813 874360750 211220578 55758495 829155402 85620892 684578218 908056639 566810363 948887004 189837899 227690817 920268733 886745278 85229262 430062066 16547302 467796073 752134219 816525355 282378976 234076777 276330120 580919633 99905080 494728141 621027271 357115489 851727366 913730400 395516378 724881146 121726919 621305350 414622928 828635768 575580568 193974088 932277237 710471489 104761786 30267909 959241919 807594757 456637185 11915777 91619299 335719399 344730027 385824423 562578645 32946159 704151142 947923744 232510402 39904915 837772802 434127700 985284352 702764249 949864580 351563849 958660795 904648279 493418796 604624100 54563034 159971945 155930808 506944732 757040879 204336247 613430330 355575098 592794830 472790122 859259159 933535851 772934793 17518428 954731134 940474621 618812313 620514978 719961232 558566579 808859302 822210279 575620475 623327702 467740199 164214034 596356837 32105317 444868274 954537073 794161879 965309678 801528431 523634109 381861649 147978263 456222911 333499948 638532881 21700761 207813567 775785424 77125732 869087565 351752931 124969656 779245532 572412590 630526439 386490317 299638257 410833267 986289687 525299401 501590565 464622225 929401907 937657830 952519524 222512901 778792348 818314660 940072010 402126592 872888300 664664302 813268382 457020769 433356125 385116911 433209460 303638285 112574147 620953458 309209846 165340966 29118338 106877989 792213387 222357028 71960040 514721765 304710817 994209102 218901279 145724075 698455061 468921393 534976070 188863592 605915766 343188220 998232538 816831055 584397955 881750767 604078346 580651291 908917311 455231871 551690320 953938374 403469453 827493370 248910711 322548898 627062731 53239338 165214138 880559688 999417572 33397052 682990731 656442234 293236179 583671191 638248399 452787516 708271133 822203630 832882542 966636067 919731433 138277618 266298537 693737430 46389995 426734257 672443509 397580364 350301936 559744363 439848881 700542287 245450044 146480545 307299675 34235460 668408202 729933523 789767325 178881706 758261507 761586670 20115885 569240101 233799635 468541312 397546580 896052329 763867922 202370688 480221669 76108871 864657559 907914955 668522257 181135514 197056897 518965599 911536956 604390755 178866243 592047155 503122263 412408083 921418061 938126343 979401994 973173488 373524224 741742855 825416030 979738425 299611101 314478102 605513318 429890814 918102940 691348184 248771942 659984952 991387699 864023099 97079606 76644978 873665002 957019372 406385658 513829366 586214375 589327939 410366678 344998648 80315980 34695058 634871347 535467754 771653050 566575182 350920839 434437082 414868806 17523160 113758349 178838234 633324098 77333569 143198138 462877732 651191404 435854609 575985514 437335382 714223471 965465384 624153098 805440750 580934895 623649566 631990392 566437204 880461509 293823615 926159233 802012063 13033093 280183455 209735579 260960549 843338238 580854412 458567390 295818839 167899281 287073618 101952265 523328931 650558646 329373940 991427405 631459710 375984694 449468057 233735882 699283590 215274222 88121124 472445742 566343269 25357849 938494273 489213632 495494057 417955336 724676688 133468563 96414797 194737024 450347421 113828069 88596185 312703232 873554711 424544965 473424379 418915676 715817121 874117954 290869327 393257605 460432444 282356942 21294351 900447344 296307184 106593588 359387845 646982555 740325455 698843898 696887655 84048799 308655092 788398872 297089955 605471484 383677481 877523221 754304120 420530510 313659018 282903656 118992101 328397068 313310118 455095686 476135875 721490648 488444605 741754898 191906339 89229601 770852813 316749378 300882582 89829801 478907982 69426772 269760779 204439178 575343589 874480407 762931418 254967798 846518222 831486057 956064929 533199711 878908009 396635843 360532252 966813952 208444373 678655062 112765261 731548554 873926984 698271639 755109983 656470250 874328987 874209448 413009865 917065648 651595722 222096539 277276212 588284612 744884158 231721965 95658392 139936793 858543570 693863851 279007248 987980606 74776485 812262343 286949253 697479311 86810583 22535930 607213233 481082474 109667434 586883126 70946707 487821644 846744349 786955733 491702339 424113888 593346979 193644504 36370318 451923955 193507034 684127662 873029546 189393236 77215958 393544267 110131588 728279593 565066119 783071733 237388805 510745293 104037287 802928507 849977956 50544818 173899241 125552720 703881524 296200025 369166256 177831871 966549665 515414138 67108795 698510449 684146176 379276822 543565811 309844190 823020822 26678981 672423750 753035263 548552452 159728458 853642351 678778584 165099056 489589360 602223482 949121648 746328369 382679458 89686581 260655858 621818246 224985374 213546467 299545085 136370339 724369498 317438022 184958342 804705289 247203908 773997107 741392455 572201938 969574916 127655945 333530780 886017184 897181691 241329637 658405289 634664548 282083046 858560363 798793610 789789549 227490382 671985360 311098945 284411374 270331276 924491812 134750679 830483349 322504561 645704910 492800555 194539719 825801873 669913267 907782214 426695033 453554295 82446959 195094439 512720271 666617756 559977854 647579187 380200296 363769977 678582833 618605760 969748591 131992214 380439719 134990321 602511295 140283722 315499363 23980684 942111038 671360747 509460327 339702589 740883683 825151061 160231763 748013951 487934677 963035269 481175563 82304384 180417525 267952848 658213378 365017548 89183889 8332387 564908755 311910982 227242310 789395471 680542989 652637509 23013439 949295945 420363466 365280685 8976495 773551197 641514663 152680190 432808071 836412543 998316852 259512772 936743947 802513178 487868044 876479493 768632131 289989747 916814226 972895591 189658387 269786315 743971683 863319517 80338131 48342770 363480006 161856310 196174846 868702841 447716732 766371810 698010531 97452380 379103523 193726432 428374708 960161598 957625905 865379107 212055758 377082583 40116939 67043440 602104042 734345500 788817406 526926795 468258361 621710430 46935893 529789319 478658250 584726904 763701934 259982322 859245623 995196095 402870750 732739360 6410204 211216197 789332865 178592166 535174862 410574276 593520745 748843267 792714859 564568588 572765643 418954987 532828689 591563883 829665131 998773423 442382693 860431886 177155353 370274113 595802381 97243993 849278127 338758170 887535550 21914897 338357874 967597640 211615519 980373981 898522742 880910697 884870641 750705633 890582521 47194209 370384602 72390961 978831604 862252467 271424998 808159777 941771163 581888241 641689767 707757352 37237766 634714588 765419174 490096575 729792042 57190731 788165189 566640508 852527016 579883719 47059031 165366203 964161775 741097928 998265653 230064834 114350815 629688481 2599980 683176623 84469957 896385718 262051025 681832266 624984438 388895427 882393301 503237313 909137861 755841702 525372341 421984249 863927766 896464492 931541664 162244553 532764444 3611162 136870789 166640567 401915481 928989128 537248873 478952724 463315926 180934163 575403431 641319210 543076545 86707835 322615065 554562426 997969565 507945840 101050701 568280209 16957176 458080270 238890381 599736721 209756578 399048152 8241868 416377703 729534210 530061962 253629848 179938391 902584485 521965696 394584109 862142029 512400817 358303384 638299621 809894889 843161760 616433421 354740722 882484096 382173932 421573150 587384367 655223339 503242723 255403821 336318349 898891854 653103033 546670146 458537924 793683976 605903472 251507152 717790924 471099309 434514976 471333391 878667808 490728071 105623312 844717222 153091095 154657206 525726399 541711978 136691094 583283062 936299931 328072853 564856224 994746666 120780889 115938390 221029574 887159949 875305369 418141357 863749262 959752022 62439943 637436954 835952645 978924228 516198362 664100122 672983782 320592442 558931136 88795944 552936566 950681000 146283472 677330891 692150243 410074783 827464438 595938579 811014914 41176870 707902710 352706141 829404109 182529782 961642058 757484936 431222238 98180326 478433471 88758802 571041217 192602678 908884501 404539401 429029363 482957188 194200751 833924702 835042339 139103780 945620849 690236682 784132328 790247605 82198379 751625007 927923935 577940745 384745092 498339569 311298704 930862179 785878611 229648589 422230199 249245044 97636219 233011477 591242066 838982036 951103973 727465574 219564243 246355311 632238095 441708367 861956389 849262018 992226396 173491728 90464931 236102397 765513344 684850990 326723689 381662636 268717686 218841959 597649049 961067725 482178636 662608489 267840053 66342159 480405823 557168610 831235509 256181659 551713572 523430163 35267868 533423856 800077447 261105341 760451847 890351098 292701260 499665217 593400472 985536625 898413957 323998303 572268128 999808628 579863474 335510664 937293659 968679161 103304376 82887299 342310315 366422795 93015226 720067534 953630999 627009493 450344922 321559677 799730397 524487400 46881239 388116400 995271779 250007065 144983547 943472941 497203856 22190414 7107559 550650398 979122930 291794235 212124152 528500757 105966927 733375248 185692259 683644051 953846259 626362601 255653161 24707868 128283145 120835045 673863770 346339187 691241779 60244998 50581730 950803929 109060477 236478407 910805934 169975240 450855034 9291282 132720063 603558536 693514137 531014417 592580841 117976919 195474175 846823503 265709511 549499981 355274521 587260320 875986612 743249547 290307807 780763148 975302498 235556306 779809272 81410719 553259900 460234342 414894491 932999539 760059166 7190892 954376358 187570819 794100398 800350222 982708070 681688477 773126193 946558557 900156202 993765106 912649031 124022264 79485335 838155594 839310452 859745887 808755235 549924705 519340050 443654707 87951092 673173412 727754906 150912895 194527067 790965571 786465570 395264098 81292941 349092187 981743738 543202807 942936932 891208731 463015085 584623921 739168948 463161605 275208572 607778623 674993771 959508646 836731967 757298932 519937271 506695484 399672877 845437493 77252736 827800305 615382240 706335720 248203159 432234712 114928214 9016837 971488149 854578494 855253868 16797436 248505770 673504910 793051339 517342835 237111554 899280423 120074700 328027004 316384967 844465611 739386912 226249851 737375965 75852869 131402865 681741293 654542663 284470199 683988100 428376057 762351664 983857135 697376324 225805837 36689517 835284557 65993880 766024600 395687912 737832811 116786469 980880774 187880139 788621770 770284709 449633045 527865112 741328597 154541127 202568687 460900818 263410191 148807383 742066239 961547198 110437438 712265471 478003862 364873334 743118460 94552603 349037869 473277032 681851819 556826976 863725762 536675962 593752635 65073921 341787045 90349957 88002183 142044970 525646878 9496005 225618155 75632649 288750208 578871261 227733570 142995114 434653501 825351350 674499320 326209308 472120341 107938448 608553219 792586796 418707084 152644747 122714825 477227781 426157432 794824099 51433333 715566924 12878983 994098030 560404205 451538671 635288154 854962574 566033204 513025844 18850976 310572284 949241532 582340175 222083265 72339029 926963741 215527721 656192795 523940073 109152052 804065560 567065495 546098674 913206849 347963949 166941900 216030896 4899948 87437811 570285034 445696365 467591635 14242767 320910524 365120523 481675733 698776173 943230074 595915992 673906750 468996543 387453973 114421734 21135957 355192263 602237706 342271610 716521773 979083305 981802250 542180852 221032729 519030437 437602143 259303369 51710395 7416311 715861111 577394527 710515999 202459706 763469856 742150792 234640452 120707134 940315749 354171363 440612247 704722141 780265111 306580012 8668151 887314052 325787240 946826040 797285117 904858405 917100956 169960528 234692632 633494724 652007032 901707772 102530305 41489136 622682393 320231586 635777012 168184522 130180761 926047717 681327040 852930349 892129003 606666030 317622328 944943500 381717958 346343235 670088402 530176364 198356256 942352037 141535903 742950086 239776576 486868857 47885410 413860311 877373585 235423699 915180031 685536466 481069572 839197590 807761681 613313196 424197201 536405742 363782241 659941593 707773800 19866082 827532050 37603340 179348427 946374800 159264414 275774348 668847967 29314025 827268323 762862971 203753457 800195473 291003610 201779453 301718413 36071193 702327658 583219642 49246717 954503015 15821854 717786641 192583221 287344317 208237627 758277585 611829848 23777569 406618202 59966368 892755192 19388234 434298317 154224520 388496035 209664602 341782148 503256929 336351486 469156370 660271880 287131113 955881176 282724741 782169231 282085571 69807381 273505607 558791501 840581959 390895030 954370339 365584217 447902312 107541230 288347172 859849516 872480267 677111529 234351538 485791075 661504950 458524526 576557295 61389861 875164423 731753053 399601682 204425062 617961957 107506511 873527366 723056781 153942607 300945759 864518743 658021733 908661958 810811104 978750983 779437321 102472828 592608320 433789884 345185153 230918252 731976937 886054512 783441317 151085576 549870026 916198185 37843464 314147964 421022965 81984177 864249671 164462809 886843002 779420331 282978088 422370743 825698709 360786652 339581582 645168236 393635817 256615805 908569577 322314840 836712586 947737966 166275655 140260440 81899310 442538625 109130963 686329270 219231511 934431299 143132287 314317187 532330342 587614385 97372453 875754909 969048799 507899963 941117623 106356703 995939949 294515186 425643586 561519984 96393831 177799548 493347803 592435513 829092589 336336734 17390519 572447822 330708883 875040010 317415958 636248239 29724076 187170166 514795345 702254353 748782729 474202520 981507217 451169481 153203077 997198932 651465261 125137305 352486535 745854969 832464880 832705806 917696588 701788074 645926144 663130038 840081174 638779884 442219095 650509265 913597321 285287100 454351312 856047129 844239100 713415671 853991443 997022785 367661449 730226546 478556090 857469089 425997233 674981505 121111937 811040317 493346703 137106709 531086305 277992766 258867262 620697242 962937301 372469633 258068038 363122929 19124936 882265573 700548433 10907844 864729969 892006642 271262772 895756709 297913923 725134412 350840923 980694177 183603261 491685742 643572651 490113476 579153395 824845265 935232449 34123341 637519494 306483495 153011009 184081714 544513560 7741311 596776064 716792643 892674547 929644911 353372488 17609376 22374561 454991985 762920867 653752819 363994211 71968886 965891649 764458837 345085710 256697662 235241128 837042817 700375862 542271584 996511929 21607877 429846518 919439637 497398547 865448836 890749143 966941613 836548741 785922247 655777630 909502187 398570109 750911009 362375368 555938589 471146642 9889962 657672945 902504711 584588140 748153130 587825677 219856758 783794999 312975536 771097226 779255586 594430112 457636129 156747935 382874781 817322159 367433331 515946335 395723090 398096616 684403498 973205357 484880396 565796821 520315058 666254463 155123928 419145083 703502335 537666964 191409953 976059130 964768135 144743042 913502729 541508921 913785187 657593926 787560697 714367935 262934142 397605735 882675361 740747496 845772753 689652276 306970072 455040258 806203056 831794151 868452013 302259441 818825661 161199548 223826260 94976594 714713755 667856731 368118620 372571433 892494088 861643805 180179162 854577393 781826437 161230034 808749078 333170312 163283418 458045857 886403920 555653292 178758208 223479333 160223641 53892999 410810730 434673077 770857980 708144820 340647947 521146898 132492657 392920144 562679497 388950229 227164447 706781436 575724026 215732205 646154014 516485182 21121794 965039003 184238051 806344415 49872888 556524503 365183871 49736626 63210812 229907839 340349557 888728717 104929542 416576034 587244765 721294197 513964480 687853309 173171116 374764897 226394209 468246861 389941883 942780316 651769366 982803536 584168390 957201767 753262343 737920312 14397919 524714160 566954741 504206257 346527337 148092925 626962170 990357809 106325579 49502659 392016476 592073356 248006148 613546116 372430292 447710491 742665322 716259809 952049548 853686987 545785021 797582965 413138580 142986765 377613229 393575270 258111163 819460408 44629043 467050141 27249212 9546624 248070898 345520003 225671879 608057925 513323061 396854050 317248061 923093497 308482828 724137081 611585773 72077306 337278340 451458898 373039287 127494085 229111162 664382688 932557805 485474481 569784609 255115311 295530449 389294505 791213238 484331982 722478317 265267021 413648033 610989658 612176329 635500322 723092073 236607909 7445680 865793092 390316614 565855605 738422345 276732315 240688717 828238741 483880198 363567884 379067421 202681432 191765852 177227631 680137473 214840400 959749777 757780285 781593623 559699193 845953947 58352154 349954618 921826605 463016967 505602301 615033539 451037491 637054308 156955567 465054894 248476386 771198285 477325059 117409014 78122535 252460733 232815803 569498861 640830593 444430130 290631729 312154814 290702758 593742008 983713599 243457743 180361058 608158982 339450671 897000737 455774341 910069460 428239037 894763975 870686838 705775799 41401462 709067275 369230055 285434739 5596339 891173164 572368345 816046140 709687336 306117599 775695181 499359073 45981810 923798746 886587649 84957479 249935123 339426810 977420214 11238109 185618283 352696296 569725653 925854655 947075353 572708225 510812267 827853290 873597032 290895568 349167818 745213560 767783881 169849452 794099939 180412022 915229815 973981334 814304171 609481262 816540084 502290372 806749030 656594105 977057713 539136996 216901623 206341564 627421207 518215970 151657263 983241249 248028290 814772844 234022537 429693807 455290726 226373197 523593094 262861015 373286612 140134835 458906746 411812070 103585414 801436222 928331860 833602807 236502165 819951603 574669160 783854265 335810921 877972551 212806723 472016418 66557663 341651743 173700842 515342384 13676709 285256377 974714575 33454638 272090864 94419921 576160623 171792336 315342979 448121828 149342456 828715863 252576290 998380417 220364421 714401658 487087169 35455641 49384544 889138421 461345196 561616499 571396714 945517894 530559565 600087631 563587855 720745562 393364440 616776959 807286573 407029179 314237514 46868709 919586203 689151152 483537871 487409369 467864838 741422184 626625311 877064696 642151864 683235312 951037328 57286420 952031513 219663796 1925079 184681806 546864964 407291431 190796689 110347300 480120309 818461439 736553107 469159848 55961492 323132737 829008965 719639840 841124378 678805907 443809832 807881706 89420987 789262081 441782823 397076467 151654362 433422288 170812145 338541706 257736172 521114634 388772600 712022290 750153449 181711069 72623636 46398522 892386624 713585973 526473055 258505355 454785553 171298906 15422030 866142850 39679827 287430255 635407084 168161504 265126654 165254214 420786910 426331053 580513971 697775026 660230496 940654 627476443 677284905 749976439 527621792 572390493 539116779 295336937 814180381 455167109 51951859 406902679 630251002 914244625 575722191 918065119 192291823 683666971 218889687 759954684 119830478 656923275 977919649 781326372 536944777 556574830 780004057 342391324 447674891 381569956 543582575 644898303 180708108 960386643 159008780 337197688 884224980 415756123 133176820 186623928 914894628 968712971 331042232 676335434 601473931 596519638 777867628 348715187 707012697 180977470 454584118 554597796 407398446 71986273 505659988 307538931 246493277 444634279 910438187 717535627 518787708 859817427 773515472 191370480 718577844 793424844 719282717 517825009 448157818 513113176 991909409 901467919 103577722 521028320 239357911 989889871 442346130 211191831 425014514 350909436 734022595 230318438 210805119 643346172 565888411 738306866 165957077 114827887 29863469 213741851 906303222 166272103 918563901 767111717 102206040 540071652 901967322 956802286 81274680 768204617 933259284 729832570 177767287 376290565 77586104 787709834 878618541 490498805 80728893 130568079 353348092 618037923 348044801 234079616 625126446 295653699 766393943 376790892 200074724 81839258 222926516 858683402 881131055 897427120 387530703 383899759 398489535 834797793 886928264 470035105 195465227 420283130 671744461 517002302 512750900 889251176 373195863 521057259 217216914 505235099 55479322 984160853 949451623 657568503 50365072 632729145 620598157 64684163 384323900 762091999 715183587 569245464 917334193 243280067 594083934 603102616 296378142 861482935 907539252 685395184 622335610 722299083 448062073 192830881 227413650 500722549 904925602 712232258 673531659 355461319 326260888 867778062 624623810 735179416 188270879 63168274 711900103 998734474 565336166 280424847 905055602 724224948 997074368 482689585 878154013 196864542 393002113 811604269 574606572 894305359 573039224 441292958 756767520 322933929 459140328 187940469 612271635 940272946 970239170 753617458 738109924 538536655 608739446 90580552 617365541 741202159 924997973 436018696 527557450 187144515 367059707 296673075 645623351 628970514 663395433 469915455 379250133 544564558 170714927 594174073 68237416 555067892 422537242 835712545 222724555 202526693 326772547 653080897 382111788 803882739 706521867 591271178 579745803 400388669 334538402 561588359 999347943 378539753 55489988 649842816 478621054 739440974 352094910 119169286 178981536 649669925 646038794 423200978 230600304 135315966 325554627 529174278 257121266 685108623 795962966 981406676 918015735 912820557 812119798 589927023 893738051 809215328 450685914 644343792 630998890 514830822 138353227 567105593 361555438 14993932 455907377 607371713 458013234 318364389 36264356 863173174 136756128 380643412 688268076 871470797 652031799 907486415 875996885 759466679 743199261 892857292 158443537 431750572 154352869 973404525 291076183 615005178 574229872 304066643 81161335 630171219 665256042 135915037 683476094 654793864 139779743 888106123 703674905 183225908 103950921 407363651 64106149 692166363 905041096 572509345 22471393 661991608 465602482 889106165 525297455 633410535 979468672 519685850 356304203 517048387 611488573 112010300 668303306 25450403 555913028 646889009 842621524 993187328 201667515 950450246 107995420 364919764 462266756 857107700 933786290 512259287 712923659 858089061 656479503 762129833 375811762 378126315 958628120 253911037 701201141 101050079 299543479 27498831 891588602 984077122 234273008 890564020 256535052 446777879 671958581 452437077 497675803 840733526 670411034 797203082 89616981 536278828 711977271 755486684 730160381 252654507 709344158 437589669 802937204 869454079 222109263 873734176 839992196 670745375 268323538 765257922 864670250 71364196 270979341 815514793 656505712 348761933 615999648 381306833 996759396 956172307 396719814 860878561 981885545 132129489 115859170 433282264 806657340 628577963 617445504 999441446 912430928 961390335 331157654 901810603 267097140 749756271 281952191 618764498 734173960 736051336 782094072 194521998 414354808 832490707 762382258 684876469 986194801 828805119 900193973 184347258 500860662 485405404 64460549 250093915 432709783 959998049 557793975 974552863 32272786 705499745 807485728 429824656 98956107 780988773 170055143 804419161 814019661 874933714 477919366 659146052 803096987 617917985 435876372 349867185 496656485 109191879 241623470 968989797 531835691 913053576 905371308 631482333 193515672 157448615 884897376 531430288 528556466 505470676 857450328 311773679 539511029 225994066 534800799 209345315 604780351 764601275 548257263 543219205 364639539 388637192 799685927 640075927 339698852 116055262 325133069 76496438 142189670 929670940 37826936 100767830 246506324 494826821 111510737 48476150 871819828 852477767 93162481 193967863 210062658 488315876 304295316 86561767 153656090 934538110 269759883 105155202 982904476 519989108 364865902 249814102 573418339 294984046 611165562 686058933 797399025 744274376 540006215 934392937 478468143 146582960 749846124 672852543 499496387 56945920 438512605 443094212 388740229 791463319 51884581 192444125 319267937 553529214 204387572 798671961 775713810 358386054 647931448 378472765 756952385 954162083 479870110 904263286 215234200 609265954 988168873 9445106 633685412 614997279 563762250 513696778 454363415 91144494 972933372 190189647 209184512 865046867 449618745 910796993 656652116 676193124 968649435 170218274 245758129 949302119 943602626 787252475 43509882 35709454 923164953 651127156 518640088 930480412 92389039 466766340 149020262 469633590 774307535 277369172 967142839 982804694 112119532 353272700 534799398 194625523 871444588 157521848 571394640 262719068 816227437 483318416 793882225 285251466 394029743 861007044 479502232 874812812 84330248 274787864 312711773 272287688 101789629 423033464 626642529 548672535 152643979 546823440 481893461 619787069 381430092 518595750 752219192 35852478 41305816 835783116 890129177 727554863 821264212 108309533 965939872 948613602 474937163 32301890 556834494 6834548 390386033 531315677 966702317 238648504 443531434 918363262 548483954 302079461 830215435 449713078 718405246 457066293 479748473 142797610 702727438 844607323 690409278 159130144 675099835 333031831 255587044 651451175 827384831 652258625 668102623 643669557 852014429 162633347 444167859 434640017 222156367 971955647 439335779 729304041 765351409 95660649 601867538 389099588 455264086 165258890 210466185 149593147 11406163 634983075 464448485 287720579 399783903 771251252 479814520 556889193 420675658 340084662 889185922 455132296 892012834 160997311 140491129 6891986 588066197 666329503 739655339 960599037 247557063 220400782 248765471 980051722 26214612 488767931 295357935 179609510 117017390 857898871 935760462 838778149 429637288 975638688 891561291 433000284 783304257 449634656 423697780 759059392 498460538 87570723 150046703 628805800 291229498 279534551 893272524 642027487 298061436 765601228 311024880 303967432 722414328 643718333 919753614 214835951 600978777 340634172 139486920 436264382 824137860 976628894 526845885 884163338 851534134 556977580 938003093 827612667 115276757 711339736 801694384 341457917 438178873 479773037 536862006 200338918 846347614 319555058 546231891 457727615 533441477 412356808 564829537 623852967 390824770 701647717 585221375 285941617 370381971 214071315 190180964 550208700 968745043 657459044 355825544 459019342 142702839 580656300 192201721 3851251 777859879 16851359 844248365 442028940 504486482 483099352 761590372 733582692 964093194 60407743 988179250 655188763 707601385 465387362 631730205 710079037 361099273 609946144 720438036 88420776 557806302 871632427 621556991 637494927 34238312 415280349 574570171 312689339 669839465 822407149 490660616 784272502 2269052 856708871 158780578 744588334 350422744 549459268 225224204 481699784 495984955 637784969 189334559 446807138 477904473 139913181 757773673 499655398 315185007 317437853 442435972