35 22474054629415
88523660317972 16677747855959 7588013874552 38315305971126 10097012445002 10212782306752 29384310395404 24884146459725 13388605203545 17566547472567 29203207385754 48549509700424 37693449483351 72645833907926 70681260157835 37804198968397 83428189559289 59685058934788 98934596671204 40604363851297 14565891969676 75883232156765 89210431102563 86989683197932 88790738144657 41867231098160 58703958222915 88911606686775 16965667829473 61159031881568 90425595215027 97147957026402 59465036588552 85163605625311 67062666787554