93 73
660969497 163492901 895829328 253402362 835032583 210237626 49857192 302514900 781657639 202249301 515379969 429551226 369251034 195516179 332432485 519350718 30322731 894991125 877892882 399974605 194486984 386284696 102898284 341935651 374749596 35273494 668795428 367148547 870172108 882480441 409500020 981940524 389639492 933313724 408590309 932940823 250049420 587408295 412469379 612927471 886123572 870115126 231441853 177421871 488693147 603202644 620354348 205924487 512116416 502775897 498375410 350380336 48598143 88760952 372964942 450159482 532702041 353619354 737106939 261976111 246096587 238297956 529704535 30187538 577350920 887211440 302363399 26329678 533901995 39483469 656897865 215489594 693722190 27868324 595847856 418786445 549516925 441170970 919548274 413919545 873641422 495579461 843526819 181338418 745882861 245918314 666396413 775392343 68432545 698828189 226254417 2381572 839232432