4263 336910
176722167 852484706 924046056 709219407 38731640 159194102 923008021 67980527 15863802 574494416 517645487 304230161 508101258 887368139 561876669 956979106 811717736 48760407 757433577 367083404 178420397 712893580 646236028 970146854 10034640 61451258 964558488 249845434 595059235 286528770 663071179 279771398 249943899 161755630 349161704 545591357 668768834 867250551 101255745 39625748 634143721 618538870 761245766 573985141 838436459 765656801 121786608 515856567 836351989 906207065 873667699 408531965 401783317 279001967 709158162 249267421 836963909 892882249 790463880 986332080 110007761 804829186 254038485 248312970 262998703 5440461 813020072 978018500 537481542 571416658 32655723 475160644 694498794 308322472 845902391 27847055 708759775 971753001 11757517 188407603 779562205 381606595 859543416 21534361 982519086 92328053 529219154 92367542 405589446 853728931 409175251 932182441 24190677 69144928 917378058 640834436 790607623 805701026 755003486 818659828 768024765 508495699 318747865 926892373 437882832 318053906 718934128 311116624 331427205 578214133 622586667 226560287 92514352 214823299 308931963 600269710 632141333 42823890 699761575 106343133 666883156 1771690 542605253 735210664 931377673 311415751 359171981 188278303 419314292 904405825 176042354 934549296 58803117 272629009 47265950 35964712 262880095 476471921 822405514 213254644 816873205 254162760 601534082 897948607 549053842 843041059 443882145 115380349 995117805 17615053 539067293 346226204 660555216 270868557 291688702 457863175 224010870 484050743 51287999 392335956 541022130 476082625 319092962 642076958 196053651 505588633 336220568 468818947 462380778 385954929 748277094 547534658 537421191 478233571 320826479 968154365 553647106 210512584 487055972 367615557 804762951 544030808 719165243 433468852 377241111 852752435 180575595 779110295 800063613 625085759 262487279 271918078 227671093 711312410 91899046 447341440 19351920 180382941 612582898 815773875 807977634 161209398 921218780 826623637 696677240 671302558 135245552 297622353 626206924 359405542 479236843 606422069 210327384 866054077 921323069 773364150 980661180 708538988 471710516 367793314 466974143 902009317 507039473 224035849 277518599 734577663 298200972 998657 613651789 159457683 861349728 934334224 931992024 13495129 957255438 689865684 648472026 37897091 390959471 167461560 776329584 597273303 355386199 770105526 991908652 411327767 133994656 710380528 590414651 241811033 255294050 989438342 250091614 301046835 164596810 964332875 136757353 732183034 225478003 345852349 398534844 844071798 460856638 596667647 245110911 337797670 368402821 848430185 204674864 678199226 624303467 428799546 852283540 85982646 11175315 496446552 326757200 164325778 369678702 65656094 983682047 958092818 732880043 881547225 69973841 797377509 782006938 761675718 35120477 881213024 803784385 720772116 382626136 479981279 130640242 433372569 22586168 955029885 167678197 732219294 71290192 162468055 615571624 786083354 268736892 37714595 221589008 381599647 219049317 72791577 88988369 966383122 993652046 435099184 739478942 581974781 709256492 100146977 640670311 151637057 321269863 364910738 530740022 527246734 233748727 31195848 589312211 959138983 996337874 524043884 790491616 838428709 723253726 892805948 679849255 738044799 752858279 144186815 291292486 466520408 117202650 611645073 634277981 648284900 50781195 581721140 408654290 77941961 64911662 717363542 858578349 210010656 402685134 648222827 975957043 199139352 611997557 110469166 26593877 649779265 143953517 532344307 524978365 955100764 657307371 930810922 260528715 239504854 75824152 869279334 920081798 549049686 718933161 29925555 747622991 183276912 371530310 545903944 628210856 230791870 256670666 918498363 64039531 799659421 451454966 372370427 464042059 399523619 532812173 452221416 539416487 66123779 813633185 394523602 555050765 482679831 259195478 601903028 804056935 205884642 934187391 59895650 163048042 850592935 94390199 106671293 642414899 68280435 929462997 163478918 776489511 473374081 590653305 944345555 185132365 43993347 81684116 637711120 456602187 212117367 293559651 470860720 572861024 681798453 203370582 681693527 506540188 366395347 746104616 956632283 741051200 22624916 889404032 493248940 383132212 654908640 931706743 992430595 906570750 522530371 838103055 270925793 236428310 18277424 706068560 524841254 766642459 559172036 753776267 722793236 427014862 949087635 957217445 909890400 943023542 302763427 38005894 505761443 638054684 673315842 264892622 125948819 336668528 255669590 914012934 804949686 542811288 553988538 416976102 248073984 856280789 173182923 537662605 273510195 438063658 542578378 679147866 336714801 674238086 488944861 679856657 743690433 193765335 567365567 225978349 919895366 283157728 416701641 339783476 730582258 188102409 507583157 99014050 332331242 222074126 244514971 800717762 403873572 698797493 647389859 148050336 773124266 396759813 397025771 757440441 935542705 983189494 308482809 484878855 965366692 193677071 852923794 409805213 54227490 634531496 428834907 287339774 513141769 863624176 156960213 307843238 415191608 395795406 808808112 805838087 666232195 928478852 813837688 930091189 311161971 429170136 516717670 179395414 654576743 773984193 217089142 115396746 569249572 312155963 541627213 179517395 811105237 422030938 231286004 995047661 214397994 977331973 404000810 226495757 277022043 924671448 160230200 266921715 445242818 499250664 712953305 958682237 456785637 101762158 484809700 139721789 845509978 41101961 132532275 874161443 739348787 655125397 682645390 761264471 205670054 697936928 896989641 312384287 959775945 198319577 502609456 692663056 531727862 493608633 769413812 513360816 757169920 617515563 927914159 638349414 335368580 676834571 609441693 379350497 422122165 242212797 963498722 693424418 289470440 302794300 989136415 796315680 590628497 331052415 725891951 787603579 272912965 220406311 234255383 999391235 437296080 333986054 150270688 335527758 469311122 411800980 125794612 608838388 46456410 416822672 37650007 254991503 797069176 23941252 870003779 389646003 279395198 741660242 506342368 297859713 12044945 990542581 54071634 692802463 368025456 110282619 512044440 710027754 794450104 601669664 535368715 373200397 268731553 560763860 544611071 777865773 121775272 470245852 713263185 143640269 785770510 357188534 750075245 767864623 239413178 667676937 822449182 866297122 103443750 942397561 153983656 13598569 111461725 436624066 341478557 143524458 680020175 240307840 187422287 402530279 648200892 599332861 926091834 775497443 28228021 11375410 780852784 903932607 736341303 754062892 635072907 572013604 406944150 760070742 890160705 176473742 557078195 512517387 491399225 118697894 170261031 882275423 990120977 976472211 159989576 826259267 565253887 207129166 212963304 515928979 34479401 653598599 588955428 67124362 144494690 18660896 710099108 566617748 657525875 21111785 444574997 475031529 548726058 93518590 805299996 898149162 170901126 609696559 342526028 459082037 609429135 347366989 249262579 348784640 155487738 824966116 289537200 963904579 772203301 157544720 799462662 776078660 667114970 720521027 759653582 825575235 713653791 632736254 865131593 26761239 678576002 630670075 93890042 154923540 845310269 253689209 813510419 985648056 500522025 565942274 992598152 627814066 889562337 759484885 608782688 612931138 677578613 512820656 720776039 38211971 892778159 347062483 226445399 270666444 363280031 3821594 854636317 192951718 737600869 20201965 71370489 14747307 797559305 856994156 151453183 633443561 2162264 531718331 387385838 311992349 338742913 100246150 677035353 287226013 592669057 206875156 690276941 705369200 580007854 649571309 803564988 572306126 729566563 75264529 266415321 566911166 251241039 673103163 217362166 6233256 731195992 968889499 365074561 395882503 15956685 404185 829132863 492671828 866147270 282700158 168230012 142269503 188092663 494254279 274003826 936131600 252041355 95507245 390516678 214554678 995648254 920702722 724773273 743396385 514259722 373594890 581920391 622147463 17189529 202151242 328555816 962558465 108868687 437830326 160533998 639565583 797905386 944701955 13531024 189015328 135197489 620656304 486537507 172614067 789139243 247226966 527398533 191756615 740672661 328270981 894328145 221088276 984293513 903652064 800689818 49482259 846326145 519830988 653259013 498928714 776292875 594993068 681066890 805339067 751933497 409259188 721079440 568849801 594729058 872743477 259394012 940053343 67724498 478035534 349184782 612052644 690148283 294062185 872278634 622964849 421908119 332311073 70262125 762477517 271490504 761165083 789756222 218520880 82941908 246967837 113384469 744323584 971892758 63896035 244549739 292033484 9259973 692448797 364201693 217778328 244855330 59823962 42695407 449384586 635162506 79941105 939712813 752810828 227984235 413594613 14821407 631535247 727095329 190423387 311884225 580925845 550232227 352320875 93820129 851049589 12768631 847778745 289082519 937373167 382267552 189912935 868444195 930980435 4390967 999231128 729386551 170651711 363648575 688391118 553896673 976657853 70007281 911236612 337055011 660172148 98287739 946827323 505365039 250933440 552681108 299502325 228273285 71428084 958449699 162650764 318622355 914095276 715542324 781320213 130698267 597649731 532606313 474648072 228735014 792260786 909118314 114554033 920856340 422918477 891796890 872964795 573281302 373009116 835179477 275358005 354223063 939030047 42455224 860361575 597576935 153304462 765418916 198364313 908875715 433561654 104465068 446931026 37352026 487600534 700851550 527447690 62773174 423449801 179499313 686039932 500532914 459246810 984471542 35550675 92326610 389562956 599003656 412853908 420142512 829637464 995116110 609031060 900324719 941915427 217646933 992576884 770990691 190576276 817141327 992856190 211406395 730998957 736837193 882731460 450835689 707771404 796709008 135472608 695444503 986952016 421420168 865000605 981984563 564704174 153955145 322506849 644723110 472956172 185681736 803553866 368922996 141212563 507634702 979201644 631515076 437565631 587789316 261636539 744024983 391429469 225155242 535966983 75457488 585698480 987893204 872434960 940601522 717171400 513207439 465363824 840130447 876315747 868205538 943151113 136614594 39124256 281532554 89327662 130438017 709305384 7144201 705390034 552112345 493792044 802364647 934593957 793884905 168679864 879860076 493617534 934394552 298488676 65440354 128415912 683417170 336363903 125149802 739568027 218937255 255160525 94363039 707290856 1953817 230153318 585429876 190430008 139953977 111162332 356653250 956824405 893036660 282924851 488865502 131919951 398744251 743567674 80600207 280545876 892673529 26240255 955261895 418754019 610920664 787228807 731308325 482084114 26304954 844581896 247999913 609408496 877118980 193390377 291194651 245046835 869965670 453457046 466628434 523901125 888953437 581903815 673299007 952924410 140856518 11423542 107850945 657351544 439134146 344199743 972928692 279964691 205181742 293717134 324692010 289327103 600241355 936444964 7373739 482857949 469794374 292887170 796323873 826678151 841722694 265414835 358571506 347611168 320696796 837745819 775952607 317045295 989509155 457035121 652504570 799296431 617947352 5088958 649379419 321231358 470933658 210763557 334267614 347885652 366492445 286956474 573998422 783072822 747201046 829231049 172013259 928886021 491414007 41903916 92834800 428267544 498234341 520821708 342254121 415554381 936102625 138551544 825990962 55030683 747548660 848163616 298758813 350241815 60655688 366108700 602473667 857132821 222242369 73709611 520935452 60643735 201797879 358843653 285782561 980051504 70335911 959928744 973838856 866762190 258389791 543137162 61028182 875960731 431404264 527929363 679892017 212138039 182732917 589570753 34145563 803231433 169680006 368632295 464306371 935930898 81555387 960607056 896341343 489934195 37918268 472344103 949676245 879725723 502484426 32437071 597621722 934172679 5214448 52783842 634616343 443435676 333932553 108794861 422507459 562365035 501418247 872787534 734163480 826558137 246502257 627987289 490450097 624986418 541390420 347696783 830559455 257931719 467716608 714357950 820626476 339558804 18152012 128540505 355750792 999125830 628611127 711580285 880698009 58102527 950377167 705721902 293222373 824536148 54417596 866517587 970675293 399937631 452177897 209789593 708245415 541960341 602169989 730329818 317931670 633422882 527062193 628964559 648663192 239267702 135324397 831300450 661379118 962078031 689605748 406106566 833875773 518246602 730900603 563647536 203191188 899683162 899359366 138800922 150765553 974915250 217733055 822240941 488751264 501846335 822639833 982248240 807262955 478090954 493420894 647018762 997140376 19561943 133104698 849515299 707744304 660858885 30843348 220428378 264111114 947600737 280696576 288515088 533187161 570927724 311199091 705019560 113819508 852997804 822018667 265316602 550050000 394888840 941706954 876382517 321155075 233868578 44589681 85302789 721460738 422330435 712677600 931295801 931911378 373082132 152352428 694922604 121235477 425646052 250496683 417701284 962683162 880605999 654033309 326302905 498032463 994533522 775706020 671217543 990341176 961209429 227909336 280325052 347290668 270914706 314197138 718593866 797299885 86652429 491653637 184332343 298750802 862222618 383746974 613733748 894103953 613573424 408498414 641014733 795611956 68291211 30365664 697815789 393101806 443662098 221124130 415537062 934970564 658472577 710265380 477936880 298843178 976915743 421584208 630548264 404753012 350933892 13677940 741725133 582010597 17332703 256946896 454987883 13775747 136389675 82158999 147065898 63074023 236689103 708404964 433118605 999439043 820830504 796304666 705942378 380208083 698242948 224353559 240560734 328646592 180000725 959142822 883842708 17965347 451920388 892107641 150669325 898097440 616650341 472867954 333089131 741354491 3857090 711896240 893308229 319330168 454615619 339576810 811553122 370604910 308606988 550388294 404143492 994787849 977949095 675138152 189794714 299549134 362062088 99441716 423532423 830022380 211468130 576467544 240018556 579465427 677186485 839278877 963041348 235255532 319190912 750882045 655113797 491562210 706428719 741517345 876939315 6784256 352923652 705518971 167191059 877511129 940048267 749180976 647067999 696442470 114578084 812834995 416081824 378928893 253595493 678734636 558640800 431022550 885533602 939735391 268861683 129197167 709446447 362172171 274846664 337690635 560669944 815159193 907423022 699650203 650900893 30740016 46797285 40574373 48880334 888663069 92615848 391684530 960216182 479302696 522514084 297512248 219884570 515638656 215100235 422412607 914456239 511225009 686985497 106583820 299426653 448752277 681230129 21828454 505725757 777503227 764055731 658879122 779960892 68904068 192030605 777359803 672684270 697890537 562339735 16519451 658757892 708710960 805644895 87224783 99172087 601967455 407513334 443166424 530186818 347149808 677127382 330712290 923570253 477798256 505488141 933863323 549918996 87967309 317461338 279573170 997918913 56115614 487934029 551886785 707508402 681640899 982947135 806422651 129682054 72537738 82049199 963333284 659256183 549031514 603280849 227734631 272452293 683590110 529092937 992059499 345108488 511704066 978286943 720369506 933608364 386545891 798663436 228927008 347430736 41488726 437037398 754611889 712051890 263877438 936819218 608678500 714910727 800493534 33314191 706634571 880789166 775906939 755081537 154599296 222943205 893566779 681221515 849658412 429108989 162734667 669678502 703166659 552252787 930032276 937505500 980851153 928709033 58102183 147743193 549122822 422168389 966569519 909183252 798275381 643771831 71886406 684954790 805037662 650611750 483663847 227822296 450143363 173474547 983782093 934434224 972790160 606394434 724275041 194653458 899387817 119933425 635240471 815116063 742054090 97767817 920627082 16858021 932740670 945253105 75602003 769827388 198826055 996928156 794449997 940942705 273768933 29187991 505541946 907818889 964520393 674330045 539579479 427027818 404404150 117160130 742864139 367609069 393183516 462666447 643123025 155428296 182148848 715773857 635751579 33647901 118317454 22220925 963382413 864796398 683287823 533913419 144755098 428357935 365137181 266879369 346333720 527052097 707118992 134121360 845086025 843033259 27567936 238855173 643713374 152681049 682036693 74099713 742461845 136635101 217796450 315379509 741513196 662036039 15714399 278087361 396816330 541594891 769316532 501508743 850449604 222294656 998322414 453097354 189540092 988460855 308825172 971419572 455560813 282289521 229440644 70527876 187108823 620614469 771171711 273814420 303660599 97221039 454620506 209732802 694019524 273444098 292569621 84321504 761093573 7894782 334930096 23332529 181496669 891559880 601139995 288488606 910394662 141908712 969971135 105020593 356787657 999772087 665250192 114928637 567377391 45442080 539240959 435074789 849305359 722941836 978592134 772418898 652564844 628576877 370525020 147920957 832768436 676025112 889670831 671363944 943556772 357515348 222265595 850488704 724963819 760889860 468649145 161426829 337750648 789454818 924575354 493893478 202543317 216601324 415296842 710652623 890932946 368845927 135201756 168607824 867227136 3146382 382696097 70537128 565668113 863584318 665157370 726035348 909888938 72343513 361692868 671058221 879309133 413975995 863623719 421470344 981536382 484134431 41860168 611824703 671147999 92922704 881739108 500560824 292928161 32844984 640897980 453579786 622026771 320816981 919755467 679285740 939370907 88195818 188523734 472500391 984946144 529295041 425393086 790183878 40276924 618510082 610998137 307930439 969169503 25604405 720059303 100899419 240027246 482500030 747270687 569581447 133450883 695590926 43618616 643148779 236124485 588549774 41645648 773978026 839750072 365578903 449371950 109510928 177222689 213966431 757995106 787251319 864845211 385265404 264858373 15655080 780229605 16864396 270921406 924285881 350933704 317495611 703200353 672377493 207710291 68645028 454099840 989707616 777145070 317407350 38807724 929153647 139731137 458781215 720260174 82824397 315896311 28840429 190363990 710599285 4475866 321642850 38071744 506391486 635377850 742822134 785147316 21662576 448459244 946017840 19225693 516369397 360248483 633548426 341977067 305361276 686021494 931790221 440001481 430707660 86646768 719572595 459578599 341276896 657857909 442189880 450869053 102376188 669152247 226155390 558355432 385802589 961087689 363815723 288981258 772667553 797499183 289067067 533474680 405181751 871413379 663065974 19311253 221234321 142069667 54650293 81769091 202682235 512137868 26966107 217233964 840031616 427310675 390198700 842167446 68874060 805823829 784008846 598435177 667945378 909271860 232073151 400076687 169150151 571717578 945756696 165523544 109431655 355963263 347462156 874957034 288341624 363826259 789571205 786855113 800753368 437030656 546319695 714300907 595379427 403367729 567929473 638155154 713746458 528328065 927245566 436471884 752790827 738266644 995431866 517502201 194570938 76391816 279351241 762489195 348187127 909826433 129387320 863116825 281429073 372582655 944668309 31034625 467066443 969850417 184741198 529358278 461954558 839657375 999175217 45277678 17708521 599335590 851815328 940717236 838525580 180926377 714711833 192582866 671982539 53300484 94563845 736016207 518106935 117009426 862055419 851247152 579677423 240450354 314339982 200073362 463365233 241367524 656028767 843766119 301663729 623399938 180653328 409120302 277292404 463645476 544684704 920793341 148087373 823117560 621045923 263042268 809135838 869914799 771360540 829787645 484251348 460320676 921366457 255564474 994248019 345436495 595598847 270989543 566303647 808793157 86049669 140402736 14105788 982870715 110641497 955018749 73128769 132490957 682414003 370158470 343318533 443884444 314507353 981625647 692527877 787314511 690142519 238704475 698446863 70725685 700245427 136259574 131681022 41653167 926633377 694297135 924651975 852765193 903249355 875015334 320648039 164563103 489016161 678919129 71868910 897807873 177624032 497925365 94905492 208584796 752738511 268152588 76130152 979624482 343986626 589956655 885711711 369055674 126034347 119557786 988544645 316232553 949003470 34722702 522243911 887848763 665969536 967931198 263842315 808708713 503207491 473463963 144616019 737726330 12457102 566096401 703882080 974824062 964689524 91495468 768214270 508395042 84439492 732497840 258305984 87513721 640649127 833772730 605067373 686365715 388409209 940799477 7613292 879127369 976900068 34399425 667966744 765823408 5073340 673689858 462604229 852219124 492190108 459388272 963105506 529662963 224027120 486258078 823054579 448696116 214516541 275443984 77245086 923405062 678196662 352270441 141034011 763084372 870684559 663677433 668194505 251192868 542360340 951952775 299380534 656658469 31191121 746684065 32021874 632931796 910595371 740692836 844250129 396872758 200850002 423639308 476388749 386790687 190332174 882432550 828174258 648610206 681910077 789716881 173432777 49166324 64277939 831212050 81845311 422434137 164150082 62854277 692703480 706172061 660520053 952363208 831904872 647973794 181689347 839967136 799239482 117810099 98031340 999895428 150302432 894882774 78516525 282307254 614191802 807793522 422604772 140496050 133790262 691581986 896289165 857417055 708932436 289484298 242162154 622027493 90233501 897017581 47898296 712198529 318742962 840839468 534442179 122887327 763911359 916735282 763836424 234071243 235489096 349345926 273403423 264934197 975838746 871311839 533238517 330979328 570513589 3981956 305905052 910045712 97263841 128518530 313478812 53519204 178927297 454207749 951947662 95078882 612822191 694606284 27004688 284411181 809706682 329023463 462786593 462176740 599937188 131255648 282309823 334732902 407897655 72943377 816487176 976425116 634881351 4573975 25170998 433296166 141856412 465676212 268288048 547935899 124961343 283443544 732424822 614547592 124474404 437975354 419499687 1581967 930932055 352259433 190209805 420035002 576493212 181939064 898035794 688912726 228228295 424165176 500930336 545768743 59905773 396189490 353971580 823694680 850710914 105317971 365971485 845426303 643612124 891295144 180191832 666104855 3121292 13214885 152201339 368226560 193014608 843960808 837059085 881617044 462337648 798788946 280002056 340765659 865890516 710240326 772053810 260454926 305496973 569785525 842372429 423594102 470505036 604537847 876297029 982073122 340151618 1336654 995183442 988442347 52966341 945400115 871025727 619822735 894527512 863125947 881542313 243942467 367478703 516350241 188935192 188700357 701186693 136089219 778467451 95989787 551483391 941127753 54214962 689252537 70517563 633160205 277500182 579746510 693462127 389899930 985550466 442350959 198924741 162389579 461073013 755622561 498666834 494930755 321086730 698417801 260190944 410489207 737283792 207188692 408560164 67945594 689492503 187758156 412123480 831064296 90470212 800623029 60145683 737277046 565558923 194950924 651625553 124003259 908462025 804544661 510468308 476094073 886932878 302518294 576399915 947747609 897119212 660239518 995003201 607717063 791967777 864209938 244758946 907769269 787113767 29233142 867598463 500132958 678725494 774777120 949127810 364514736 358961640 16480883 404096009 634336954 228630829 427882770 525942436 82279660 440066260 837495014 791688385 647679589 498043597 435609908 895201701 243826293 777580067 418350993 384796020 481033983 373708320 599264335 274856589 162975613 120514848 499826374 221856932 476116867 539673190 393876028 343922062 51329198 342171078 916645346 484415398 518270795 875543554 296168673 215883553 362958349 811006585 264746881 114019400 862275474 97667889 802576630 914504113 660815435 823754082 415748858 442002358 483820662 682369759 621225896 958675547 740804651 351235172 683026008 110634785 638780470 468390298 291782874 743801451 150038733 142245356 944269031 501390442 178128565 942030818 816644682 288893272 321276429 159563809 850807055 225134327 639173926 672939103 759730133 60135849 970714745 47802112 653152718 43469400 666926018 302247053 18049980 554145651 221538270 483072121 369618795 318955512 564836641 823234804 165150276 178425751 37403108 680801125 738144973 362733723 227457131 949552044 546408758 957802923 373327435 930867675 452125671 251386632 44983460 91360481 699480826 821964340 499748452 571804650 761515935 299271428 963669018 288046650 311453391 449788196 564180599 550408414 452351495 560468818 77414532 691369593 234409058 37683718 433095269 38023880 967985251 285743383 212365472 659659262 833019496 236820015 186596928 172780835 356549334 98244875 353248042 713750817 36694716 84565679 282218808 897808022 121593616 705717231 401895927 842774057 38087746 634451836 552245443 289917252 896091393 769824619 468694115 873028877 295637638 206108997 581614437 531430168 198051351 70652462 908734043 527559429 979492537 65223260 663112156 450225311 810777768 372505852 307205380 956169349 162714006 67823974 456725410 84828406 345980172 823630535 24649562 977887328 942378589 280287976 77683274 481344053 559353679 371530877 48150539 182146170 774213289 420876085 584506939 203291963 220498604 549941634 23808189 91994926 397425641 30381374 713274000 271708275 389346372 349279414 956254627 643792381 779003031 667386890 99940512 192760719 845455178 725094838 310876690 925361265 673955261 402914684 431708340 518748704 125654246 675619918 633930151 868868567 504045126 597857508 264253250 554040465 65813506 582920941 223273272 589928853 193750748 109768660 995788520 320562687 20523020 547802766 835095913 995096165 604804371 611921272 737691059 263391350 943917909 143948502 965706118 22600800 5534106 370769636 43733736 193489973 213622212 561262943 390611513 441070990 901171670 835927691 965306748 443625143 288642967 35908506 173881173 261204848 455404897 203281658 639227375 551016361 516981294 783136359 186269941 795500514 686508174 545932413 913458551 577656612 641645539 858673412 130338165 646401177 903267919 714297868 358712471 675214844 579725981 14600688 902829957 782675754 174758931 488959069 785344002 817855134 403673855 621477274 64804446 989426381 12563669 854915417 434561311 877356512 105217053 851871909 155828394 194333126 49794501 976275372 665544317 666101517 839256534 998126149 937845464 605157646 377729882 429656406 378325469 753532959 376049074 110074100 631301463 656194782 238424586 341028570 303557034 357821570 463408480 659168553 732472714 491501512 605561745 59918938 731876883 100205431 797422034 117518072 169809589 458748284 637351976 947323353 717214615 378559047 730396172 232210187 556149696 235859244 703392181 34967376 982776845 418202581 939669381 322979179 888909659 268468801 647947744 652136620 472310407 204437741 817929326 202079316 762887787 458925228 309996756 888568818 670276004 477421049 62950856 490433084 628603460 800457208 693784997 850456114 626952057 395563715 942070873 661170730 694899182 953090022 57721910 909810936 822234393 400625359 40676512 441269848 819165827 418801339 507108869 76860611 507881408 520303563 872141391 476358618 2552862 478436248 973088637 746013871 846629087 335168220 664652234 838561648 891440280 669357425 435833135 999457392 370919428 224793816 565321695 8928891 769591045 281212398 484485425 565856373 36216182 297156357 212560303 656332939 878815966 610515661 598144915 874228048 124483636 487291962 808430734 496344251 271454711 703769823 698701788 411401388 53500561 201497787 130450300 353290085 127048321 19091450 244580640 14178207 751550552 328552511 649624674 17816154 520715004 354436926 826248313 214561406 802343510 340783814 414803059 171418772 981152747 147706643 776910420 991426089 43909566 823806891 326927424 401769754 475694449 695730198 813218421 18810221 660315225 558090126 656357634 379411675 887591229 198113516 483478187 334401280 1136749 542393792 678562196 76096912 522850079 3909538 931278970 503929550 264096717 914613326 772596978 909445799 358354305 131395919 567770161 441483791 63341602 434472371 586514963 477996152 356923074 75355908 916109354 804391218 853090269 40480472 67571247 751544574 567375621 614557920 777478928 891884200 146807497 883979242 527716948 750180189 475677600 31123987 37505835 536183805 638644893 910999177 949920484 939922066 794757257 866936972 283288228 340192722 674481091 138057000 406981429 572122680 116873537 255034500 308963245 742155465 693691558 238690216 787976137 161832598 59493179 379853255 170813813 341010269 245817553 781264188 49503588 618234513 211908445 464609483 204300332 171146121 413794207 661971545 645080054 410283582 739844649 577512153 89884254 813602742 923051726 657708444 100086627 640072192 341465843 233731498 168187600 385076627 703296859 206029398 608647005 615234870 826403435 880094341 581650700 160174964 746176926 926898773 107235182 155359475 787548957 979530468 431612528 991756917 608540968 598608740 37170779 189440677 972666656 36367771 803306202 911370819 441511642 220549583 143902671 383325831 687135568 728499308 239644306 606257489 700229238 81242701 561624307 253653120 750577941 362088188 393000499 175873190 117155143 800354281 56738226 44711285 401961084 956346395 26588964 57769416 98541785 862270882 385206783 102013406 729432409 961089095 993745741 154890795 317428379 202453008 94184285 213011881 533349164 144970215 580706572 912970547 532014023 836780465 241653950 513169902 326222310 377030278 906302156 127721727 409449220 626161531 141079684 342830258 169920691 352736374 971527771 340240991 24367064 392281417 465143361 439872739 781469946 801726875 902513360 465509536 305067318 991466004 294193019 235520261 627559902 258046943 197650266 926249914 538533942 444960214 235072908 45808988 604766581 248457304 815061286 801069789 636868745 166409111 634014684 608133800 735924695 486564261 489207646 580444255 222812228 683992473 346330079 610233463 238274548 552626235 360176932 61008244 421635509 848152613 207214628 685034180 967731521 738995971 956496837 821944036 296313512 572442752 148300956 872668855 260093018 182976417 125627833 562675357 558048658 674091842 590430651 541222730 189448757 587034696 254718060 652471401 679073482 299622011 164235007 769068851 664001008 104486198 778430569 623665206 808944888 625296646 518768827 636825744 50786411 951220660 709106513 567817753 10787249 749602412 265548391 80547974 219292379 873796537 557338663 338884292 690642134 429772637 473491552 163964206 807990346 155293717 910921146 286995810 399512731 567983044 353151265 194359100 206556312 671597908 413041506 916922664 625457400 619275254 420497307 236238834 422873032 308765525 342880623 910593911 999316860 612912735 294118884 427346581 9844954 930038793 677014972 877327067 166054943 730856175 957434153 529545987 648743476 241925615 922606743 184246999 162842362 191055405 754106769 371603355 562040818 575771788 912398643 826608359 394297449 15658826 235385485 385516006 285866699 246410716 917899320 984914029 845897380 389750434 313266526 731655334 409993304 849590525 99842005 104348504 423151723 164996066 714172941 311530529 689552652 164820906 682689522 136813617 373344858 311911936 506661164 327531119 902715254 768370254 867576270 530954949 288827127 157934800 193052156 260899151 813454252 455341873 90827420 134958959 638966861 260420100 552669310 742962048 57935425 907858621 610646897 179678053 905548818 137720870 762589310 363377389 295322737 821867157 628663953 136766086 461318151 607501294 757504434 578414698 440552912 994147322 527767723 40954753 897873637 61489889 470606336 895992963 81308865 898320624 574370134 512793222 462761801 50594941 509205966 87662783 486352756 124449153 302634532 484004025 720537733 449906275 124844735 477020989 512830990 966406027 131995859 397713078 138800321 219117487 902437691 55442064 639929394 300016413 149122655 616949929 286428111 572907534 370358993 730825434 913258120 380981189 488400338 531443048 753328972 138131824 953397272 752671586 245886619 340599888 62954728 931552434 500904273 300491102 170383385 433642705 480978324 318868870 166635181 302053863 532410303 394432849 749653171 994103027 935061362 870808352 836519023 298690896 493968509 380694107 76132010 192733427 335129478 47360949 954541413 987377453 740010230 877180009 471026674 715039459 989024745 874415127 889602987 841730756 713425000 79202414 762523290 144394893 956260052 442968029 738587654 911924253 226644622 496673146 674766525 725518971 555210368 56338806 435282874 980825936 339331721 896982920 502588623 166958109 669202761 951575807 761534458 304284656 848305174 824384242 962594183 666491604 654266162 545594275 968638411 566170822 5810855 920644756 917372719 41656053 875034135 512993388 182967755 102899509 454223489 360738639 767393309 467110799 188915340 94780668 133191656 138334331 631456978 958101526 704053105 127642600 423083771 230850503 925043217 869675259 193352790 212836005 635601493 175588526 370886204 739578752 871099130 122402511 760400949 901162103 77366855 432867701 243391621 49862440 154187034 37903031 61211516 237142960 6671478 242559651 738019036 318921028 490140698 605398919 644027594 251716752 18385221 47835004 146004480 244817735 163180492 755412554 825669899 319619828 679954043 75650542 691250298 885485880 150543049 669360086 741139500 187308618 627142467 830385270 505888795 541649673 418692258 251011369 277588052 561600009 530623504 920780907 547753178 28816425 998739563 701719881 875885193 283667284 796609910 397491885 916714331 361126140 469310099 282579289 402499831 382245274 142700082 225578950 165051534 292552642 883834926 126958967 307963654 438339171 516709386 682268051 880809988 80040142 320363612 997198481 439892232 695750543 278030419 423412562 196226162 630492667 797177124 189700695 414005813 632569944 971635672 78420922 950973778 612284928 327817531 72444482 598914396 751569007 706064546 225171574 923829782 290673292 27293072 67872873 424373843 238399942 293376045 144978549 128144034 687437388 753061521 655877979 468884671 786792788 421152913 340012629 123521068 758424199 254022230 492385158 602812727 926255422 845035294 497725706 104240272 642871848 775953024 947713542 644933815 366467850 180549313 551304133 275869642 306299059 933355052 308172044 809254519 536135734 794355276 577314761 707343018 617574565 457207912 750115849 170023673 727785581 277132842 897664621 257795277 345530959 481433975 81956202 697244454 776942516 789123156 54198620 400814443 514751512 902556022 100953485 3303720 399328330 715339362 348428934 29519819 70440704 787262045 491697431 685951913 178454503 767040214 615693474 462588496 779868291 1428560 830406969 967785122 202194520 583473167 292196591 559047162 972344509 293607002 240893633 422792550 143632414 138547001 554727427 874669911 123113823 886113974 896928978 601270924 326484231 42801251 374144035 84408309 166998110 903943199 257216074 472898014 850405305 786952579 330441713 227092453 845782643 559268402 271483987 198219082 718320567 345076708 253376453 707648723 576839603 254491095 744946665 706276918 322025322 216422398 183106855 833449601 943701202 830643811 530503007 642408240 185046781 37043960 282559253 57963259 410377389 841143911 421426839 994594258 22847069 997375722 206754986 94348294 553543899 738384500 69458121 853466678 410451534 962149489 60232761 935546735 823659524 450220197 419506801 588380751 189129847 695162564 193198042 776158921 693106858 775284362 17788411 74336051 761853476 274591035 241903049 385459256 321509557 749107068 237721415 881716670 904661943 866387531 717123824 834790619 790333974 735345143 720124552 256080606 37470435 799565064 991097695 459308984 745751350 335344889 391768591 526828165 339059070 441961858 32712395 860093687 258356812 54778699 367103298 686989539 665107963 301926476 894300971 404837302 853349598 860315636 508703069 814693390 551645057 704046206 373958307 478010632 859578082 688418576 58166785 494745706 259974479 767326207 217694256 897601465 40634398 64970672 296344883 771019408 295068320 964843462 140741680 868296181 383262182 161292284 226309204 879702011 560337169 850516592 947319294 869929405 774093441 648375892 470216458 621080866 468604460 277035405 889519107 224915304 254453081 558015073 834578101 287867762 941947049 626063739 342319714 737739493 401176936 857256585 391391644 295253794 467432920 372918495 343283864 383355726 519451813 673204926 360067889 954742582 405542710 829289639 512890108 739817356 387179470 438904614 919792040 29993133 442370666 189127644 199479536 398850486 715603958 802701727 354724415 532102245 126920134 953941392 14934761 109443340 828086479 402394099 185701758 575464232 391709928 320610364 848981524 197360319 801721918 14547680 175936753 68001515 218036969 537579697 922588582 737602783 896864302 544653061 223337671 300940051 261601509 932837121 587866273 737294297 646357841 436394392 110183800 362293403 815742438 132749235 558511231 950528844 816538352 375942147 106743528 13021130 162977819 72120110 171291167 669398999 955551786 93427736 718856658 703635342 955722385 664061610 267303081 812066215 930246178 145577647 173627761 529328157 471088777 902487363 23934672 454266020 765638147 558042178 778110297 507502185 252826347 59221905 377832610 766184282 671255594 274112963 971241218 63019082 807352788 411588948 953847291 199966191 848295472 557279896 201347563 18549348 498171517 714601952 744691331 882512099 625855651 202659891 665249042 766424873 521406153 592397389 2129290 589854057 351606948 303710708 635612011 919053039 507250988 377468918 250248137 232271905 724941297 270775224 369559978 436807694 714511139 718594752 503301278 690592914 253088183 947623835 748133578 477142673 373529452 609243228 654294866 305247454 246045787 873234826 792380329 443177109 802096254 895433833 359276750 784359125 943821930 697001411 776126047 883155771 107291478 292782840 839349946 26051044 512772091 898249406 158470845 891828099 42701709 831301281 490269979 718633862 363614504 859489186 281378468 656729586 754872642 385214549 402605999 440192580 111112978 592358869 693726295 206267111 479285970 102369555 98307630 610104942 360240347 332487716 295273861 771377055 878460424 890899713 769840092 74519364 250122619 480593793 997207262 649934682 486725852 960274139 739024956 298108884 900808141 275097095 702895036 869204150 931968089 613515811 310465736 424872464 125603421 800703224 218156258 757278844 735584151 966342779 59843436 985344594 135829948 336414858 977270437 334724259 113310987 706815796 129016683 671577922 7631782 746016635 699957773 371977710 532954924 661575803 945019135 878792797 451889134 160403744 939160439 435833297 113113470 449657124 544637606 978033126 65338696 654651195 954374072 947155269 985344197 684113650 90592668 127510797 471744975 194248476 392669251 670290341 455501695 126260516 28502298 632066213 210517744 10273093 590876055 764591534 962175164 763888825 531629828 603335740 507463744 80026489 972303904 225954358 462837274 610775058 26121623 302482658 431139673 79507433 539716720 942553727 828694348 799704248 449129752 804773219 406807504 764372846 76585461 460721553 676302633 11988729 40738438 400368207 416229649 455198613 176956977 307574970 730672032 339201387 930000823 438092174 91082535 929213013 129342276 762503026 431489527 604066862 715670433 189542552 812449599 365145925 865888100 530626986 715279752 695129027 890766927 554534485 429265952 513849531 728316341 872631358 969018247 932160275 527648934 493309864 462624389 289936083 785705136 830654759 543341604 522678074 245637805 140675846 173650442 233773187 329906699 444157206 643249485 976711440 749514412 339937005 409581152 394879378 174495590 394252237 644378708 576659147 680977562 580746620 888337526 883086619 799992614 737769844 38354811 530280229 388083967 761562628 26159052 227191114 249260574 700947505 510436839 770493286 453379985 915187695 112374330 538356282 64285658 983312530 25368030 776069218 851949926 691053668 30831921 761037568 205668573 432966354 151961818 343126438 120425467 275499777 281993254 919357411 948073308 787980895 423612179 115721093 787196890 430550830 793327651 235187078 475480770 821767730 137980721 273003641 670454329 644964313 62351514 135368881 894321854 291071379 62730841 844453002 750091779 155514526 328774375 225366162 488077842 553924341 431818449 479619186 288119403 904019158 716001603 662495051 576069757 14391367 613856203 196944429 258430332 306566316 897321258 109776652 229549438 185652941 74597093 122647920 43022060 54901117 104994908 737162475 113544818 757519551 633014033 967664420 167601399 123170009 608002936 156749569 807977163 148637958 832450456 132647478 195784673 409582482 262112524 746065694 299100074 434650642 315278047 715496187 793035065 358180886 301910233 477853708 853614220 136519198 555600927 278938253 594755932 604706546 872526081 8558667 239595838 576139657 843106662 25934295 566275366 907747112 340813836 9740679 120042341 96412633 759719453 692926242 700348536 181403967 347689793 598364039 347245267 67957269 893075607 991842335 63462832 202429190 851763715 75476164 68238013 226295745 219588234 890434899 22920154 369416679 351033897 119655192 870967754 483139 717187512 646497285 439376160 958908262 590345026 826427218 512049808 769160566 544903915 599586942 860797603 555391380 498509460 493147059 378499513 191039956 225490304 251018679 229745876 385710441 672313111 555124138 305101354 244996293 562166115 425208058 372334952 751628793 654015789 812924272 905256014 773346805 691774096 396022773 621223892 71379027 36255729 562605020 825555954 914083033 693921407 492663184 82971323 726396708 837180811 618490276 134726181 511196131 552905080 839551105 818400174 933084955 676272909 844561245 973744198 145406253 659254750 993101390 368800831 84489492 405155148 591439622 803043223 857646645 711978895 19375292 476290036 590788130 511660266 891581447 765380966 119688829 823642619