92943 574958283
438395818 557918735 317660627 570253604 701041934 25181720 105303635 904839594 737582880 457148566 855459528 724505596 357461248 249512976 154348746 605069259 647669058 549320686 734606639 882582404 537394195 684407551 551181381 992872263 573992743 531730752 223908175 54761349 659157459 326381307 884521490 595099762 751384420 72803541 739372303 245345070 594332142 39025569 598132200 395593853 658421544 547941990 475092206 763705537 837473804 92041177 823429483 939289312 497288276 322203965 89624346 310590916 213536918 637136684 587302158 854566823 887057633 930010770 478332039 918100324 583191606 121359817 432488150 628098998 566015822 522447350 455177678 749102902 137569453 849218175 915798268 385443392 224407792 829658941 956252451 169138026 287506769 288092317 53026068 310541328 311652479 155906260 58201338 769225040 776645242 728045061 161127716 780006904 62523919 125763035 421023862 584053625 320739967 964358211 679622917 424684490 367959189 469006070 242376083 464086883 287080117 732455625 566512656 216559435 423593776 634374672 162948664 215503775 86105629 676607630 877282395 502973996 198000178 512364733 248931377 146374425 19579085 277039659 536941304 672690225 969283262 174010022 424626686 95963194 802349314 495256785 976131367 682186361 273361548 669273681 654758606 737046888 626973273 995293335 503961675 701370216 562537305 166634492 103356040 563383552 94551504 971773727 431920195 277358077 586247286 668998034 917034156 422181986 379918300 394905845 768944628 462512279 374431441 213155973 691061715 899719112 679871048 748983429 458459697 395251964 146221537 986831932 624213030 910519730 37747910 445716052 608408875 123516683 840662043 689410692 930346618 105963126 949836190 543411988 948572106 538956959 104796892 604529618 66243459 670841240 920426171 671309248 182917745 446923571 705736813 342829746 294120379 978780883 994140313 497934239 409784310 849456929 394965495 836534073 73365904 300935877 416053383 496704845 979317967 579942920 159891498 980678175 137621387 738266779 310751778 482155928 162610068 255652060 132384700 728303437 679869676 430933788 776522929 540649392 55848837 669502694 245453623 195227701 425373738 340438317 160173572 542348265 532966455 696614013 54186217 685531904 757470198 463316468 728156509 670189561 524859822 638421545 101080175 668971209 521120302 529124385 868602788 818039091 835703413 45074175 635494441 699667042 397093524 987561381 88198952 31810992 746503254 318126583 887466827 866607711 267395762 517535346 56822171 704570781 797515035 980452060 357458138 819044877 138439231 389152804 183004004 72282213 923495735 18810555 723988620 965042278 870977268 272987577 860540480 927821264 804565070 554412912 943805798 148694023 173591141 346678696 898436234 654479930 844507343 275696243 303342670 136045675 639082512 36340843 413670439 740914765 760080620 328980860 578216937 867995608 144131980 492924436 449930157 876488032 848341476 96415518 262376395 92420415 692628679 871264040 236823281 798591228 17354338 195822724 603723027 669947458 974074834 221525084 629761049 707937045 667628837 633906986 157366286 724837547 844623344 624301320 419592391 810217872 672654719 719062068 754270323 438874977 518056521 221585815 704015833 97009281 445815787 629946430 78231910 69328666 952902309 81289851 870508934 892935959 271072137 641179461 123037987 608257339 943268743 127056016 720054999 421029952 558647718 917432678 806216130 600584633 821846934 92651529 547075116 31134136 663689741 103501202 841812626 87437052 507378576 315011632 926049505 547708887 510788256 82270158 231901030 543277206 748978916 533006904 535719120 939872619 401087530 757708048 537723938 350587682 138867981 226227996 293092517 734897723 704466389 388276182 108667496 713351086 97167367 189732371 671741143 236709554 730193972 137305073 435820577 374530173 26441866 418741859 953617793 681846433 978017247 935749990 863735396 995373132 678921498 125171174 901930765 284689289 145609716 42784947 212562435 350020184 716340358 280030576 227641628 390658207 908660831 647905786 919410301 754895739 823686648 814859024 629301665 353292089 422966652 398900269 941089939 244377988 667296091 559109360 802840528 965598670 7608778 606642403 667712141 859321466 193619741 280243922 155402378 327151629 702875964 48974806 75846870 564823759 468472592 492932869 979988213 449427186 42984523 272355342 597786305 60001655 271409733 945228118 214037533 391400175 561011847 207016142 457562887 745149374 420455892 644205886 919550498 773082371 322474714 413497148 715797024 851762224 580712156 283142694 356088128 168974136 816322661 648126857 625330714 617323843 312253285 579839450 898625164 794900874 221965109 560304080 469737258 799430828 602326754 763298804 349562492 398277228 303554120 568210877 360038723 199327465 109204207 927872895 928318751 603162568 645869864 231180596 275445381 329477222 32194547 663218395 499161007 406158303 22719978 498514216 1646606 750066729 111889852 882722652 348191289 109460591 766021773 169990576 396957560 265047970 112707868 654113612 759728648 736887721 424989406 383200941 417056812 600499824 753268190 377065285 86883615 121212888 260981601 189616197 163007261 296917489 660359586 101652424 60291829 975451044 324792122 116130870 972441768 105966629 878727790 339912501 962105934 49103171 786958180 225796228 39615369 122692468 338046658 797339730 938269820 3273452 415256397 568527742 396146186 931681924 785367906 390927459 574792283 918887003 425015696 507327421 127776177 298088063 484852116 366867216 805344502 444425818 398804313 647670951 255110928 16086398 153266698 402333281 152295183 866215119 119531213 737688637 742779434 476256428 696716276 644602658 24409592 525196791 644787296 594068932 883087432 487795817 491173752 8887586 371180137 271990745 958224496 387764819 953815647 368719987 952911750 122908230 313867615 237659846 689335730 925455942 8697740 134479761 794387098 572844855 391257552 448618377 494890306 616194015 450106663 989744659 685660164 664619252 651755637 138910432 303683719 96918875 418666998 881570108 200025233 835641538 493943832 905088638 840598737 108111104 119093182 414985549 561738820 219954124 951907414 453397530 811662802 753727199 263943251 428557845 187625909 416044484 241844886 299913099 649278526 700677978 158991164 648216821 411407422 614572021 827597717 319888341 827042989 17184445 235398585 699857220 150660833 7092287 21776892 666747988 453246775 825143678 254360705 170459229 509627598 265077318 393660860 218653693 588675938 401925765 53583337 84298987 127800552 251790092 853993829 349488159 73397293 966312168 917437195 135434403 408599624 313316158 561148383 630659239 302516967 862466187 312460376 279006685 173001228 761415753 537864027 549174882 815214908 650668434 657642623 765995153 491929293 694231267 775272417 412773175 891395390 210289458 439550712 361629751 678283395 504502393 982206163 814205075 617209605 613753664 771113569 436961666 570154753 640768086 381838503 300969972 233855236 657571080 656602875 995446454 992272503 734083766 97831789 489728861 400670390 548877532 362715641 767585875 670630343 659296547 231701669 206171963 327935084 385098192 656042022 342556817 924795488 36520156 93260211 536940831 563067983 436268531 185673130 245406633 978985060 817239112 661704016 705139460 7915898 641795381 603253752 867510954 309508245 64559954 661232668 233442942 938069320 318217580 698395465 329308059 111492763 252283840 557118729 947700317 457965396 791520084 116779137 113735721 469399216 886929215 537780703 44208902 643465459 282097896 359603144 15898763 576768165 35569243 556883326 585095634 81239283 594086061 208200144 656732805 991022346 120729829 826054120 984644493 148878507 175595789 243529397 928489122 279991218 340254727 616798738 71588567 428415641 260550881 686595755 425984553 377038447 913309237 613096564 586949489 846081347 146268955 928531982 741745921 844333262 637809815 822473606 283060528 145161302 752298536 247902608 665763689 685981627 53009771 170374544 49062234 120579211 940099771 479449039 756211230 942741452 845635746 930666449 354354384 998463567 693144897 448905103 140897419 938051354 497229169 26664419 680285365 324059292 545135532 823634655 21821791 748488144 963910180 377240055 285131440 74293483 17625117 297943936 25535324 128402727 748029582 826147331 92661090 210873401 527691081 588745757 914655577 360086423 61754895 947242444 513899529 334975587 296461637 485810315 541423162 234922084 330407295 286797830 56458426 685031598 124777057 974978056 235713804 480235373 840741460 675087016 411034079 26041763 401998489 806167369 12813310 327938442 567733144 865326602 823929493 925040852 572286723 527626459 62719167 841828557 306355885 895946384 194836283 266589422 475617127 623995870 163924171 824936985 17761229 148108423 223910717 138782670 568707456 279907054 499050593 267634060 925037812 573445410 957705116 94248755 306166365 437126758 128442293 129921021 563852898 932433185 592222875 747508266 846827667 478916424 463216045 234269962 561950820 539297145 208894707 668908686 861808665 929140400 619023797 7343146 515125193 289783219 423816787 886739761 220720266 266032694 732063207 692561650 775212748 33877076 495723337 722111038 932641951 63110607 379157870 874401967 772090644 795470320 410871518 824725687 398798002 244685661 66562086 670665046 901757316 654009910 826850318 831272952 158202348 816107034 530074758 956586488 333606135 777313280 598202658 480102018 998910175 323993165 40346359 330505349 921874158 845996968 292382682 423575746 965847750 121980972 58658676 848958648 290441518 799341243 618068190 144442521 538146485 266822356 182424407 297626835 835874376 861394264 354552563 208128540 127921816 748718533 324639825 64738586 948503791 6384459 432446587 115950284 715613194 655618405 11838871 743681699 390800561 762006900 509426676 544162853 545652769 385460646 774326816 92110102 223722401 821969636 98734877 685289300 863919740 242394953 359821717 269116350 73707178 499155997 491841092 500604070 383672502 513744687 38175047 859926706 964645989 827874895 535132085 114666824 427758523 586923694 45717964 123545942 932630674 670955896 987470037 830545787 158021984 570397170 264401194 87279188 750233501 41906287 113702439 289058224 468553889 679676397 613454923 651803449 487395482 289244047 500229888 157671822 762346377 416292399 179884803 841837091 621199515 323903579 542148113 576840590 347777348 249521896 309040603 546577180 389444573 791133421 364658081 271146289 419741567 555646174 244930010 90983858 948345946 602279318 705878311 756685057 961409391 388397607 69250084 859967288 30879445 384606019 636037591 29325344 269139587 375428888 969762344 127075324 838538912 16464103 73020815 647016307 681615716 92996943 696785703 261894491 835859098 415505267 491257232 803228488 431761851 943727912 215798222 970375155 604442676 377749630 594803406 590638381 597307071 934535173 996107818 35256662 308044782 60675033 991232344 700025080 55435935 202525467 204480450 164202798 196221355 83018095 600590920 968893875 92736251 900239169 352132915 212780235 754205715 209002853 299372835 477615805 371029770 708404879 258237053 865111232 439141247 957181216 944956491 262092261 786726067 751226643 439408730 928666799 169343494 237390058 326579092 895600056 450788241 795850685 320517055 240265333 739993242 391952541 582442397 199088896 44877647 32042143 139300584 683109684 335669729 875231841 480025818 58109356 660891608 554075809 622633722 28852406 746261182 114282263 470776197 418055824 185132360 908710099 95464601 657060485 668030431 454491170 69863468 111755151 306256521 389078356 478456495 87096138 791824652 80420164 504793566 440184991 636096067 189189589 620897032 746097273 254284110 838274057 761546940 10406302 973330025 386036489 343287262 925490855 771478191 534947183 609817989 761063991 734585524 491159387 618200631 773621671 918834557 349404961 334096459 642700986 602158158 865050997 41089424 376847598 19709860 841508075 50161472 370399704 312339609 357660747 349816300 750420802 655399448 677190833 943508760 892816002 86065681 283462299 655072878 254893491 976234755 688360621 152141062 322926725 120179126 655730661 120973797 164941598 60323244 208203280 642194818 149175791 222000307 280161679 55189205 142459155 334036809 197046107 492199953 869214138 611558673 202976084 583268280 774730803 531723711 265300239 233786171 568373431 728140358 96526662 899049407 988546669 56086492 18779369 147531840 577799395 485802324 328064746 152636573 150986606 965536306 855897800 216982890 22262058 537011583 314458211 13064578 553570797 56207116 382192254 768887035 280537476 797745272 565389814 84455374 588487021 922149208 639798066 621581442 689881215 695972488 913269520 46212421 571364912 380232565 205348730 347906668 606620169 250005256 17305872 941453851 541210161 904837078 666121279 975680399 434427341 618666819 852630674 456562562 420013285 34386075 818633791 348156831 130962018 155967338 814436087 445940964 875808541 991460968 935496248 345417833 996699128 292263859 141031157 241012176 703502620 822851381 937840387 968098433 877409821 590081173 873938807 807871917 399869244 10849637 40252659 248301738 428173334 806998114 914753522 577507965 351843202 860915041 380604021 382198148 579416520 403491531 546860295 167607831 347120796 129265703 599427958 726812102 716985571 611747190 264115787 911554326 424079660 521220297 233242142 81300559 439511359 732846251 93340394 986404223 767585892 429254081 836395501 246727946 52277958 104718829 858455642 571607429 347906449 125410345 430147991 244013475 751894740 890500832 189114333 910694086 6749659 419895335 502409823 233126840 687212955 151921971 547417675 469059045 591048605 250517510 151495796 341419685 47192931 790283352 62928099 239544670 484176887 528297419 360883372 761967735 174206681 734025083 179641556 85626628 493357237 267651834 489432475 944133334 706863346 340525621 411835519 336736715 499710035 3522155 615350265 347900395 634666731 345588432 483633837 285557467 177395536 514726893 582240680 742078552 503022405 925848306 113081733 668625347 97270494 54977165 895871381 136192832 180774955 102766104 509855861 36343934 482218277 838648082 369881187 845022211 38874373 773792898 939931780 876460625 441554143 819165367 535556223 231680532 820455393 294493200 44228866 56302928 814850200 558677310 256352546 90858493 591879303 186781065 638446743 341082376 443343448 57479628 14594125 978625826 479656260 970409607 566618595 929347346 437409638 788523971 40399247 364628881 987208391 969565437 724904469 545754758 473381060 558405424 162809408 921860900 776994220 623915612 334954823 274715540 639822784 118599581 3787651 223596918 340390816 778497462 462903393 159133171 168001068 233650297 764924385 302903354 716789628 764289349 831964935 981219699 473632403 756674238 229617091 9297463 861263330 631864698 727544827 265644118 120406232 778510504 915334504 815364429 324541442 211775151 587383352 910130878 748889780 928899445 159748126 670266658 183711479 214612422 223054549 24167456 223397257 616998375 802398369 968426030 959460160 512878486 427886740 368554193 875183919 498374545 631396871 721467462 537513951 215285406 650622835 423307678 545070106 901595868 975599994 54950593 20603465 129749810 968728114 181596136 508958875 213263857 473813025 344237152 516262458 634630082 795696866 6175256 797164271 315480566 189693132 634397041 88097445 76112936 667490226 280403689 806853252 603667413 420504378 711722741 397858417 564568762 499800057 168277254 238619246 662731848 826956980 400256402 448247194 558637387 960514745 327364199 480367493 175933531 676268754 778980244 984032747 861952559 369517265 123910046 819997666 911400391 127672805 789259270 325006203 745559216 328214254 608017158 259360714 484856244 813427773 284435574 991460121 165775271 538697526 605895557 629310407 210441655 305480769 169904730 553882912 67210531 869076860 264074342 459100119 954446304 193070442 323172785 694040758 666880038 356020038 815827826 435995320 195998907 548126195 391770326 707380658 171953100 8405547 500657248 458136515 772267166 609711459 136342265 144699004 979553631 273787224 562382053 598726781 118271529 538767533 997847249 548437689 689934159 955231169 963250158 815050290 621381901 94765031 179456842 890428314 786616598 423650253 143004725 502955582 659346622 804695365 781405451 351226090 738745482 129434849 75252289 260793409 245365775 290364849 835916359 142960173 281220849 725787116 19478283 266761120 228026314 978606663 765106839 567337199 120450966 600405236 942326495 277057189 60127097 88236161 203419805 774837614 925005151 573477715 980723395 102022956 574468389 448955162 841257428 973084238 634264346 338091655 96881382 164893950 930529364 338989784 877240969 669685337 356056981 776970807 845146555 348180268 37976490 11663327 486966545 653658562 171612025 217977946 485920784 823661266 538785117 157616864 387059427 790446226 814388627 468204668 15811400 249087625 657599257 533129490 8567220 837357740 71222302 345724588 680008725 36911916 133913766 886143732 368992370 182659270 293001162 193103974 461099266 20328883 340674585 931903944 650932310 46791070 852578376 860498489 273711524 380024290 841566256 105902704 986988685 235534667 229865236 946063299 714322379 886523889 955588847 192546999 367225209 892947674 664995406 565408480 781842528 993242095 453581719 447014867 610601659 641127161 896864095 405293629 684205608 692409412 522511792 439112840 176639802 515773343 438702132 177593545 54401195 813587394 318170687 305700533 38929083 791878063 143418457 847810723 961736639 468283385 83737329 827855254 862323703 497624647 308031936 493911494 508673540 517930346 964542217 130884948 514333336 600163366 131739149 190833172 149568136 917592925 242218081 827720798 406482779 897254065 866363674 541822928 303271403 965615752 967202485 25730375 505690929 782710301 39707123 348900139 932050758 271536336 901970167 798714957 304472831 597177353 51651885 314739968 760263858 532325257 548034706 580244166 393841383 602195511 562118102 483980714 981249323 669942443 734950702 16748504 632525967 475501487 846923802 626193283 68923026 935724676 699954783 233868917 956374636 165993547 824881026 899820750 806485933 956118117 371384287 13579821 573524262 332248167 400874716 995597535 898318034 488972575 816423402 84366451 37410277 622362841 949463920 366719248 784423128 567835007 898226695 826664933 238858666 91359568 872717499 585737016 102910879 199535022 571074680 340647203 499343667 62414632 142982672 517582501 759386552 993449858 150885853 463213849 122277896 240412134 315888186 716629818 956827233 574405041 118105178 268731298 792423870 907677783 250930717 544315940 56951878 802241125 64916901 249405868 993836325 862103546 634217587 959479000 729397548 914456912 948970975 660468161 492526171 657954698 352262659 306816623 804356704 50705185 324509462 438986755 542045101 55579513 285401877 495076823 269956695 164525953 308219186 607204661 65251871 815557155 924808582 959636263 446978879 857470442 408491769 454895015 558356128 298962435 142216304 688562086 603153761 960985847 463236389 996650917 206289443 382112665 546566815 437717713 219021322 576442176 419645744 22922925 677754356 902366232 648484184 996000599 30598957 685813246 5894236 952374609 30014776 397444974 210159821 830596150 477300422 283700766 654490749 983269172 28627801 807946298 147834509 328322482 934129217 895152828 350222794 865191781 884778417 619541190 877827433 124142130 3363943 866580615 848113917 964838336 419155292 396815543 314963259 793092469 785626504 542878449 512938601 468177151 714488974 844364759 196260217 901432509 41015083 875432848 214504877 78028165 372908639 796039832 68941015 908920100 500298482 171731732 199196920 262509579 361129515 454917025 894000652 533738730 457544028 233456831 333320943 590236064 624358698 612184961 853685999 152114276 168610871 465537825 188973158 624526272 202246494 511309158 827148918 585346419 698715785 380281104 757077215 37421895 601896427 478470273 300745163 387195046 405978767 328226689 727032339 849866143 925241556 277207884 945624063 666770868 816067622 521952205 178077303 628437612 955254071 699002711 935422015 85559859 78630043 497706156 686643252 70530638 153790911 201867377 569189199 815827631 496710299 21823481 762224900 103411539 881835436 731384308 809059489 171607728 349939086 619866126 843504077 995400390 458268486 63610429 545077434 200118253 416543969 205497198 925460004 463393289 232374261 617884258 161417237 919004215 10241259 218851287 422780744 49875928 298555719 982308291 740190809 643111366 335512493 408091597 788679068 360666226 420152367 435557371 546214269 580761525 326139032 325723682 373945977 346995198 272994576 948638305 955433476 715466985 983369705 191277085 122461112 993337943 578925162 961602017 427978444 512007704 738682878 399317443 428350067 450693394 760061317 441672000 976274991 255024230 937935631 485957708 209001022 226670019 634464830 818915352 703172311 322103638 372262083 846222745 86019664 927501782 898429960 718111633 877418852 759778010 217932052 110129392 777763636 17290281 550846975 312714070 606314183 418665689 861542703 803163 598130231 26048320 336573760 581850798 440695014 500923990 235968903 207737809 814969561 101375271 580668688 740095356 950096699 515061842 713513791 662349480 509451407 808229334 805873673 962372495 662385496 957361630 84115445 169742549 481574032 54581542 733441669 376678561 572063517 446574671 692954067 365585914 138142755 99835629 239630788 517659537 637995875 788382164 491042720 978970836 378546189 312602179 902775499 310234066 998483156 750725706 472651249 910393074 364384023 410591865 91368784 120342631 926287488 164989407 36223745 913258345 521186886 108930652 752225110 562170337 141124195 153812018 301196588 382920138 709499872 196840252 315089196 230518855 183352749 840529 986898781 479146726 168628872 578123247 323707412 781139509 433807445 947752391 33811334 812154210 736577229 414721806 305267443 875110780 724520110 407313466 97577921 365979174 26904129 667777733 457308345 378462927 328600398 295048970 518424507 546874630 553234659 246363924 882286330 183725708 439324189 357671970 280658483 9376687 632008650 995540495 242697785 157812602 22542480 754053978 831881437 760823171 633130368 298301732 592916740 112333890 119593892 391005060 760072896 744040501 727341931 310347035 795400779 296129422 601903603 481761063 683910155 294156940 523399216 161068157 713043083 527538899 522231 391630122 536617058 378254664 525233609 943287207 115614066 408325735 618435904 652276487 505148722 620051897 393772583 466247623 566419152 735596736 191573471 789774732 204018752 387491009 137995040 327994925 150150536 978154997 888974773 640076802 440024883 768340572 920965634 955117746 191268122 381228708 897117314 675718268 228130531 19473320 827986519 515061229 232907276 647413638 191910798 277748636 974984159 454401124 840522735 732463470 52136883 253599891 69640090 349776934 978910479 10946980 35591894 150738759 608299826 19066773 395006262 476605416 482946717 504321702 293606558 79258779 881562926 971297991 705258740 57644743 888400252 50588142 969334579 265649795 177459958 540781436 880520767 102541591 98762307 742927476 930360174 423110058 45352343 732491780 775506284 983451828 357526756 547674592 254425038 752566918 797624576 15618496 39389040 41308170 544742261 999474410 543934638 669271965 91582179 752358915 976309711 693319481 5577688 584615614 782814278 329690884 391413465 248297353 278570591 90270092 91241963 232699837 785420492 861277930 849656246 6915758 873305246 615242742 216135003 511469946 173488450 167674345 257196015 734916133 440076505 225378211 1317391 263296296 540550724 876997875 156620654 647847408 759260301 495676603 436597592 965466189 484577281 345778862 362186222 359719276 556628785 156650637 517051922 414394963 17725117 589886727 711302798 886971944 61294320 183872381 752053481 107225468 598497052 622529793 789524055 641882351 885543115 301701048 166738554 620366295 115929999 215243332 290756133 276299448 781986255 97752270 536084905 455319766 146714870 285524523 24300800 454649708 739477245 526911354 781207077 921691899 4805925 201357433 391860505 310139263 144182677 931579516 752934602 259107839 881353664 731697209 611182993 238793568 121305201 530934775 585947675 45474689 691925630 146033611 980086721 392234951 885947988 721398238 402176470 444512951 826104792 676412747 520491788 570968032 993327936 169365934 744333226 81949934 811397087 752755030 884133289 947145635 382962 116800700 172804948 449613253 999811884 79875088 25936266 140038607 566310819 763968519 226860420 467771682 499807751 20639847 68194900 757964355 706668760 728340807 845485314 889877386 837273793 549409050 303160221 619294211 827538230 665528857 486250373 335519214 947567255 915285108 959049505 203949296 448361666 426263122 132752194 88526006 155461727 83434636 39442367 803710593 416093958 651457970 20645914 6544103 187514479 102346564 261256536 718249106 637113505 378331487 905280549 693700587 788314341 90838742 322601314 991365594 133445196 565028036 712244755 154573284 482850321 846770558 817733455 145196911 785834873 113380304 931665307 570542144 235485320 268202977 651790827 380011334 423232512 62634381 850223801 290922232 451582049 410994098 255814689 273735447 708972130 356269842 888018283 826867817 144891716 681468144 624908079 201418036 874164034 429852919 927973309 742015407 79500066 958379723 605205749 221771942 181130760 435836104 246034583 430629563 372824022 793585330 50434857 192743162 580539292 331512834 308162514 554636509 714384197 630095890 881253560 917033716 112506642 912180690 577949882 81058825 297822537 537611178 74683065 654307133 766412541 665442639 66108445 337222172 828874232 683560378 51475461 216963009 796368665 122596555 272198043 645249351 727676013 219823789 713904372 15794825 946842880 522585653 169661431 141643438 890818250 808076158 703433704 969985765 901134345 917968772 573783524 672100772 172733888 399035439 693745506 35952472 836112903 929799271 26772476 146748494 879402536 131717878 816227136 839890369 730982389 826688888 6231901 86400380 754359712 854983420 797444751 932320080 232163781 31979645 113433734 981391714 88884529 119705002 310212323 97186516 787861369 465793003 223746882 886699324 190779059 165784722 896026144 196548532 649998545 573146973 897920718 179391589 458255645 984018424 716236388 162784486 41800730 577049831 60728100 381656471 141414592 945354826 526237884 268856820 689666985 823716135 162825961 593815927 839490674 840217300 505703939 201948436 587531995 845186990 661649532 135242523 567130962 657039365 931016538 735927411 710596171 184023588 160411534 978142853 809110441 230150151 377317526 770902258 715715202 35966939 186091719 484165033 731889888 593176976 948267668 177869339 546632440 577851606 823099309 575290474 884312504 909485199 102296845 832443432 200891934 319526918 66902207 864086566 72039925 132726891 567299487 105795093 741364399 199971000 73225660 321796733 610930019 37333948 281327720 858474686 947607526 182671571 95955463 432599631 842748704 904554320 688956630 419947966 878917123 576615170 12649529 600302737 824486523 252303840 955563047 370009206 278429367 163116663 277655835 211926439 961283344 320392418 881923210 455284584 415875138 789457213 406413073 976043448 560960287 540073628 519398251 959504543 963896936 687212659 910764680 276374562 461459781 174451666 647981061 237762432 470472571 831097049 599217937 831748258 667023711 279258825 851986435 636129814 998737172 339836307 339157669 878242846 405768463 923319521 924182869 437495083 280435983 213330482 396914630 307537160 5580161 532053263 479300383 226719038 212003359 589018952 680611471 375724844 514751221 966619395 991931720 721083882 848224375 175888242 739060010 891853798 867097028 557164880 717642497 934814600 565354139 299811289 523992722 398876050 530698635 854776181 388432648 685342816 766431400 756929676 967634227 468750733 57000133 720063029 751808354 940103893 518816188 562602902 35107274 986398603 75841328 988260305 225079211 466683972 91196795 185926642 767858512 98070135 400346470 79377498 355727598 813916847 517282999 312744194 965935949 515150176 105155672 345180843 80865551 438879514 757789309 879896655 289756187 244517748 679026446 57240163 800483948 357238043 752625007 648583347 371382081 114104938 602373509 162080012 699544568 40028704 378491137 517487322 242060127 683168075 493802010 953609944 561104110 536730014 444606441 102020596 454525488 660196995 664424148 720699867 924996072 614401068 886136177 322768893 967389586 319200379 742893543 424923834 265738889 215782602 767190532 647013988 524812250 52920356 448883883 636335166 942319847 653802175 441007349 151074835 906529304 240467418 243216436 268363212 307705277 657978484 967915358 539507089 935850676 67343963 651787055 630699677 715359421 66489956 58824111 210865477 85293279 778885260 857962578 586314434 229182006 768518903 776389784 928552945 257113593 365466292 798753637 581433959 655913235 381418319 643401923 12768718 306559591 737922253 866858428 939092343 880567678 641835792 299704790 848371477 176376775 550577898 613203635 11656174 195163920 737827119 36919002 332354426 168421517 840696019 645411366 46813419 252447212 127822567 847669789 448700730 836124568 931080359 519112675 559758436 219744193 226246319 940584126 858191537 70869775 292754783 412946977 818315753 388276511 268136063 905644373 237440802 844840820 422866428 424670739 886063581 299099804 565565254 885388812 740209850 207296143 758290690 776919334 499757817 338813764 586544506 263064411 997012568 513097948 209981265 294378862 272367779 916015698 130264237 283262249 894378194 465888670 410006119 736469362 903987137 442330338 75149262 72011277 47059812 688317282 13120925 850600942 125801701 382377138 158664246 656629248 462431094 746643568 169808591 493589143 331531719 6427219 922055763 333990057 513161566 829400953 728618686 308537596 260156153 273451793 257503524 10057295 597342268 893116945 344708348 310060541 68226865 90518539 441415426 168914681 33062148 199454991 9814307 186471277 34951437 446588222 256218349 65567986 661816046 161538161 639220299 861619733 129340385 733605903 471857020 202851156 879084237 971834010 455430345 30470853 910228612 762111280 61107713 821533160 87708378 103839435 887426117 550840065 23839619 987945366 320761438 808982469 885070865 752389818 678532348 392427373 661731306 813492852 339193091 859090148 310315785 444984198 168298946 321503148 68686533 514572477 98639270 498009278 913096095 886511624 208262037 835402012 112646347 492746888 554527180 794090053 749066070 671848597 907062979 184482232 278723720 133545223 643919891 960797007 688629232 736721473 875450319 696731213 713048454 615930335 921304500 578551436 461723706 569275240 661554507 915297083 740157896 521899126 989308453 71560493 73794216 477759149 637233030 67608892 710685332 714048550 335206508 394046195 723982526 126667075 740981802 484648111 551590746 393651004 525098375 706668458 142714362 871350735 586602300 229041529 290311168 785743025 444913446 853669431 248223620 538671027 826033604 195201538 427136326 422868555 667063121 442543558 480450698 845643068 721238440 976186610 251441711 952631999 560217811 477654747 454315854 168664930 67119251 401378643 120136834 616499318 106496364 236754876 663942231 674559529 703559419 804181155 499299955 577270272 879387146 608585024 667815025 391354564 598554622 988069019 323385001 531712034 111496652 141587456 21434613 254010792 672630940 740426150 896573465 930341712 498200811 200640822 610394693 803797743 61101005 386474217 552096104 689564047 666583210 917091747 920150539 384642798 13352695 198546043 687696118 594974476 94566259 276754174 182443610 473470820 381784314 167343631 819465505 106244008 455272316 467817802 745787640 209940875 361670971 229321625 590901990 4388693 131902735 347096517 679932388 989933326 998167051 61171236 141614824 533499337 179514274 675853637 425899590 964349816 82055204 540819991 799978262 3201866 734019319 501825085 596927412 224703277 197914555 713487777 427711866 189016865 257129271 996813118 390235150 157800886 379872051 294605481 397438584 583781822 867211573 385060692 378753675 464232423 365473472 775627316 979828592 610857875 691179162 389465514 196180003 887390453 531503055 652251752 641526141 935489412 729076901 726372302 65539816 647171251 729562076 381257669 541073022 723934204 963013323 375314668 497926569 779601924 184688318 250938397 982385029 217325678 57595566 590782532 419301122 754212918 427315653 566233398 437771968 597818017 165222097 97626074 490316949 867851687 61218874 308263057 859417205 323787609 702514781 980880944 802214126 474291295 572847562 58325503 121371628 549621170 272162039 440514902 291938726 410467706 498190922 488617776 553067684 150186858 252971059 434542818 858335954 932903212 496847214 741005269 450217636 725036090 363924145 997826244 275586033 18682564 527694013 19937170 801177820 32636339 675969572 756720428 122989508 576165621 152577056 378736058 153990091 260986604 369077619 242780935 990921623 16189166 482797296 177346851 840951245 691545757 931268349 727324172 511677204 743829182 225354553 972878861 484077422 69331438 235372472 202588921 287008759 768098998 71972368 426759470 464107511 678854555 96778044 12600147 547251828 32141208 22667059 548884638 206864681 675071327 128470704 723108389 256650721 193974355 346163134 846761462 739485410 346631506 833922032 815250645 766371164 12093820 574484290 706694616 653220976 52321267 202964517 250414126 519645789 500153301 351206369 806879061 128811566 23061744 309946754 371558488 69602412 224062437 240336026 139766310 709082751 261887272 612488766 586290051 480543539 111798797 437715731 217965044 953644718 467668113 69911470 462413990 318907243 958562494 771412808 963915017 144414969 240896261 302564058 874256798 659006290 962344324 520446983 214589930 268078081 632559950 222218997 827820665 147117152 160923237 479723489 610082207 415004907 164807042 428897592 444414319 105570426 913391935 350135200 93344873 174066246 685778051 263060018 859450336 848600893 628468676 543602575 259083199 421298849 267417361 460890615 982993099 197544470 450817089 478836278 674842181 594669805 65435351 215262887 160314617 695687474 489087234 474610003 672826938 53460428 876681125 520314642 7277152 587933725 510394638 447153364 529739743 67522081 378658298 495630932 148380810 733506047 363107352 691355782 392055200 215095883 71786624 177368077 524714763 780034130 96454807 576796372 235962249 473216031 942132459 19789173 83642575 678332431 890082208 63182082 245948025 542562603 686018268 139395144 978888470 71106015 73124937 94176926 663013523 61502029 614422288 633213250 67060419 927334880 434641636 819359500 11436837 247277342 414463970 148168730 461904542 578564374 587087462 306190795 880557717 308643419 99391893 417162868 505685708 983157336 406208675 228157473 676699381 59394984 597448378 997039457 640720782 415028118 877693388 686760714 703908189 269120531 147876497 260176230 953331878 537296861 494774540 707669728 631737386 856869168 289936135 800371331 749141459 29756487 929969392 284398062 893090993 720005955 583786628 423439652 139608208 750667447 363686467 819140827 837021181 990479949 516839315 82664012 646292706 660893379 177530354 334257002 65524488 989930777 945463749 599912068 449259100 197772493 396910310 773001285 295210333 672968254 423770144 242064599 738886017 95273074 322714261 368904268 709083584 651375644 920290688 855614480 800952301 699739125 401888242 697706232 288256767 752865818 46276810 572845618 912871353 117424181 925896044 118061597 702580344 11103511 818299161 591874779 604033790 696193687 706765336 401171809 720932149 967861335 973871394 457807299 607214471 784531303 271334337 601082393 305012698 516580829 535146753 823523686 540618917 673414350 133108507 853694483 603128320 30247887 312690635 117818119 77376508 227398194 756371546 792407296 590324837 814542636 146085592 848379362 861013141 457099505 925319070 172652661 38447753 642450633 649261511 862503373 81426571 533197277 30218587 90223861 163584835 105143370 987728571 620764985 81064840 29384064 490869583 868838056 309416885 294962765 547173872 640921849 391418073 992355597 708427292 767999086 874016578 909576247 430774053 623716205 43266980 412973019 443844163 72087581 456573850 515169202 854982222 723653895 600970156 173059134 189299236 758919901 178256218 247869398 315460720 347056203 310526855 919725340 556026443 448378839 324704443 135305239 595052532 964208869 624609619 795866223 127798627 259643883 237727133 543257743 669349767 410519460 101726517 601780134 342511867 506792067 886546338 906974465 559332088 186408998 537579844 398561444 131209459 486961391 351167241 322631202 768210343 635020326 288581173 544261382 419299759 405594363 33217898 541539181 544955726 176461677 802756151 714204531 77790158 817366412 812589766 194689594 523288713 145716613 96844976 702252129 878258873 267082896 638899431 70032211 619080345 752592478 502701138 199369884 539505157 647427427 992116899 317552799 411775494 189390327 482560860 798964392 939504139 629510695 761713715 102189080 391510491 761108768 506633991 534672502 850043528 978369433 296849024 339941694 753963020 701674346 170844412 40910782 124088636 191791175 409890823 70650494 364704586 954104694 373756454 566413162 397029781 549202810 795717267 911308768 210927625 136887561 438875534 422643074 231971220 406053479 623339634 272221623 632687263 427323868 209643744 426910938 520515773 115753530 33147216 367831418 875314933 641195421 658981394 517433842 218819431 286957217 987201753 242953377 273415711 862720533 897010164 175861532 681208501 791754904 624610772 867489322 371437880 739158197 990419479 440635583 84841792 874820528 211494020 578959712 882620471 37422623 344026502 610229456 671134868 8145359 121402365 228665479 737805063 309451739 343417780 725482568 705653634 333682356 570607702 302745538 909221586 174093502 725527698 888120406 508396304 270545180 135767417 689659400 996501380 818663169 801071560 111936454 247813997 581604287 357701913 760913017 963716371 715654497 388085423 64361768 472188086 854065858 253530916 618649077 522102990 963890665 275373884 833703440 928386185 246469796 623637546 452000516 826049274 85054197 600528653 392033852 471640827 698250312 707164338 931431172 754094368 301536611 436385693 381107660 503880217 68196506 887987214 197651833 939467965 933864976 372560169 130290958 776992831 21577543 56940072 451345432 554274379 195228991 320417263 411978573 589668517 291345545 671787358 690526395 82395140 196956174 282033794 937867545 500076339 196337415 809200338 198069478 934541456 769994271 453959944 46470670 813619988 996306137 14095265 785298979 981929127 807856473 494498100 881721280 53522290 948060961 764231032 320455103 883052058 833074388 923844265 398176985 706878882 253175780 965437838 68859166 864184948 22166071 727022438 150493200 678965799 881067395 161287741 511968066 8983456 263504999 36990936 342595414 988686697 389548222 446298287 429946016 688884679 103880474 169460087 230516449 772735123 207522036 86613267 397607300 562674205 536347426 307937266 845998189 877452167 269574049 853140613 825479714 651439373 286532918 448575981 576506609 106899061 546699089 291865647 424090560 398877023 223530917 347147544 32612136 538350900 994733323 209265596 816881738 18218606 627772126 848975705 691915501 434864127 265246381 107627365 221980677 951415070 283882444 353207134 610453360 830055720 969290100 941527945 64960761 20485639 642933934 355935814 272017009 771753310 645706419 699931087 861012071 572711103 29759505 30879862 202601716 207860618 73503939 405463997 413580748 739795110 13132294 123356926 327639802 766432571 48332814 103185272 487128147 524861690 360942291 374128295 534061710 404751505 424857136 708857012 273168506 109608411 790682753 27923527 350369418 110414865 651601484 860461256 140276107 799227415 61340411 896660358 341079375 573205140 501467406 118362158 535043013 775863577 62754319 109815959 655142073 463499164 367253607 38487045 411222669 193804509 421733487 164056885 875524068 507763255 461022326 902292168 707453700 886407235 483318536 802130502 668095325 555056148 607346625 286289505 123791267 477075800 214380081 174447516 407209512 7237046 768946851 924053680 391028339 755920907 121214443 251266983 949284474 172706884 18211805 535656788 230097511 575056002 581144645 838037228 528476199 555519153 932601744 750582394 403802182 824447139 32926252 946345604 254504790 128475431 449118111 285293522 304570104 651302417 154790930 46627712 532158296 177819629 374989378 231134236 844346592 499010713 65234534 972711039 896517212 514265719 631759696 782837155 706660890 388401983 800302831 169947861 597654558 394382478 315183912 186548473 515652338 812969731 467952198 426115823 667543189 671712994 349311736 626320979 699510245 680161211 14041047 853466628 408671865 700202174 386362032 456404500 542436172 981324754 5198080 853470981 744618753 702798289 124421018 355807573 774173301 58935625 14894634 402593115 828942547 748677055 171642197 116972268 710886418 659878154 163227700 167634275 208899797 578425065 148575883 779912245 678926610 456309555 18428112 404563960 554356760 575146445 668564782 602803330 392909563 374681548 676157915 460253710 651033034 41706972 885258242 674245807 41871733 967652931 792856523 870804107 917442363 775545966 260897770 113913426 172440576 535099704 123779635 787018001 457629173 748977343 232814972 529479646 271208186 669518059 393633486 419077217 873990014 296464256 795808532 419834458 416484592 157703882 167317461 959281395 644955649 90331787 501938697 504880060 395300273 868019810 606422637 20033467 198602142 115497201 692180560 190034163 498044450 17514406 15101797 565865665 803585036 944559651 653453690 814262877 333349702 134369021 878564594 389729318 71674014 332649176 83633824 659161836 832387036 154200280 803168278 130930088 979356939 103090538 743364640 50673899 301230024 448232934 534995720 497749349 305346546 251259907 582751549 610213504 452177052 7527863 137699071 440882970 759574969 253258077 951402214 897438846 611236584 591254440 313167601 136469969 862497165 551080132 797978428 436753564 553432791 481374421 564946199 153777102 299552502 619175007 128443618 800900687 466189482 627536640 603900449 893004576 552376247 897824212 336182080 887921600 947817609 780909467 771543910 593039212 837026058 333538657 556570160 803818594 464135910 677779579 979615843 656013937 399946640 729213190 434767222 669170648 429298067 182766899 895381301 202614414 908531484 934154434 288888546 969163300 737788538 995030443 292576472 578701664 899674833 910563127 63339042 996438535 162149357 990103107 427794405 110608720 334867247 857626863 565206001 820279676 100167078 808318968 968815503 558929288 990739908 519452975 728805770 566020108 150028467 759264483 292788538 581234920 644133522 929769802 223592456 442466373 988078375 715919471 701117527 171908181 784971396 147630581 935883764 649550544 930820843 411667862 687648720 946634081 792915405 858057951 618732245 17903630 8980176 866155351 924696044 634046467 546237925 514119392 612618611 831048945 42962207 171282357 913023196 252991840 477113878 241293324 90488320 466696754 211233067 14296114 733443317 863268985 522345280 901612313 39702603 368495938 177163477 684538380 420410436 70520399 555749222 12153076 307978592 984243731 544692211 993867765 449539499 488137599 677391939 978806446 982476143 589391597 511726988 984793575 545362456 933342669 554366404 812333357 624807400 353276170 331501476 315494602 699853170 365658919 594925261 352643949 624342158 607090632 787915627 747203889 115724801 598463739 832617413 684937296 415780114 254451822 638541896 414906218 264034990 332326598 384556453 182754999 958181019 241656128 843470380 618108868 362835355 176828764 194882814 238623961 497010548 948961373 427011705 312221984 997147276 58407948 636309415 407537463 855556190 270831644 261553093 336197384 404564348 433699271 512407447 801181912 361412106 248641682 21741487 231992924 335259558 337980295 183010947 752888378 818216578 250711225 521920744 369789066 461652934 352471295 596674688 157597589 914387235 974341711 941697707 751431266 419473812 819284508 214962923 499310644 966993769 521771104 31684265 851577531 994733403 898388369 294930484 566101196 944333446 700589688 471484934 427433780 263436080 401211947 467455090 324395654 590977889 368906846 479355430 69803412 205854050 552303269 465921344 406590544 460221147 166448188 604469196 111295167 385819779 252350504 263562510 702114750 383890803 477385437 65051334 196486828 988843752 826159595 369273462 605906853 779420831 78115692 421181398 68866092 330557594 29163665 450324853 163084773 513212734 262444479 619832184 306528657 670631056 279594956 831906408 630441996 721124011 953566546 443642766 653900319 309166785 703680194 318287131 112023115 280046300 366276834 7985839 648966643 158567808 239389293 950378886 359004816 458272727 140165850 848851638 656930563 891738366 463143219 557420268 756842820 179361001 693797880 622609935 604836175 840221676 158042033 577939422 717725853 286703646 606234431 377081741 820031181 243509162 494063020 890285619 539949500 950920327 344696659 276383174 303498100 488889022 318304492 385311492 280059626 738208941 231390165 812585346 919002774 243903998 900529168 977274615 327285992 426434941 843598259 285630605 525294486 702461717 336695247 903734608 21627711 751739086 715433147 526541690 25244529 592931354 764269707 25292789 570377785 655052010 730386082 71669622 511479368 956858589 873701295 975398997 984739217 354922840 401562948 423033184 107981785 828755454 233976563 676034839 929207494 372660111 369497177 48358894 817574144 286333513 896764673 476066013 703385975 965968615 370691940 971195642 528851904 410386261 940561983 611559409 576350129 728275699 401779029 442253761 826446179 345325905 217796242 328621575 518026425 438655285 920072000 486826106 997703618 971510019 444045218 560362499 217562031 879325361 628444053 599138773 72368991 625805904 252303112 102337270 440738259 74340603 577413195 33140567 45275296 153521349 749197688 835635486 668966076 614944491 647353382 114687097 536725137 545484401 852347997 958523452 241296294 53232234 498514201 57185986 759528429 930864555 143401251 376796995 36458376 817990706 797881841 786126058 886089888 797632891 602616905 369260360 894789439 492405128 135770091 572108926 728283926 18649330 901328702 143498825 461883664 349776427 939085238 734789497 946315265 191815084 327935784 319734652 911644066 271776737 910431078 577328532 861860141 683945162 192028202 517956262 967456231 940436136 400052108 57497871 81295667 67353124 222015385 145705448 960998125 438318125 481074089 966301800 26492758 749576057 598481999 70415230 174164563 164113020 570888237 384682345 220872110 462375818 99829996 319562360 85294852 48639189 22296509 400882005 484180182 47793792 394163174 25805165 607284934 147048429 157776576 856909319 564576571 784769025 45408486 253784080 976384400 652028239 316792137 763971393 774712412 934572016 703874619 712916643 339297175 742546226 332825816 677081567 933380256 803409048 46756214 835718378 216800726 766406499 829345544 541799166 441705638 235910780 449887472 556740651 474871792 57696759 355281355 906413704 454407441 480093272 108872239 572196412 705105693 962917320 647584974 321679276 988084575 532112117 801719625 841383823 181354993 487285861 881927598 450854879 940934317 67288258 953433346 298931473 392939533 771418034 575274991 549695285 903134696 354116767 712359547 344544285 551206986 331507642 238411102 920573512 989639048 607837526 195275481 895400725 364369061 622132695 892349110 793999301 502034943 800177056 701394361 78206207 256498157 763776188 346166158 333255534 652731514 845424015 780132299 196830629 623281977 51210043 795653034 846632280 524613265 909286005 2913781 871739772 116276830 992925498 947867725 11990498 278734718 691914213 313241947 376188630 823705019 308589467 824311711 158270130 303681760 942450535 712436233 138797067 153811467 185097255 149429321 613720706 481072617 358246902 804720730 831927059 939365997 810530611 687448943 765767653 911762412 2083410 781600279 868914772 503479966 706027457 693333627 938007837 770512780 801797946 183853162 422220319 813320988 682509217 139217627 264279144 919856841 154419193 153928638 430471781 779681152 38124072 33316847 289363444 222163481 970214846 413785446 764937143 581682095 719747739 936836295 593025133 480001717 925559669 725846196 664996530 664775319 881373040 833382292 338758556 738830535 422514905 456412476 583111389 85767942 514201896 181187804 811573046 801465933 562916176 367610058 516887195 612807257 864083110 344228847 704824764 526456774 628859264 783328315 88995816 486495885 487746880 92129709 573358227 904457680 888368174 610578335 481798646 344104537 206397636 490730279 620432360 276786182 428374397 803916260 422165351 876607159 295107047 559077508 906193129 201393493 886455826 380361654 194707904 278938598 299189847 766799519 160998271 265786878 144415836 73266782 571628592 511663098 143801316 35286486 191482315 996024991 132567916 79875522 322720532 103752378 299294584 999887719 379592249 719014437 144208745 1189285 325485454 537112465 497795977 64593626 768075753 830592745 829949231 923431514 655699087 257142493 398358031 438443099 480982342 373174753 673799082 645535279 277806512 668153165 876841617 536217516 643088357 671444968 262435949 122561052 993182996 94055273 233612520 7647908 983567859 227573690 568470075 743560689 926453976 516635255 964114110 230484395 874895887 912230546 297906275 341092304 668061656 857987845 57114840 876279897 354379483 970269070 316119789 104997927 584942581 765509292 508244566 481543386 875948266 755467896 352911486 462999631 323008515 535942501 783559111 411642389 479979126 329854652 771610227 676040247 366827961 731878613 846289142 192641547 204049630 632272953 488620774 317102264 843331438 920951789 118958356 544315950 94310298 546572653 906731616 340067132 662113476 714197381 226120286 382749690 90002141 730090385 666887828 546967979 315815385 773784768 709360312 68554984 50184622 173897844 652417463 108512281 267267993 693180845 121780638 749961094 250212425 724488728 221619582 985985548 428238025 953531057 849600807 959038327 767000001 70964066 550997233 741478008 564481799 830071304 571748482 744011671 624017258 600762998 150936393 120406236 784462377 862588876 946411713 386073144 71007302 119093107 433455233 585713658 150000368 594048422 896341315 847641517 736207516 466789535 437925794 953258620 531450364 282660388 416989209 963296751 940004988 829485105 943600365 278574102 859377356 653115368 37885813 461698777 851770988 670569246 205077785 252445172 16377601 84063795 511671330 946960874 468455215 246967097 695859688 896079532 746833330 913957297 599009079 403863246 494411183 245883075 362337248 190335507 797209726 532016258 932079590 291942657 608074798 337717130 745579200 437531679 33555666 178106708 245162151 407653096 84839299 67229073 507381575 394457697 60191585 448614050 893396599 327837406 973755861 167848253 789894493 441218463 728923336 413552484 278092193 746248020 360825670 833756976 434446429 610232984 209767215 96859648 333175589 956083955 677153047 993484020 480376842 115465245 640789276 19540750 729161258 691211930 210582199 276389211 162394853 863382393 142978962 911041808 425314935 51353483 518282138 551782607 368692268 533299284 172099461 381054699 681828169 226547949 251987694 563246200 775162254 356589167 889445061 540357931 539813471 434276165 262949250 178759988 109640030 695512409 58739 541870344 938894971 532610982 315425834 877334171 630052280 791579291 859298411 526697593 790385857 361001030 730085045 934099099 376281249 585500423 561429074 456123306 711908466 426512914 838496653 205817317 106247014 90534874 662683091 723570643 320166112 238305837 522651157 475850374 473838503 774018991 655136952 503098450 104999795 218496085 577436872 515880900 566417180 105764041 231453703 598489721 86782659 862484050 698828181 164873533 957868843 585803434 408764159 635639414 892994035 743781722 797499128 350278207 328097289 716682214 479515969 171105961 677011086 367174980 708230590 634836957 409031461 89399731 659780531 715006016 761033869 49198668 283243817 663603552 98559366 847387255 352863049 689779823 802684517 8881304 169788173 706688888 981059135 469940640 448967077 517622034 35865158 472907300 995798375 207739822 363503432 656213227 291349942 327140537 659951165 640863090 553394990 702340679 240665713 984202650 701249366 926945994 645388 834573596 184281841 562630851 540891557 368104142 906992228 810438697 429695369 919677478 39442717 885586185 452539082 743454550 673390060 261110940 401538296 966648078 784784874 360875461 33262441 219369067 930356612 44897080 40845159 477837606 441574813 899843991 491565285 501121975 515323063 782191929 483365860 314043273 186471863 781587269 718980800 73045738 159044413 237788426 464422916 713428637 125074629 886843618 829847380 875295843 629957884 112828265 482583264 775826141 114755248 338804177 839195386 369947475 623390700 775612615 678057552 564652550 62658449 424619018 481078566 643129825 623633610 518781596 485350116 961445208 669950637 396570271 527225164 497315123 909181430 622428503 111741557 730889987 452221547 258095813 254645478 290467649 110124058 849998226 795344056 611350336 753347651 550762417 411308219 118805223 538914751 641120422 959795462 789402539 357477349 134785240 74402385 515346628 147682223 195842649 264679029 33767913 592251571 430552953 516914923 598528288 191451392 132019908 456152609 681972838 837818687 710974169 848616945 963685161 633900455 357840228 324323512 215876300 858382692 694236905 573906597 210325502 547832552 17813758 108205588 90186511 211165238 10494343 890493822 82866862 41156499 266220418 555608334 330169795 118782617 862501325 983869898 455912147 236374674 963835520 215137151 790580191 126271939 32457111 898732577 526169883 555889455 136040236 385150163 454109637 199060982 556338770 775227803 682952440 107425163 702621245 71150742 884180417 813683318 68051127 567973747 223698525 365224706 157046701 330175015 591020587 344077323 268603733 591826196 218402210 232640729 670724740 499780200 100843951 527152763 618570576 180020915 356000660 966950999 624902923 903144062 579206145 695377347 746413972 908118855 100411740 591114777 795705151 951636680 833320274 209802606 141159756 707772033 289251566 14421685 204050958 378734625 727969242 843403047 824001373 816946785 742095848 59217933 257427021 887542221 920439377 225908453 326385100 73237800 134658583 158875993 834074745 17016356 497529714 282711021 499378779 214798698 840317535 384045334 660349386 114424060 257557934 156228578 478782794 416288493 144858399 573347935 806258905 251506023 372794290 670191163 663513691 584418267 334381512 523552156 108742829 967533329 206355660 97293413 806424930 275978875 927706022 815288955 419188713 734942458 537875465 381190230 812338394 642776402 588568269 115283356 806380396 9039497 629565459 344664528 210842167 575046525 57202188 132922130 162722028 518503558 90923956 963911811 902768434 112627929 892267613 806977419 636635218 352662923 388547188 876494171 308056030 382669691 326269757 901506969 14866624 665423821 874261869 896548295 478400477 11901800 301555926 48439025 220579707 431695017 873463554 578791146 163947776 704791317 922850069 355486223 178619130 262237957 103571650 62852265 828310845 107272427 775281219 584324956 276878384 61218626 393933309 267609089 340764570 134958378 466132503 654070271 35736586 221124397 624180622 531619989 90328803 611653848 868277384 922988339 576937908 11220612 577874758 174761849 186229628 246170142 394488992 457724241 277195267 856070136 344623984 628518929 225174914 775188559 307709272 160762053 422719666 434535498 459419650 141135593 181785590 422187330 118125721 613191720 922658858 482583037 824172040 705493260 628486159 329506715 658654281 181575144 848665656 794725732 301091162 639255102 327819652 962591646 231786002 774539945 191155202 988508156 988042745 392198873 197747020 807969846 658956708 371307602 795627528 879078299 688880409 691148001 867344122 324938885 953983715 154787055 199194006 646246087 415373102 837046280 249334162 444992770 583795012 677678599 198470809 213961305 559606055 894025866 53832659 641249031 389415805 720822434 146932248 3523854 596450028 44816360 619944063 414116453 684062449 652071928 741786629 792166305 67769520 682872700 298807993 774693187 820155038 937592314 517995988 75503797 822934836 252901825 14326579 885544556 940476616 1008761 441526548 343423912 171081953 57504167 394418211 958817132 824375162 773982516 896150 694689262 29776241 306634376 704969483 192267490 238014318 9644430 614355695 691693717 229727307 128194341 329742705 784223527 570648211 8134834 947175694 147083979 606092447 208564677 167868120 115433029 634932380 975987746 551955306 65398842 302798987 881910267 939799438 613457338 773242614 266719267 136941389 951296595 486564984 887770611 709659912 60763196 653105810 143604652 933296532 673663756 388070652 519614451 623661515 670844201 414343539 52398923 420795283 893203532 911382448 548998442 178557835 607442195 893604439 472798787 874473501 473928955 454153459 827835661 894152019 718013439 94730095 234523120 595272558 13795536 904457639 840789729 116580573 576962441 503811845 142624939 257876456 338722492 543384828 155843120 405612651 557343648 758684436 177006349 265579288 385382638 125918149 623683850 974246743 291578644 917739612 460871476 229370811 662923415 763688835 898431184 122972855 108473974 650255123 945813736 835298139 383335115 561755830 851773804 765214701 41558693 767374573 882393264 943345979 469711136 481216546 37895127 105427754 618631607 101808037 814875617 632388976 58237590 190646940 15283808 522691321 371155269 920004966 300681826 20811346 813795086 13204228 664117799 816438065 60688759 872856880 201261973 366205627 237324356 44125201 613072754 277342886 632594466 312995084 653355127 692605350 140943771 24929731 146561537 470835759 401481959 454174840 223678269 305568968 700676982 926633196 751203612 490110548 445670520 457429811 915876080 165167373 739587883 307443898 306912429 491243883 767999774 117130834 638554694 640225026 767231902 837823642 40943523 470532616 334386340 238925930 18898812 885076143 782215991 638958982 505577357 375619227 654671308 376698016 954821383 68326967 880038955 832529981 465443687 483010235 992953212 797898988 206819028 622769597 487540283 428727260 453226342 781075633 657144895 720065340 672828806 54486270 23025364 238496977 405764857 780203692 533251033 853586651 979796338 465783891 267475188 30488151 71160530 830562745 433892896 742628670 882303054 25752309 975932270 291603965 80712566 877888914 587298133 483757212 200910079 274072307 289057979 330302139 482843080 624280416 725127945 319211998 208922095 412435631 296919568 774058241 190520389 634611352 200216529 335312236 763618126 39006989 280361109 956637220 993058385 149127332 443704827 926482576 693499451 942485665 983633224 23699905 984598968 587018835 163413151 301433186 707364253 109686853 737337524 295370909 945724624 688868628 527692376 886047450 16803338 766173244 308331563 606192382 852494494 11255025 979820491 523230000 79703314 111519151 10885277 279927524 579215678 927032845 894938511 961837097 121658334 580004611 778550182 944033467 410560692 602515872 955474622 625105134 330190787 246558666 131400654 43310685 52082523 397308904 954364252 998223358 187639537 176418237 624861754 768000731 573833228 195777115 237296637 77877117 961532343 167065167 672320063 831090242 262927288 287563795 786878620 606715966 489060216 394961522 159132727 124399585 401348055 727134777 829850908 611562967 651930539 268143964 574175901 818211334 318690575 933388110 671905703 380965850 905231194 484869381 316700700 579891557 345443 669227814 143247927 416614613 80331905 432998461 977899113 555543015 885951134 135037715 488692849 708984369 260055223 560344877 220212105 678180226 352646104 879038547 374831796 422977434 898607124 427168971 841788944 163763118 49997292 296098318 112192609 265218458 532132397 473267865 279581259 412274119 936859817 542822650 128051730 757449825 757854936 933695339 473243054 407208879 95580308 872592063 828711960 116481821 733850438 765135745 558941122 155413487 656989608 383423299 77153273 188897851 870329067 897399673 62160596 282181613 144916696 675996827 463266672 943710294 657981866 561504925 489943832 135194785 992441365 593468323 276589468 510731789 168514372 318541574 271381909 321073569 990897237 141450021 831925917 579516624 211337501 393803150 598013774 924931024 117693441 65120950 279211270 771135663 434434832 911060758 719207867 763043449 110178630 616487731 239710366 251365332 507622703 382133053 590220523 43312247 929512321 87435141 394937461 481947602 510451316 152590041 201834365 722321882 628543938 260174435 907819154 182770671 753467856 597178799 575129779 803361589 888124502 60189607 940054098 773706066 348843339 497909249 953625209 686733353 693273610 425002738 642520459 319678745 449139173 347403818 245474714 87100606 364672913 719628348 366549270 644737348 59527062 407566054 939353423 884529715 432507542 541079941 955352103 634726203 297524047 31697018 875351948 427943239 798614263 13436689 164401129 716578107 797168843 705334233 654029229 909084349 323271924 712135270 179684560 242582138 89952604 541930893 68761667 267972970 86901714 378755755 189839351 538800195 104993812 913219106 672678140 528457216 922560834 788518033 379001791 132153601 721507644 246313391 117141526 253998410 971006978 291589826 645221800 231271925 261325438 676130267 245879463 848881393 460039090 671956739 189847545 284522038 187743223 283376222 235016339 277838682 871407777 420215368 994952789 65646822 772724146 546672338 82766957 593648316 206690666 977394791 996711828 613106837 542555789 683849555 719100425 330935844 256111549 536237266 669309676 861824757 143824854 40805056 490482356 265073703 564255448 380965462 293746174 341654009 651900718 321322912 595967880 937067685 788140834 901395197 540192198 431093276 165006448 434632496 704235316 732749371 198497125 692908029 752685806 779150466 898110570 903714156 282545932 21352975 978067943 592847197 515661854 431486076 874300913 948505787 229697185 727891621 733375166 515615981 412336602 86149012 847965591 817188271 471445357 146087275 451575807 249018298 564603567 785521995 184303423 414010358 806902020 370559699 834047003 253654690 241868642 813172977 804462867 888831205 115007271 861805098 279302593 703696698 854778376 873631516 597606980 156697389 65709209 288044045 10927018 5019210 968932174 5726783 225645509 321877916 223968483 766758479 257748515 550892939 335822870 238132841 675543906 940486678 718180352 81664594 664659309 370489999 408738518 933198456 371321199 527174342 166545836 549978054 8791061 206625421 316619569 74725762 128140830 558878863 867618784 950793560 789365434 655887458 950180324 342670838 739287688 419877030 644034770 977327992 458492439 310752057 115695629 723854861 556796792 299855693 767419689 328051914 865744432 627526520 383145181 836199088 759352432 750081867 980248188 740740561 218949002 156234571 531607321 338756989 433090002 980801664 801585194 990768554 220369617 821076201 328337649 590512954 89810186 724241327 222234221 497270858 197364237 368869823 575222869 218156198 550165476 131660395 372208279 211443333 361263853 122811705 230485582 3393267 141223533 867458968 778243341 429171344 450967214 509846229 220378859 288307759 16033938 294544177 936078364 736664134 140723001 385265629 130177717 675262864 841141656 710899758 962794460 415702819 228166507 708689647 596800813 390461942 291820189 44516617 921276244 283786895 173983066 312179581 590743955 442597295 313497850 865139836 547758636 109842763 625467145 758509936 209141631 364396907 581686049 264952003 19180947 151076824 525478309 850824106 613765834 728518867 82961355 818495831 517585348 913418618 866557235 374654690 237192058 967576695 763356952 142352671 590426813 368363473 844639919 272940529 401976579 19118377 587366693 609939454 375763339 77371325 203565880 889322252 801620688 746672906 129434215 257547408 552752401 545594088 67440334 982892400 609135110 845389394 522596684 537460674 933817009 820557169 170363061 832457552 968875594 119084613 934769717 239864264 191575029 686897962 910743045 935824049 736466438 637522852 374750519 336490596 841088616 313016322 13192685 604730511 356605051 582466672 407905384 316994966 125545921 391268905 566203301 426588040 813963458 348473635 461589002 864950685 50288751 712288991 981692754 483162383 545782621 901238592 266233749 141100372 998530419 17398227 396658179 855372588 553673063 112841340 170196095 780907259 980964125 330168465 732924394 994364272 558024532 324758994 774714389 681774836 650211063 595927978 215212093 514840053 645608828 898498003 566859016 315755786 34683549 151881052 741352649 765442341 842334119 947488046 867607481 737711635 411173834 289203756 766975572 728519101 452973906 937394979 92660757 286758052 146655177 84480552 891467326 168965972 231931961 152866256 303346601 18067986 929285123 841049960 798258393 239352674 285248653 640785728 982151376 572986984 25940826 835923292 431156060 316204186 973942235 267401089 787770260 783531394 616381176 233526248 268078297 703780422 538449675 6660948 197168707 732951969 767090491 120996087 657314868 438810532 327488121 847470672 436410199 486959462 748498193 861677043 36805075 541319603 859340840 222250805 321119996 837420210 761575682 346096230 111118597 509446653 120638773 927361340 561091960 273240478 924343836 925405207 22735379 268956923 51806615 740214300 791216716 340572405 535452765 972823449 63451441 829405250 301919904 535226750 808462695 910603429 293356362 853895729 551436994 512093103 658332254 767637055 622243273 87816391 869302857 896441243 478911032 176437626 815056374 728743605 678232886 807532550 225306576 214810271 130917127 257731211 69122008 362565620 291825967 130230455 94259778 985707209 304247275 95957202 373514437 674881133 654914696 22689479 900804886 465612145 365257710 382490408 712638851 203962790 594893041 262662101 651998698 367596290 600397358 416466510 493252994 457886497 316356319 81174195 485044719 481020625 234154104 781376513 310214473 278636524 512464651 536165456 300683066 499246967 823992100 571119787 739785394 334366235 484209181 696588443 431080724 626882445 8953047 689989102 663018246 230175296 920290751 384237498 745319069 680139507 481844627 616115569 778183057 351784511 521963106 627704570 739978957 952679621 309822662 223223959 32592657 206514404 937118304 248590210 877110600 803315098 38559154 99763069 685622768 11573624 89911237 251542460 586067387 180137985 838196636 151232648 736011915 777166300 459170478 180120886 117481826 694547149 499428071 165008211 260857796 666592558 139808237 786905926 670831781 517272457 835820135 191361428 626689031 946106520 784059645 394437004 672495121 730142069 432370994 217634871 426076660 146380657 562528101 515551729 970329149 630907362 376155101 552236078 997535960 42494473 683829350 644785452 454623167 100074773 416064060 430231611 838344295 937766803 21313635 271346532 315644341 677261517 658723747 589087123 467592631 63594156 29122418 718612112 226149891 461184770 291515888 986017139 650296938 41337019 236118736 482083980 898441976 209273749 639012224 484738556 927958253 219041173 256900762 170029535 334775086 919551075 814194149 952017047 230821146 826162827 825275522 634579950 631809090 65634012 855251852 307774764 795350556 548232456 967147831 549444807 803771969 758984895 668188671 401553502 786627796 45018830 886286833 601820858 737070233 740238018 707908345 336952887 874690320 59437306 774527713 946714706 227552855 660383789 68901827 686906773 890116900 249453240 221001312 196295095 153986569 241115753 984109721 766331184 290727946 823728394 162044625 844321326 538342756 160799604 571216648 244060093 426630423 84611044 608627440 744434624 980728400 299224135 735730281 525992098 130046563 788691850 256316167 373499961 262122440 956315675 727742872 292559413 34644613 700891744 56339127 832793660 423003422 449820390 435931791 235492295 4953063 41138325 964586605 558483533 413011715 331904757 131859021 642465712 314429429 716069480 664128051 624259050 53120877 766073514 730324080 936170934 279191748 958621652 446303042 642578214 696204607 104459827 964232213 974104647 897660000 493923188 797730177 37019166 855140599 319904909 608344977 486590521 17311727 162713970 279629309 301911268 36461506 163890303 674736081 52509737 948077940 182682029 727749078 556501410 47690778 934311586 29338279 400001773 726737442 935255689 943764198 860640781 279253356 766313945 957867012 771900891 95236261 65595569 756450977 699972491 704119426 323755548 388540776 502276734 932523727 415261548 291478498 509427653 534931198 239386062 314100310 257145875 915944504 95902999 492207898 804920073 325091973 665792503 273149184 345412610 900822625 760272352 627996266 691624999 929417078 874838606 90631403 694596068 814697323 776080088 857435791 812712184 487176747 446965497 51288781 202706354 599359366 512474804 878504005 141378416 660067169 276370513 459646181 352265344 597286538 402094245 630577441 285523473 88994053 769198765 771305634 486742821 596070071 203512521 852226442 835382533 259068923 417206774 955701795 67983649 396959076 866459796 670919979 376840827 915843269 402275817 128836314 624842331 557751552 510698583 969544678 325698230 356952122 39611525 205177520 894273655 249427191 451627128 952661410 624910317 91973766 970867756 473486669 412372098 440500918 926479676 750735898 805081419 860482809 70376174 790123866 497661945 619139838 490437643 147860383 536892616 376233959 747978860 257995052 545168230 889968521 223562519 721396927 957042178 840799305 683120091 317807373 702010462 626156432 380617118 782520507 490987527 247534263 191846054 254912332 707491761 777818247 104671081 553020791 632792442 230096214 872522672 218908440 529545929 585340981 157902942 487138656 356206190 113793658 634251250 562154024 353287628 510944169 825027870 71681083 287767259 649492203 930671819 884670902 342333039 307439731 539973758 643052847 357287635 166000195 181858597 270292540 17888686 19380685 897790540 54267003 344565723 958453590 777085564 65387624 188837006 572302539 758629527 711933311 712252620 297847086 572046355 539162625 642780007 931894362 765413361 253757289 786696312 652672947 526274504 118224909 782200387 423162207 976839363 70670992 437126205 818660758 814974675 202799563 609258612 175695491 36950007 691703831 373308868 622892279 42442883 841982571 298666023 612926442 356564922 598156557 319165389 191914066 460716715 89328683 144020170 21145902 601210025 376760570 550997102 236462545 841969409 648004124 638183678 401839303 167466106 989983217 352181210 713860970 371843065 499508133 596229179 266574135 691773964 45558443 109823980 170419583 61770365 844051306 953003705 206888975 212949607 467860008 721294054 534286447 229298702 752239791 268285508 754605500 226565733 133853748 735019738 256195902 617408396 648167732 827010386 68040014 382045602 797532130 756867840 208455283 317699798 566518457 817468494 683536032 278073453 656618995 119125093 313909778 378829550 134613293 619541506 677472948 610975739 583305246 189153642 242316560 850379864 376527221 265148867 182346014 571716919 723791658 179073706 459790252 83501925 242393573 360652007 107035912 442811593 338266733 430732553 125823075 946302810 684032568 899042626 145120026 642807253 638832749 729608467 765746028 764790775 878320697 332152482 901165 811058777 874812929 860648696 650784145 556432283 394937671 594474620 794108104 800265702 892464527 163290374 733530761 826240445 413341753 407386384 299650555 881436809 362834208 103363580 521959847 198572189 308083830 968462915 373810897 28568952 182811866 741794009 970120999 373588261 467333773 327405141 691624255 577507131 56486097 893845991 449565670 960302014 412419361 818281875 713635354 133252594 365550826 401410090 297146382 39147365 360470931 970191644 167624206 219391215 390855363 851662956 111847360 877148595 471560980 515533831 989197661 728433721 207605061 99558761 843997175 670904962 485142403 763274668 487655532 546988022 799060494 952262615 930529593 127919747 33988911 719587465 106938028 359950642 648508884 917598750 450336263 840997228 517029182 255290025 849596246 647121265 701928381 527849396 123758663 45520031 765573839 204151366 809210640 807490080 401275943 384820522 575583935 397464861 725198449 292990958 593361869 53495169 863288723 200224681 142979672 529784243 11668992 615432630 54232910 271526806 398087870 172417213 449686175 965220396 684746880 352846030 104001169 689227652 932395792 774708891 738588973 160607833 280255443 589214352 622268258 599232018 856311176 793748602 240619464 3235700 416330922 926662855 721071503 938430541 427237945 805994856 312714615 576320982 196159291 196937491 508540441 763240960 465002561 920168420 345351176 194829310 865818814 73196018 142876298 534843803 301943038 725611776 207938237 419739301 372234882 441467867 756934973 122266304 219383340 121314438 182623648 179021816 611166977 964614322 733207116 622132215 75174436 504260823 467371655 478027786 303771721 362232034 17715184 771090115 630456012 765138449 131537940 216191757 588768087 706679558 572742479 67521852 643737275 62242317 856162819 56964513 289721545 790669802 171944197 616181144 184116900 990464878 204929961 41226396 41306390 260508525 995373237 601640295 387260481 554402423 806538441 285711675 293275003 634500527 106603390 470923651 771822701 269727159 549825439 259765482 767916468 921823028 543081522 123890491 9079012 807914292 660221688 459366172 200010052 877793500 423368060 806146943 780047387 515765103 778618581 705883390 413286593 126058515 654743585 537061352 988000755 198956912 728632074 685419216 568991211 718455277 357583649 970185632 612745627 511705273 975634043 244477757 343192964 909418397 853234624 646096225 448658445 542671608 961398368 34888702 258747609 828883367 928418250 798289035 542772484 893474809 259503106 721645004 351808615 160902683 378769661 24938681 507702030 852944777 334128217 188375551 889933704 23235931 798437551 484416202 634763718 205784086 171987382 689168062 293701360 927303269 429179029 568379131 868531077 935475740 289486911 548888423 248828113 887632415 336768224 581075276 35309285 681849065 787260896 348374281 840001354 100920053 286834138 869482213 898125827 401365792 747849453 576745112 177630684 681777512 533527194 630787150 743015607 956952302 674249777 758559262 979479278 372194628 776723101 949388850 377030162 335829970 165717216 165008069 490214830 402153429 792931366 170747858 355071474 362044680 760064986 87579507 795261426 724729496 721636581 563283318 752887681 786572174 330083693 870644685 126980572 932802022 554030687 508172534 727653263 781195355 873560038 549582249 541952313 503451760 151637809 619061772 14007468 126125479 350674307 207171983 49186163 12987081 402169063 175408467 530779098 764003238 353395914 428216851 480838209 750020647 49855723 535742238 723093344 455707927 872339677 968492219 668683657 767423413 444380210 138157258 811216364 81908873 17344391 783191682 370506545 31376273 561335545 906027835 318459700 78820938 974340975 577726951 541081065 496821714 784430771 574804435 113952629 957387806 166039265 326487629 238520274 703000272 756558285 164938868 193214592 143056597 646468467 18907747 372188615 732708324 846987798 850624465 760268462 492014392 148357602 736681218 221052439 182123520 58316007 835260130 129473313 82797030 395730559 323242747 148665264 275596820 882070231 599395532 703922015 135760643 757967304 803552200 938558956 559114440 135137279 317998182 802619243 408868394 270857602 879641347 365959980 11469027 861319055 234098644 983296812 545229785 36343568 332661174 860425807 660221542 480774177 778456639 33817811 511929067 482512927 236719786 916624567 99199906 536606643 840359622 941336961 694866173 151831767 78805536 864678944 915656145 826262794 353017583 65225377 85929614 807143804 919760 610180355 842191966 60015716 654414358 77048304 572274861 103695717 643542625 968453278 659028182 727576851 833074656 258177115 89813252 3884772 386189833 50099075 197562440 929233657 835162066 429471522 495480445 294848059 97865585 180596515 523896115 860487244 181807203 924624730 282529631 225341006 227699110 23635859 771124449 711166764 895186929 462256167 858841481 643329744 805402334 858477397 97472404 502753552 613449349 12210048 379107381 759893933 613060498 839670616 438204323 824943021 63183440 861141945 25525847 897916030 444068122 751344233 171892614 828760469 6645485 484590790 902220391 554200542 187708753 468722921 295417600 551021896 595833849 728395641 90375185 476479045 214828075 972530393 913450061 903628078 332701712 547511033 307878327 582660551 620108107 597428506 869579373 664639687 672143280 826345028 791510755 189871539 967122357 998660959 981062117 571997976 730865467 651214342 246360569 599183331 123332195 463412319 309770183 830162507 698057212 478700955 197442749 639503152 591712254 996116578 604457415 296527606 921078922 899039902 203146563 128614569 381030197 99236390 710998392 972571800 937791223 246521172 285873731 617557858 500745998 741964569 894602917 690882023 829194166 965342154 423372861 557967435 285987357 686117278 182016819 805510938 758299123 623610159 720994359 572451891 699254102 72187140 159178439 717673180 670810408 985127254 320379354 590836696 168322570 761185639 509189953 396183784 892586755 467944611 342813201 542328571 849170523 541171472 525003199 37517277 540714294 993138296 995461293 499797152 699770681 799859901 99748849 686303358 527334230 464506251 15283333 482657356 858770161 589186585 946241678 848150133 113159992 757803326 471531555 662135808 481518921 425008138 133373839 122659905 948632396 580439224 43106195 81657221 474234938 240086214 760288791 330961295 561356386 152634257 689991160 964537055 103299160 428866865 959989173 916902311 423741288 516872740 878554832 187068841 178851606 817572414 330400911 737420561 962798673 832331049 394480893 651170819 431681144 831341040 898708209 531118585 728431525 956096810 743797713 580171238 830306343 787265101 202685385 51930765 430586388 634115950 474730843 312851255 492085621 255192063 140987301 570796810 862616894 257168778 379858086 244128093 757490139 324821422 961896262 651839711 547681038 887279208 559943877 576487559 3835793 611112297 929656941 234304087 641796117 674898642 976489777 673235239 827572986 945917148 853942007 790429008 529386444 632625931 927440526 920005790 93945630 27650986 82685847 912676106 472118482 362007332 103259055 662032196 156777489 535314241 951127141 483356592 633117623 177985018 805573025 952382793 230715529 884614386 473461910 744438649 56952793 894328555 439384172 359166674 899494593 661760158 23963273 574822466 56610247 135218782 800448520 578742707 257351953 688074514 867797558 210662211 331474567 199239152 861415383 63342991 170480837 972843984 147201247 970756119 685870037 802196693 407106867 89695638 645092311 610549628 351606731 461269874 430870878 143385423 987140833 32398530 437926052 611770700 278023636 281295447 98666947 285646649 530286342 278644331 609331841 254107096 740671868 196465031 943413723 261903766 563207798 543358707 38162008 928880655 542958907 81038356 385351203 496532922 273902154 264354546 937681300 146975330 398680251 866680083 680631862 275596096 332382131 187091761 671544558 319908331 283276107 394929853 201662631 709812734 644519853 659565775 323371103 874496778 705511509 711025361 590466499 45883302 624502935 397196355 578494982 906935209 911281842 694104563 203105958 722214873 819148345 694629189 972991173 154475238 603519853 734474420 98921587 778362785 255009064 937682857 552188431 458513271 586815088 714452594 146829809 656945703 2198951 759886246 695286846 331078226 366720055 918106372 198218704 616714671 112368958 530003317 430138146 161728116 349629585 851098709 239435927 718143335 67919063 876753366 358597797 116915104 155869005 881871963 465474625 663013350 952567137 988451248 586368404 520706914 980461699 152141620 303944641 272089584 672548734 91003702 296411872 458955630 313480722 331416937 672838106 37266078 991287328 422405128 701538662 866644111 477012071 429014362 955168265 851610291 531720507 740080682 612606325 44758010 355338183 144791259 636056063 268768198 501642606 363410822 901142573 332455546 959719391 698304201 663836874 970628693 848335125 370571728 872514344 355669196 67838183 233316648 186559172 320893494 124917480 43535562 765975554 966156418 503863834 766087587 663115939 672287508 738734211 467471815 406512956 476181842 625064752 375692547 769465778 810332010 983851295 974251501 352056650 450675551 241804788 416059270 687550635 229852270 339176258 342673871 491103600 172612616 601763183 816243377 155694819 964264199 650475894 291098577 391580032 702843584 558580604 923525655 567098134 26246093 974781299 912385747 132877288 756695380 39233310 794438690 482911631 904986564 971894400 85948708 975875557 98604196 453019327 527872526 53657519 71344131 926014775 630981640 560896132 994565550 78511875 852026592 305870023 360070595 345406460 962500292 828122631 551300100 806322294 978141978 444468299 43506013 46081317 259144420 824561978 797251220 90994757 885898796 785892406 252873346 578352710 451436980 4141809 813320299 548498579 650733836 118500724 47776662 540445055 993577759 765727778 189205879 411292417 39871792 87550084 608535564 154373578 478335769 431933652 286724666 316491740 207156519 959441741 289100984 707660963 821142416 110914768 37249902 698629854 468932499 189447496 125457310 585932655 674472772 502979800 981814073 240338342 424319611 764572016 224405953 688581446 168124957 175339959 144524778 772384006 796275624 126827537 696959526 381626576 852770428 447735143 438557468 791794104 114931309 309494777 211068675 168519118 138465827 957668210 500022709 740754545 264648923 703999858 801935525 952123343 877286388 282641422 508537507 316271194 99446014 417794980 450343120 723577182 483604547 371498659 437175920 706233303 656735027 499775012 135736286 610765243 170389444 686664171 316325475 408087473 140399618 251630494 222774816 899480320 197195997 230710208 304348726 202906642 310264516 457488340 539555797 823718024 177433895 805420899 72029009 3232421 114745676 491920931 755663346 303662985 699883255 874760965 95129234 764960093 522274994 555934902 158442050 185532997 489778920 154825301 498670853 527026011 935240389 955358958 960543753 526940906 21662068 64067027 52640868 874839723 483584125 742374438 384306993 628828100 644134528 496762084 77635650 97128080 300587550 777933184 783034198 540838280 29131348 266731634 546526952 720506921 984266228 970179081 290182087 396602299 898239111 435639189 710594168 646234052 182632517 550048880 682543538 16878078 581052649 830139864 568222150 460768158 267924851 705299525 274041807 795291237 159107138 66450015 964088944 104397008 91260417 566615004 245947703 731647536 459203901 209494935 18549354 254694269 247609236 146702152 283729236 792607460 52789928 356191237 911503509 310820369 488408021 835751357 275284064 354130334 620436097 386743444 91564683 546764730 145101413 977708812 108206371 97942004 126726889 70343048 580708353 669110164 543545702 605051490 392371426 920567116 547715107 145638349 960333167 544437205 597895466 211687266 101179044 376752782 783713264 91527298 774145778 36349098 286263723 641175230 358987915 835939827 786140773 92152866 590742913 820988031 918808504 593459597 408812918 75395205 639996142 921986862 290385544 288306103 64404927 873911862 727830003 886351170 478301597 252329134 390824947 996957156 995594856 260298728 406758591 157419387 912063811 533583193 22159795 194437546 905455496 411828731 842973295 492517636 526976260 845077207 836521049 727615839 588138152 223445246 13420747 687940836 774318844 75302474 296132708 4503569 832940707 980345091 103293197 834253370 194777425 825243670 317541261 72288886 346975353 874915845 67693238 612302071 341495145 992066468 500210979 655218623 973606592 343462937 863565769 692024991 163079613 115646606 320784362 338085310 662507489 161211074 24039919 134868424 219795957 989339883 731324010 205252328 137335901 29626404 825275264 23809614 90897853 349798414 535173954 527764936 725467026 678186088 340648853 322176852 125061714 93857975 743068112 180816711 342950381 647093158 849056676 603958238 406828914 693278739 585610951 571085941 600581368 116717353 269697947 212371348 619557302 649026283 100642355 756712061 916302578 280776391 924231732 659168129 607499446 774468878 564297678 545912966 42200797 526151657 201660150 307230417 876415839 530706087 894487953 178395851 864978436 970196775 192772107 260694467 821268052 106397348 170194226 378854274 652712124 723507644 385177414 619825129 542091398 651196365 374549388 965179646 16728155 523192485 987208830 32800495 161018728 519119842 888972714 977589251 630113186 327797357 791522933 60144598 480085979 309184531 23742858 351717417 728902077 779040562 113994983 392386807 76382549 564507494 927148519 94962246 61729582 356787431 237697850 138211999 840120260 989859645 572351584 329794172 103114802 682193990 599365098 477088903 204535754 974158246 617548341 699967531 411892931 798056463 302213441 705682742 808013672 989240970 542495132 654682300 360301995 959650917 834208443 977850211 232581995 854556410 728717810 510959958 954985701 853666779 620229811 228299583 553183574 404157756 692910063 611579445 661792358 602710032 319899416 803297283 266987516 896691473 452367949 238572741 577831453 369645461 405311430 866808559 105726332 505480141 192051770 67954087 384195060 550489081 188162133 959353333 84975633 708628273 839242491 290811875 745616966 480023434 755513460 974789538 666032115 121403101 821841930 106302540 739002759 437719029 241066767 596153116 146772597 840013472 991287171 845502706 236919838 803117579 959120378 692921412 950854348 742598055 590686761 299181145 64367633 679112033 605442320 106155484 478175226 5797461 350514855 775820793 31113994 176619450 929808594 6350263 480120570 619551717 30835090 457626714 480641515 862878923 727041810 744351064 111976994 625580269 927608567 177326681 956439783 194678183 587294142 807544531 482701800 170342939 874029148 863245292 788976606 692210049 3858493 187246149 452595686 32680927 84536641 832303866 735011367 925646004 20483862 574452378 241506756 12320671 432680954 606184218 959096077 385233771 902313271 93845304 906465522 708191915 197965738 510165271 743720889 466700346 230622279 512239279 295999937 846720731 39040287 721070863 663032781 374156732 726037233 19213490 723748342 466227542 999208751 991928651 761180771 812139936 946710481 948434086 964898655 448369658 550500815 792723975 781326518 664362257 954232119 900914070 408240408 151769104 211335247 768932019 1797719 797697620 835827836 950118721 220945810 892903571 309388345 617255921 72942434 389360471 561294386 449018558 88983712 753578455 584869994 38427561 768465209 532658129 729849324 371596143 323755505 781740550 376266436 310354333 254083583 392198555 425019687 478386776 503142358 204807596 496910358 985751232 98338683 671816084 318240284 208166555 315513648 357551964 549421847 55010178 874415026 462660026 329350500 604458241 961815981 77231582 320725886 514880734 884853413 924115243 614835269 575478561 14088690 172439375 24443088 298832750 839299676 474788034 875438748 839918090 187744182 391318074 658838837 607980174 249329820 42626950 150024097 736574149 856011807 884870157 8594540 478624599 103472121 463623168 471578230 942613323 297198298 743987892 905470123 454945572 798924993 37824946 521249852 18185203 66656088 270821011 342675650 704182117 124323262 519838745 42633293 410060003 689720102 887217752 880511038 802560091 477734314 321110030 360623651 339916914 983507414 834106699 53742690 535350955 232482369 534898543 461188163 209973270 303688469 13662597 416842648 685662803 471698621 103706874 443623483 959621962 945629747 328640716 144916885 870540611 341923680 886972991 832557317 649713390 338935117 541198952 880218778 112067700 197464882 446059593 727668624 465567448 804991163 299730130 983306291 677670368 738003397 966382125 20774188 492919104 663174956 732293451 271834727 554541473 868939428 445289153 37983309 552618039 86895337 583784792 322601878 582388457 792253372 638149407 969962213 942635260 689375255 704998428 382187560 816978945 175198396 167785614 593172894 676920092 600680282 890503699 374187179 488887149 25352233 526339769 794255758 590133042 390588147 322647265 933616676 391031224 745545113 662425141 64565476 921426552 34469608 786463427 859160933 597668448 811807334 512341620 891944291 377619886 528952343 789523391 764477898 938732871 268294685 596030648 498433134 946781119 79404569 733669614 60109584 89851642 409214469 835794994 992105819 604988624 571799426 968914828 141677869 652643219 151463802 717099262 689442818 464707533 441262452 186665292 657819229 119723286 751492335 865894620 878626831 995673595 687420851 655932949 885326104 260679530 335193124 738753464 367913455 588390181 709619401 838531558 7778401 237947571 572658492 415550871 81451861 586169930 283838354 245935521 139959201 764385390 272951955 795626747 957014616 730076747 89414307 719403821 441661555 817988480 767569384 970428644 572442878 737360400 599256705 320679407 378802522 522045341 184588278 930716763 323607502 884888106 930281766 435593295 19526858 244335194 661157462 511609539 929314380 577952954 275497255 469349731 815331146 257623726 241771374 991372098 124314943 511535907 123024640 150521403 817103821 765827495 902663477 581929416 459354825 43609737 453345738 891265318 304951291 244200729 681769926 491504744 354206485 723920836 613242048 101073123 338989137 584965506 605698163 989675514 858631977 740264008 521901249 346712283 726702810 977616673 828349263 888526607 728430314 154084944 15773087 842592205 400585513 871901395 796619129 723271747 994334251 182781019 816343610 84008297 666044329 846337894 586829348 31717061 294817960 62477080 788265361 632737931 450812165 673142967 574931987 921270646 578535396 575981239 744241695 350270287 550086531 754391949 101726051 333802036 282435242 477748030 213328741 541696073 621851039 188359373 312154177 719094383 244510957 294116716 972568196 899443384 83371314 668493752 105883438 19131963 352305934 960420671 121575282 388760894 810744653 620471057 888561661 887067334 69212327 411177407 623307362 574589806 819300639 399996960 833180230 245697474 109055020 758561245 817850538 282133635 851425797 394694614 191162590 67524351 189403544 104680500 786850275 717158884 387837500 956513409 691546140 861860434 419545017 457687296 141867454 387208425 413958874 896305251 259258757 772704564 728814373 933958407 915862216 949815943 253782437 809063109 858457212 154981560 955751796 315834810 413648080 274208704 497211469 40553699 723511855 734825794 92858470 576875554 596143019 30207088 984172973 530950341 323640050 771561907 727276999 126395183 493861634 77072652 49241161 392483751 207446697 666082709 656665980 561499711 404467437 441203583 619199068 913713113 919037252 226020396 67158247 823034346 381273151 178410201 140114048 313988225 99021082 658251018 587710405 359881240 830571406 16429740 763022527 60423391 276360248 62862008 438359954 691129167 148120173 301801672 852915664 719542592 440957785 982835523 371235977 233332229 112419986 695798988 494292541 810278976 115603975 523022738 622182692 884512349 293578972 615392387 505151814 183672976 959069865 286375945 37941237 99651724 80309137 538770635 86610698 766443790 293620074 223153812 878526496 607687704 751958890 953455844 47310745 242609686 643312675 922733504 549946317 642522017 22684608 699058383 383678943 587119353 772792720 829071954 966254542 906758375 221408243 993955535 450851875 45692820 132639984 426497745 519655029 379315889 155760952 377574944 693451394 864171771 354206215 773548008 241795455 30037670 734308054 181276161 313624706 936838033 149969998 367245726 106755862 750665223 669227169 381178241 226219126 570453031 825238924 828543883 919654677 314849376 170358524 916118011 841716883 50372032 152429995 465701025 149436186 261608826 92294871 196870465 906889801 69113303 394220973 101217125 390794601 201973823 486725505 913430965 872614452 356746883 105631610 24655124 814352770 86535023 688140975 234797040 219396974 500823813 57350762 550582935 404596057 939629520 308688906 283533180 240534567 327674818 331538357 807032069 642033446 413366125 64514348 569645786 776238142 694949367 517109872 35037568 830010457 931951101 939741014 637265958 696518540 834947594 966612025 874084688 563964284 360670312 428691338 10787689 380864367 158508412 399321582 598851990 523330025 502591414 326558574 420539275 801760024 275298896 345412679 129628192 118020094 2954465 245894830 58990588 633387045 855807199 590880311 880052042 774430784 919530494 199416402 196378128 324142223 279812541 643662755 20831657 205532738 875636859 632696493 422501689 713863072 721134993 113864709 486758504 887791524 568719909 320222703 609258936 211512676 266895435 830615005 541679258 89145819 481234681 335720457 285564737 92630435 286094563 225749148 494778484 274190416 486431930 732282318 471648743 279255286 67756285 766678923 544927474 341596475 440441007 495167912 519702231 975160525 722304323 226902673 660574376 675824329 659312856 352076597 49266504 82240626 836828334 43836402 336748303 318493582 765204867 201112562 783450117 449501219 414335520 768327609 515382122 631112285 634994839 969937583 232980755 709655096 476748145 470092794 352888002 503313703 322442490 959882709 891981079 649617553 884392515 543551987 265898027 584727344 805491206 706508133 474103078 921962605 576737990 649119423 720147028 633209682 106116732 390371048 207198422 742724583 623408766 112135783 882335124 196435069 681808723 121841555 404718675 850747468 198948092 223799643 62519063 902372988 819172403 660861260 687135338 32850724 641090164 72540921 537557 947120893 527177859 121635791 207005612 396177568 54803943 72767574 627021997 462796423 653973971 17820334 891460885 278071148 388883399 710452512 546476842 657260270 426930603 250492257 7021043 73003637 865726075 770686737 438756297 11124777 151633970 507633494 428725637 692533793 356283842 955020890 242083202 307589866 103820790 56743818 377800364 582133191 496297506 332863939 319469954 484943832 666755166 998837171 394857097 137578552 898806530 418115503 160917994 13150452 641791436 69598731 946366363 795478639 280987771 5793565 609214497 653295735 766301476 31421960 156501495 747643880 217881045 314644611 314802088 247853667 921047770 924467056 953461954 345986341 560422125 247677209 831528447 800197615 264215159 389396567 949771633 998001055 74463424 125116411 864044097 618506274 870018237 596556738 318480114 572528158 199402881 799357412 937805590 170196422 823583450 931187818 226063391 287904258 688262728 585528038 361021011 862099501 88668203 639828373 33265190 801390778 610666230 199922430 424348226 285369504 989883725 602569477 511468144 573151944 241183774 550696733 936954599 787145127 720498279 869384374 300368336 148399040 308173683 713706002 717398718 572273287 745836793 922459060 623069247 339753572 79349996 471827982 626677717 268474189 841381215 628072325 874180322 669363900 672974818 936317467 751692346 510527279 886497166 798042011 206764995 790849665 664978530 329521415 924671881 229661136 784904530 785750900 421739269 277607040 44778867 743544304 558510112 445289115 990876404 977853336 648946007 511731239 528227395 449570089 993769884 449824819 609453899 496051551 771787869 656142878 660240355 285682032 506854100 259189476 471691438 349759520 720868423 272162271 461983151 177489217 266673644 733680900 27945746 69598538 690715996 613624244 462210958 537572909 938975766 992208993 178999570 842231188 98884313 593475361 253134509 331996591 993031391 185464772 443588782 785942064 736463546 768838311 545549022 69652913 416089862 114565414 263892116 601495924 676762563 267551772 64139093 125558551 242379458 301298565 353333922 598213368 58997590 43773518 381567450 343300194 70826932 343178921 354472399 480663015 357968154 507886759 152551654 23904691 370317291 869360194 715509319 50007294 957947922 123894186 353328479 368007602 19966174 941296782 60302259 163133471 2899550 708205425 837386317 394752616 122199064 354919053 408668447 318982915 13518181 644074346 335792763 731211917 271727642 704976683 933097551 221790002 535074255 95093721 998062359 666636040 399855883 668030782 423960347 888225419 950394413 646402366 660926538 930548905 163383253 749289705 824936237 989647124 440646495 82587122 849111227 16608289 761536880 457871011 770211491 733713991 348355691 958885899 96857356 349894781 77695444 624155858 889496046 162282163 72586511 592286648 73216555 152832795 719057609 778820612 178592227 90584896 934261466 713513472 431557697 318150547 440561877 364021696 805320003 767327387 417326686 732687104 369161367 754627355 958670790 450232919 666444031 100665944 319809018 160174400 389138738 397438006 430853500 463133806 742570444 305251454 941390379 347985220 367996643 851702913 173828999 795403084 4629946 99812380 619016015 162902420 565318214 498663208 603556506 522510801 386938725 74353433 497860616 592703633 262951018 700942041 558123554 223256691 998414384 898050006 940635404 266698347 737552482 823448070 702295327 96942831 21760309 476300803 35814164 739952066 822896600 46782581 294282809 365118167 219333638 809555868 103253500 392265403 64275495 114862223 921068771 937607818 383099685 488883154 961015835 227248702 390787934 578251752 553519790 770934467 51064408 660829708 698081539 398337363 744510704 508079723 505524603 808988918 637193295 229235229 225254236 331262782 88283847 801506138 293969704 456870135 90404296 611637158 394868657 294446789 733077544 133994457 26341562 500134389 459275832 117146130 219239874 428100321 505311613 97012623 336213644 30419938 618354956 28420809 592768392 87032566 938713800 129177626 931959179 436314828 806558497 492740435 897770975 302724070 269001411 564167930 261963003 898769345 572227456 555788602 754235399 333524710 52777498 672272512 294294917 821732626 673269104 28878770 328146414 849619318 255331264 463073197 949323247 820885808 604802772 335682663 392067288 21710101 942722677 241108727 969903992 392877972 856428380 841617046 211845644 557518527 273445976 504084282 113827143 452324303 547261602 724012898 25871087 100936825 7265092 437666210 575291293 188360756 421430329 290156604 101522566 98035109 956653883 723067104 665578985 513079654 450091384 684507844 159704342 158468447 831692961 604129959 521301351 404223157 875718503 887725909 123897565 103989444 930516638 530291726 13218249 67820227 581222579 264628944 433069372 304075462 666519329 374889210 747822166 907752988 851334992 372750804 75467039 402270518 116081017 632359562 811408129 198139180 36596972 976113141 471719671 368984851 561631812 642227622 803681191 39695763 188277152 594014492 220411909 37279141 723663384 986550011 180100149 216845560 241464867 975276383 725222769 285465232 755063003 404984721 10568788 270501778 42420429 480578199 664711372 335016849 102333567 72317736 922898087 797524953 577658781 379086390 765514909 445608019 351971532 446830827 144197261 630366805 467292351 434931065 107482259 708285456 212587454 450123823 873018372 216818146 143198327 944525610 426166788 595429756 408663058 38675373 481250238 955391112 966834482 868473062 25146926 982448599 726926757 294629684 948665928 116856190 787863428 40831732 576857264 641254488 346562366 826221508 76171031 768603730 476366133 648910788 163982882 949981677 866519367 26541671 55714415 855848422 705572268 851118380 320395477 210857784 743571533 479401509 747356346 538622865 869694887 800488597 51666137 426509932 76422833 274663083 127775738 339201004 727954411 893861071 276124222 295130677 840954737 541337902 484306721 44478295 73816367 612059507 671837000 938923502 26310167 595922415 796920356 505472421 581297067 428641585 849633437 252993664 545999147 732498377 809828258 461499268 91652171 649227073 305397736 877098685 157630231 443521679 838231038 814969214 182052005 967353395 833534686 578176663 638292968 308319461 705651050 208907651 95942023 699110383 244684215 936335672 491743519 98043607 891437684 456296130 179933922 107951948 318375090 136935160 819465902 719270389 609717270 717744541 213097731 868016619 394474467 251899155 322463620 101780230 695610702 26137028 517618169 602448700 456490061 780188472 203912929 750899339 820743663 764117509 626210936 356812375 280905836 668001773 128455984 946550311 741436334 32253234 671933053 196269077 726461426 718308338 161548161 396708660 714197877 560967347 268029886 836380356 889328749 783259421 911896112 423380182 384876594 14236860 982058496 309447859 844218412 903833781 779530397 656280608 263713255 969180058 674809092 866298555 671272355 963932369 840929550 267837344 112994022 202519818 572578822 613599130 134164691 81539773 269729406 262792006 129796019 645416307 798895630 824210168 900511445 796510327 235844391 171363332 541269595 314467319 299272069 152553203 258841566 909985190 793693325 277688585 769579708 389808944 136855788 384144926 53726380 136329129 291861961 382680492 319189485 686111720 274966734 595848491 670122354 127770131 164388491 157754732 543001950 361256999 804060294 404204136 819168758 386956484 819731320 123390845 160909985 854291404 933471281 326331414 250453785 858509710 331896984 222388618 165106014 671898704 913997578 212305646 875589617 421655054 682867027 793352140 619820273 457882730 285383300 619308815 814975411 31798885 627358009 359016852 430788554 370418671 156324206 902116015 466928412 191344562 901768172 157155748 874659511 525073269 56398258 453535526 68725658 604017637 20796485 628153644 479519952 11364413 25369247 379734476 727832031 588127890 938866892 556627055 715362828 860654972 868558452 727402813 222956024 275967954 615170814 62200589 91217758 754021386 943335574 217496650 16184570 589452544 923545959 210403881 794933076 727128221 100330235 361412215 711892015 841608190 347386398 912814891 278879772 754499448 773549925 721897826 952997932 239190179 925399542 800271082 884361892 577279302 838241038 742525899 808063653 408920802 869219170 147469227 738445934 370046228 3086783 154481805 780252031 689713685 341702222 943825366 980982366 839528346 570726109 485209768 965451274 466508608 227703191 669006893 569610668 93479465 436520781 947613448 212260694 990844095 364057717 713839818 603943568 3284418 900867581 489816213 520782977 838648006 104496861 573234733 246870190 333417625 831019733 191997498 214309869 768514940 721573439 255590822 806320470 578696862 217958474 497800829 461292005 821677679 420334900 682162442 131332498 911750987 124772214 301583523 864011487 95097512 960913512 358487560 29759525 854650794 473452753 306572591 614292552 574217624 254278722 867904342 404718979 911692914 642644135 771074506 969476167 243059582 37528448 797060029 660278217 861154270 425216784 453664304 902004888 472559993 57897018 659012459 94172600 710253962 612314099 39314241 646731596 906786142 216540333 225939374 110108723 111455015 505097291 493256219 741311432 456179261 724359613 410520226 908227486 332651946 581971510 536546913 618352505 281637928 551835732 605282864 838208949 657792690 156722855 298979535 651908747 72462697 5016341 840418896 996704186 616816485 621831234 603305209 355188558 269099884 489007078 204898953 756120015 507008679 69095015 689164499 416482714 898975987 827199605 170315011 181541108 132388571 8830537 288737849 693696170 663129928 626896950 767529489 192381817 833201746 970514973 344179648 7227755 526789668 182461063 340928316 6036270 252575041 815537991 799706592 509146546 449017488 295123811 138798915 270668891 826586154 78183402 802716223 42773990 875632106 246661280 788781753 782655863 891674010 146012964 690809326 238786272 164508253 936094820 794752609 375826985 360367029 539455111 845459079 895719802 107219158 711184108 134393554 264764858 83121762 623259710 960218331 409649728 676411565 181073603 6724371 612066679 786694843 395643125 792709203 161677271 885799249 918855542 303191372 988230477 358096928 26574272 17148289 420318495 819919157 264632109 363261615 230633067 809233015 392406703 542524748 908721767 996013607 760175406 548376893 747165385 623793877 814459622 642732161 319676443 992951133 849122606 390451986 662044406 304258294 648539907 444578419 711029790 313729093 38387243 525843096 953592442 191533167 780157479 252808903 237231027 375207792 652989510 506212345 337567822 86100250 419062055 344931 472435349 816596694 473004239 446685157 271642134 727701756 52024888 297662829 763312342 747366072 247080259 101047008 485069143 422728947 349163958 194822559 335716882 343097867 784213139 814522723 551225908 480884172 609385934 908692439 359055078 40630574 273496099 380276994 249002553 827676089 442737476 217687165 387301273 391109180 162656590 748548701 211918080 746425703 537735421 624836500 178098615 513847552 119057273 482839316 915499268 564804172 788088379 56866299 241768602 121798248 364948808 2181697 286361786 157179195 281806674 65060430 451199313 738427369 291973440 531897179 396717305 342339733 468588144 516048251 876538514 576568309 8523859 726824337 219210680 99932328 819872836 481332407 708768239 74454446 340185433 109300371 619339410 817196012 395772568 145238600 464189881 407880861 64193628 898354440 593552165 682449844 85323067 569819675 211058179 977742731 421067163 691825144 547524145 154935771 421160615 267166761 460684269 403373436 894978740 583511503 307672802 604162357 248834386 670501594 728995289 681695496 757525140 115414349 274773877 111422549 673103900 141452974 732789714 59352506 165158507 476683646 724772352 826764549 19083297 378489845 378118756 389019786 649421285 217521933 864884724 243177902 447570242 474890143 581882343 123455951 522532459 570805120 205520253 951227347 753301429 13453399 795410514 208659964 156293282 938336882 17719840 374046221 848395545 207668721 889505130 178084135 969608135 126198291 226510703 373932168 465404968 241984660 120298120 406571567 158934580 200594466 346078713 723940221 994755368 957407655 983020883 92282017 424463522 812243505 788048449 910716629 367005957 410810713 393251764 412436807 546683552 982858610 680122706 618596758 12226550 218366774 811025892 284236934 469445549 667701129 917847160 641006899 597954701 234915656 975536130 863606132 13319520 597226713 56589231 16157608 75766986 277380091 705420130 197316933 342714838 127847262 604737511 112884268 451748914 419578238 319454641 477829210 917057173 995344057 298837188 576868036 720869584 390052891 885272323 759077809 246496290 855909185 761420588 385574681 132655104 458785562 699706230 469929974 244907647 987971115 842091885 909279536 779582199 183031106 984324061 256918004 268200004 414549300 6786616 688884455 103435392 347693536 27817257 172750397 500911932 512598967 685668069 518237671 448800330 669454057 696083307 796462564 595473115 864352394 581319702 869737943 726426189 31062489 529719745 717318243 187742018 830168619 263927223 919951196 942651084 712440909 193729584 381335367 356095491 631855188 457692226 511513705 714266182 463944694 258694088 886511892 926446025 891707621 653617439 566557662 596723695 820331841 637280162 291623118 279004373 244029804 736851908 678183149 943749764 701411789 289859287 923236882 578313519 735573984 433433937 692668487 442188770 308748360 675503897 811023640 812666084 964054677 114172119 12376123 28594382 790773627 411714448 836337791 914060311 229239460 256966726 628509870 945846693 857132896 375640751 682779683 789132163 200119430 527636768 207249261 838809491 954050634 128849076 771876646 725684876 319903477 174325042 280517375 303304562 853447329 758830176 743828724 122566073 555743688 837679903 383558640 752586430 21550487 818815767 408705049 895912847 814281581 669505863 405503636 329911940 921501169 223401921 525684511 516340109 706425326 109362705 304721741 208430402 412588748 674159832 234180156 2243183 632546556 832699372 233172853 377401734 540704592 817800265 582240323 427221761 363556470 2106425 115314823 864475658 766749020 568264214 189133712 85724499 341797541 748575212 528375943 333257706 971795280 604758343 534646188 956640576 242801010 762627552 501302481 128828680 453979036 538972173 986815133 147329151 560392634 363262799 22511701 707758227 388790181 640600315 301579794 380047510 284618108 356022273 736344763 64194221 213531138 240708844 399098755 141807062 806704500 564783133 913363697 947534757 830045621 707125504 307722305 901116117 661020565 528624065 213916888 949499385 10166900 107958709 354465943 379489434 772813018 884414658 383469838 311402282 623369295 857636271 440926936 29350062 612002614 854144856 960251626 916822296 903264963 469759560 559959072 528485268 761341569 349733530 415169448 560560483 227404752 245698642 842897747 458592454 113450461 443628328 19374222 574703608 409514944 338231286 502268880 304287477 671385207 87785058 927807284 451697051 500878222 776556439 155927525 964055568 37314170 66747830 776508302 637546988 130891356 221531008 891867567 600698541 555805322 916263013 794718097 633742489 546179900 576971646 152913619 774033790 613662729 825687146 149050094 425446982 257427700 506380793 961882298 381710908 722706213 842452109 891935901 204799670 886710966 553725822 424240421 530239484 530930671 178569443 519712432 499152366 832388520 541435964 882341485 251354447 850809368 869234207 652088724 599747292 228705291 698852949 202740117 43090257 972138793 575476509 200860978 425335903 897656201 912902006 149935122 947866967 188831719 347337833 51561530 269012236 719289145 129434461 99924284 749893153 710310479 769482894 603319410 173414867 328504902 696631639 13098315 586739235 509547648 835193898 949174736 88421548 569080849 78593388 682039233 255298994 862780763 521134155 623072666 937410683 365101534 206199487 190428498 66906474 764166094 952056743 551046706 804420950 357404868 772461400 794277970 423554627 696314490 147195578 100115407 248544965 852813729 580995301 762070231 961631159 579510783 974502272 291319271 12249112 126882281 57378041 41586067 809749075 25498828 337136679 456581506 967896941 436359787 280559359 935483355 567354192 247209206 285153013 921977332 89344700 260092678 964659033 483740089 656500489 173446598 254518133 829681165 969451563 948336201 909993886 798271845 584660890 153121821 928081781 626728080 856431193 384119111 233172387 331834524 521693726 895906415 232539418 694563312 571616324 312525694 307136144 647612361 502427647 132983805 254074621 277558000 408619427 721049423 698749142 254260233 709196274 492496965 754001343 799574562 285239781 101803289 309969975 563615250 596128175 666567842 63476170 451403510 370124958 112258340 812364774 948331834 293449484 829961949 662487140 987594318 144846821 608708686 174266542 904227886 166017467 491313600 564659915 560918675 833095686 490152033 778922633 536874803 818667620 691883252 940364551 711938003 73512871 408870792 699594833 983047449 320454811 990746409 756696229 885075699 742592331 969076364 208719122 950433240 738491514 450782436 781137485 482437692 90994777 587530298 956642868 301436257 731718977 278651376 297461593 397070761 874425255 847877204 801466380 321080627 17722721 56876745 872562813 428259596 133835573 654584244 353976928 386236001 533660943 148763698 835162836 952126425 192200730 574233480 476981158 366488112 675699855 830591482 371394606 606355889 639804575 427524181 605486038 515626639 237031387 596496117 268832057 308725921 139570602 554784547 13629204 956704289 745032858 601442894 443389258 183009796 886179690 746026255 943977665 70828388 64145279 403881191 529137276 910464277 26195423 261894679 94125833 226496417 488344171 279546501 300517675 606557496 71811066 348001450 48207089 827455349 862140778 684499940 152755491 921295797 174664366 535612837 264435641 202893341 467129648 934327347 112415011 497640442 765961550 71547658 699776798 100973369 343783787 524981819 534103338 165406418 988602860 882214161 986048097 983568554 366933067 138873779 224177031 475817230 777675 941074089 746507200 937441343 497698846 512232917 114034577 525738514 202717081 992612433 879402941 758934350 287870079 795721974 905192606 156117579 859813783 287482636 718133318 406710524 575269478 626402665 392065647 661413552 994603826 622595886 468602448 817017699 590254668 206760299 208174319 892410134 265772966 272122252 296851340 179838569 937678535 494700108 207962301 59033328 399195016 214458262 707660419 790581913 81470905 1023686 432582310 888834271 283848979 890720056 426870618 316697236 590621173 735017259 162326916 626331227 156400761 897950952 874297266 876549133 388705975 642700614 306342786 786562261 747498649 372768348 811162045 874514256 869529849 865306489 879319526 526816503 934078681 86961857 283914509 817976745 303349355 563224786 51852295 113938018 119051549 470868194 314679064 706120735 318507577 271958262 981739537 927170007 900793417 789483160 851803541 919839461 7209474 685137763 968739145 503259201 981217273 559534721 76176232 842843085 627721848 409193607 724772974 738862090 656384779 647787778 648121751 252976820 706582790 77756623 519144470 408479474 746900383 24104661 101712321 695723756 368407432 498814143 286744052 100131490 121302440 845516669 637379003 410493673 464357565 675003960 735005300 257475463 171522335 272333215 783688070 999757661 334009202 302471205 364081899 700547447 557887759 391259656 90478394 325537796 176470881 482720478 831639988 32069809 660025335 60490703 437697523 328822951 571074306 260150894 209440119 449124106 374933591 872926513 555967684 618675707 266226582 358863606 735932633 653702144 283619153 471494584 779406894 772451441 627527139 878503092 237657437 291449905 511056549 652769906 218926900 426588398 370417079 182182405 194068351 190713126 240309008 229482342 225090140 508230486 836100721 391578198 423958439 880771644 470531441 18312211 184151994 743411044 240797944 220428515 729279657 32058818 498040790 763011995 804221095 197811658 592151922 794269322 353202709 77476891 882070711 433777267 834002873 211571018 953026228 164544007 239611959 209661150 456804407 359708807 29848834 922737475 396895863 837952244 177935898 348169617 979453043 555149133 866225188 186357559 563494818 334360992 207573567 261334717 852113273 267930492 344530423 344889281 330200046 7970044 231224426 208074346 364404494 276550234 897303151 401021982 181862709 38129043 904085124 183910194 148470890 478172350 901620892 366625039 686879591 552902915 810908071 175357265 826796462 7775118 123566664 609830795 357690242 62617813 914372449 954467693 380415405 707905401 337836311 685782783 932397109 883983312 989470714 557394071 614795262 582432345 734323255 982104325 159111257 356325295 487304587 783468384 819244062 638935512 144174604 182133656 640712332 657097920 623536363 628653874 687620910 544806537 903480647 130189221 270063838 564874085 131822757 318722379 699193331 515697112 948491855 128690674 775195170 516562827 953364688 981494054 413894402 472770555 596185069 91041631 94429951 416039023 734161426 135338572 988910529 297031305 502955427 846733673 947278239 295433992 710834634 107015241 414912992 30157614 403884121 568503619 962789820 779104160 465451316 460692914 269183672 638085273 556752083 31053397 956990618 203770581 596790570 618197203 909285447 952529770 205765034 634518159 156641973 878165243 396187856 240666549 814583865 784683634 584981416 686952221 453780807 779263153 142300929 708507266 853866209 927536006 663711751 843339575 911070833 888050787 72148541 681629226 976805975 274550628 634281925 256376632 713978989 67559824 802137653 690197629 216220335 131159329 600232923 481595877 922890777 700132931 70565453 817316037 667909597 688016736 320033941 998200469 707670781 232362187 280492887 532271767 972146854 10304304 366060177 914645891 548666405 122955390 749078865 756895009 438119889 153048994 839884715 682503116 144341795 125948042 560956403 368904261 169386797 612228556 814804907 180273179 590598667 820968092 502982034 64555119 212638273 731124352 317093217 681389163 721003210 488070652 521303656 914726429 856351661 691585621 675977159 693192893 136568046 481153681 996647854 832539613 548658864 367361115 852439817 404539390 824855816 112382488 979631055 823144724 505682171 735669692 619729716 119536621 714467958 215890593 251553610 846244775 972061373 787254007 87354003 535915604 667020835 622599406 534032846 646277422 949892272 256568852 748162426 415584564 698678029 567267554 713823268 977900896 567420927 542793182 606290762 742788175 375261285 136535401 800862169 449932775 38392907 82558060 766958355 466693229 900117421 478006123 428565432 414322213 277799119 132520159 71369683 617979755 676885833 135842754 253042841 770263459 691689184 375628171 253939766 712537838 83213429 191415353 702299652 45566225 188318020 646119596 886799504 871090358 373522791 936127665 374394591 449487514 332950422 185480449 535705173 154927927 867989718 88535875 406270338 543976386 21377872 239248421 695312895 849798591 627726478 453209447 647249130 594893206 40785724 496645222 779192633 318621437 763605705 834164009 239323233 300769664 336472558 600336772 568458443 264967172 838912177 293052813 701317686 983125684 4672063 618411591 646601922 764132084 859128256 893126919 377559316 401738787 498278109 755602860 842924514 10611722 21583697 971112387 840441984 930138227 918090356 639814012 512052946 984858621 761780815 399882215 136591932 44538527 766459653 354641211 204201337 76932683 798976902 339092776 259689168 402990850 530439327 633024058 720599600 69650807 820066415 327330812 186305301 276954468 375927225 957846002 208950695 386854372 906981004 39395759 183839005 740647228 349822279 33282042 392351631 385523532 281118572 654886972 393709590 364556374 820752639 722436318 540443159 52941511 618723535 809052644 195350791 888958672 760406000 763194194 484277931 701444627 676401879 608270148 218216631 516800869 749157081 62342109 424284243 967649573 482938224 227015156 217267042 254359729 688685916 306133318 188734393 556051743 348887572 404959573 197808190 113002809 711212142 995929055 388078713 206413093 343135334 93774923 194585561 208057972 345023955 463977944 27970059 797583727 868634331 584023339 467118433 231705869 76898573 164870273 482043153 982988133 999697762 751918915 185114484 226587259 771916283 882304947 348230758 762853592 399175070 938707962 724911868 87487999 823692317 177829312 15698151 839078388 831090633 335160019 293698875 825243521 423055852 352562825 707943343 130572693 683120819 559381156 435818191 80436009 280749775 233006656 236359693 510664897 708055712 908159200 725749154 730742193 725075796 498328127 853859239 235016209 164052883 114468144 756934678 955251535 43034304 419383716 897734177 158539740 458856515 976413916 54165480 612985484 167254062 323850004 91331547 418741495 811900308 45145664 104266203 839401925 435117891 845441127 39166321 725179931 996182228 485158757 905036175 677868288 826466366 631524159 527334920 725969075 287607063 792691120 677187082 807175009 306830752 889370860 956805879 451052015 657635047 19604588 396513917 207622917 14609567 663032363 552959858 517833456 532138754 167406598 27177247 584163030 485845634 407375002 21684910 101799849 768201730 578477188 52006501 315634705 555345563 841174142 360297846 3496054 287788574 602358140 926463491 553493259 262481899 474362769 258724927 776611047 564443627 864427248 309540455 706489714 930977148 189689003 182506532 819330572 815643185 678542260 728203450 213024193 937362952 258926284 283462502 143271490 226527353 493143834 341834855 431011388 767547711 623932490 619772010 877703669 968928754 959075917 537741639 69331468 485045938 504666364 804128762 654506732 752975047 705895547 114353244 976979905 842411666 799544044 350007785 105071830 620475758 467425695 143060446 946753965 722985152 302368041 877023291 184224020 807541031 69535031 761937595 484335206 945283432 199976025 869836286 828086557 606138546 227828430 683312592 16523890 879497363 541052646 492320577 822162623 894162864 563094054 161524067 385356215 522276541 339309476 728486394 758185174 212119974 372261878 376703773 913496707 159193260 372752853 592309574 255705008 399206447 256419625 161862726 817871205 421979057 985810140 559515455 830844211 482619241 377738569 126784962 957656489 665547733 160251411 962673992 470658480 773262867 795118345 715901199 144496493 513107260 597906816 223054437 552842029 631411595 671341809 537254597 923596513 630932489 982269127 47331752 944710344 832362851 202134888 559500329 509491292 625668443 630030545 524034016 184664020 679081301 254577428 877259645 247919297 967355054 635841629 174725571 523441761 660194125 159686120 576612546 243525343 273685636 527514447 311492239 494470421 56377165 306006534 833086740 417410802 475954704 682463562 422104767 954716055 574475458 17280993 496584624 4433619 441573589 902830077 494730652 411250894 198281609 504136246 773640274 583023174 645773844 271476059 257828221 958157661 894225706 201403927 663965548 497731240 322727261 533508302 918100018 466818860 881382108 751609830 84490743 260402663 750340384 137158886 181267764 367447978 957658467 572353685 544920185 520862194 880911675 493194721 223801178 664609302 649419249 650178302 935985599 164201148 105556485 234955832 19126383 505476747 967628342 854395412 288550330 580368849 808366055 4589166 14466600 389677520 3207676 362713572 810600291 590018331 43501001 272203377 452601564 91171269 312269966 668473448 479657172 359090253 79568044 506996659 614949405 11696550 480594673 194419389 120132039 560684499 932183732 653074573 90739780 644241798 426621288 262865086 126068650 669126849 944289072 191494208 442114528 362664768 642596342 527213202 427876749 174093247 312147702 664414518 32086569 376810595 713771827 426936259 722968092 685815959 144118402 187369932 903019104 460915464 731808445 99927698 685434651 328881673 977746185 512020578 646967981 438136791 990952543 376322310 28139903 922060522 540276467 199936748 958219016 74096612 819932934 30600896 475468507 324162500 462318250 31474438 149919051 508120791 220116178 294588326 58322401 365397931 127308742 607540509 669163460 796988835 123225490 946140329 869384549 493650152 37514764 829468511 589398297 946867860 576475683 180362027 346116198 787450851 952550974 949260958 899430760 490747249 124990763 628466339 403994186 552393339 859947539 408323081 674578214 225481698 465307136 17649099 831345904 279987910 456908303 837931022 936301618 120208026 137416222 621130313 829110136 906785472 229286986 95404896 975157539 368153330 383516263 644215160 31822271 62602955 797212444 729318548 949624080 997898491 890403520 504905719 363727471 934104974 320563600 924792101 709711724 295787134 815794776 536190289 577805762 949131772 594132326 110096284 825175355 199373329 519726419 225910906 999652892 253931341 689958636 902110243 66662634 612233119 591889637 277573891 253562571 527741849 117001462 776837556 829681171 411644376 647322210 930836983 80562141 347864664 906390219 452953343 855002834 236453149 425549675 950005215 679602611 770457579 374065184 844717239 122218763 271362680 147721929 698726811 161182532 260894967 453843782 797685326 114342073 179982127 896809807 187802827 43577892 764055225 870205612 530026929 209092165 887113923 621608159 378790092 12227369 661085525 211488602 376732868 567448931 72381637 326204752 608664138 263791464 470857603 285611418 350049917 462253229 857098763 778097023 214747791 652405356 824444261 874494137 130172459 570704819 401174071 832100050 701596697 732554439 347006877 117899942 370479936 577084446 739337588 867180953 100678537 259856820 339851563 489451524 430469387 733276169 144640709 692420285 933081180 148341923 884425565 700790302 742274787 571685075 14091145 520664616 421514698 664333842 871356993 259881461 659969449 184017522 400622524 38845131 427718795 70186787 483765086 439161178 405241793 961089398 270110222 936814730 736189682 39669833 321094330 970476909 420326762 262561898 951327743 522086316 506256253 702353194 964796226 6477267 459346025 935043563 269889137 629784881 365058274 998057280 840461527 631379676 42886969 178441754 61738072 278207932 564614539 636963867 355919321 834056123 238041000 848900486 403358206 562912948 806871514 742072176 414415650 518389993 697888405 200770695 797592841 943381015 669604820 128897832 394294453 310692787 550295148 266979198 720330481 800365861 285056988 649745126 257843658 17032095 838654744 626618038 970994425 867613431 445178686 923984801 910158019 357726411 604972865 608825224 735329890 499801111 847812061 436697622 874055639 133617030 93560863 893619139 75976344 10460337 984676509 744816625 914123119 901900258 381476844 892222816 561064131 187755816 437630875 877075559 939528014 665724022 513663527 234392117 424782653 927454273 14458924 931530425 775506897 974442662 771981737 777972161 326982744 974897889 762915133 814626919 275695464 268945910 824005178 929137202 534592267 262132250 427459957 405594420 453486161 893489615 394137348 492277472 857056189 236431866 921191664 265891581 931190470 756112680 108870148 412156699 979699696 480723301 884186165 852640436 497367382 581189205 210882139 787034332 52621264 72172248 746653048 896597721 704043784 563915442 864218731 817425628 375276027 965790655 89741647 572473975 52087203 469158605 267079137 738200306 565998764 189030444 691908677 845030132 265343172 576032067 589533342 525860468 888547360 18661557 584597022 717529435 500518048 391262591 322965484 795153181 873039604 369464456 20002847 822324458 946541788 249295501 406768077 279033471 797964648 18329155 947294921 917405048 179571371 4577233 422023259 291471288 84809924 815697161 356906728 15640036 798330018 868933322 537922394 282290689 965630519 216387169 685053074 728997486 390646130 437602167 789112308 444697008 335628434 579706552 937343217 67853502 90629274 26087569 250168428 224497641 819253609 860656535 763976715 480401736 776030735 811056913 924154901 958975431 107438216 73934608 387770304 475403947 386636663 517141456 503110027 878483655 224277326 804882750 721394741 386627503 79310328 891798995 574763843 474697180 620583332 5178725 744859646 492498149 216168597 17331094 585247610 112753012 792488727 718498365 532485101 666404958 524751870 507810659 336496991 617191646 72275351 310547797 786325543 410585916 111109245 829515692 150775675 244040546 230122779 808508853 825929417 131062592 553454408 697789463 660163011 102472814 784515335 7823984 951207871 678343282 60079618 11952733 943701247 638804718 671451670 963811561 533987824 182151536 207781799 32718445 932928513 498108511 732542543 530860369 366159090 621727855 622984124 26517746 733798424 444753978 384864565 750581619 417207785 577117073 826213858 97383143 407904309 743875202 945686414 57650628 292115829 600705757 473932605 576766949 545040641 406291661 531466660 636100652 302418696 37769881 319834211 672962124 608083880 85262527 268207739 774181150 837750097 164321523 194636782 155400517 649942652 360386024 388405114 286580789 347640518 760196224 343606880 224756211 863523568 491651468 94119190 224599981 627935776 252631262 599626284 959411140 12107633 757220542 675969523 571705392 17776557 741868002 515900195 297345270 612415155 446631221 643813577 124018987 712567257 30008224 239283498 461002767 406195104 542496603 15560720 342062871 642887870 756773343 999721088 307576622 822585853 680644296 930389931 233349477 644609620 994121680 940355355 300223934 180978763 142670309 397151003 342581646 475949947 457790107 694600150 835528227 233385396 229404352 642673914 465125233 207691172 874690726 919528413 409908581 387578005 179914376 131829775 601921233 721919920 454002267 501648159 436354025 501308548 106380835 867168009 232630493 571481839 717351611 948032493 113627692 304962838 226159142 246394140 675414802 709989023 177952705 976338400 494811089 360240857 986024234 190083516 79958194 609150611 621611112 450329302 997248746 512270156 290399994 347897759 681466371 434668736 306054778 463120694 625272575 82413367 876846482 799280131 111539696 140194952 876331124 69196422 360121069 978287608 998174115 429653451 498579877 612418740 285335730 616114362 33739407 260108525 165539542 161807268 304025637 451764031 59494869 381347206 644328639 447808818 670689826 277466987 424701121 696990977 710194626 307824426 389475498 545717926 904680515 692231826 255940395 939794778 794225141 541073071 5667601 652399123 175878731 667413496 193695921 143860107 771135793 299804399 274618955 111653570 633110745 637579699 817546681 462295360 102440003 133038754 237548179 714876519 310470612 208743550 282491106 894918218 289006607 469429609 992329511 922830264 908568449 148116611 886918075 978235297 601583181 534820167 423436727 761798159 276223177 925126243 84383174 51670840 812322114 786201186 809909420 32300487 892585267 44600528 41387625 185573472 372276069 292560315 727456245 715630018 38965924 913731777 419455299 118748553 770128847 621716313 65999890 358551779 265184323 131670709 98489216 591925166 505007523 942659539 975950373 706870767 102347108 545136616 856030494 41987499 192313369 349892244 491743065 951689837 666414158 878880716 218261742 271764417 510098070 6419413 114578228 766402978 55561717 343596740 702965782 152710020 502053515 499382242 155722886 325129978 131637142 838133104 953985191 265529623 557756135 471217407 795674863 153561537 291596557 443805987 787869888 485139258 332906447 895060219 733511455 214737081 812847776 51336566 680912969 153741372 990231317 646219485 785801496 181522946 899275552 260789515 188261539 214921203 655531578 966419961 148236555 271679229 26475810 869591392 988492522 749651009 476859871 99220235 526885544 927025430 165142001 829227597 367958547 618447459 128964942 531592254 990159593 2939112 398329971 790872611 429193003 54478723 187461692 147563680 636337051 87290674 638493433 61884483 525830954 800034764 421669783 581925309 107627170 164814143 701849250 865820009 90987940 277359449 658859753 668625762 976874848 754526934 603506052 195660232 945678856 69860445 253697340 144073350 673331817 746792505 100715765 741969186 268114393 826487913 15930539 620193719 619399457 143854247 393408994 647139413 887010275 108445909 615522829 230029630 957594364 96294327 15581408 661123601 394530869 304498796 250381839 933760894 908686787 952072627 842064168 738261009 259056981 425208929 146042397 467157923 228808468 390232246 476718978 983712908 877054980 683560773 401908699 760784616 487232750 72225435 323727552 612381603 217964486 861984905 468287265 209432815 840628795 609340856 738616528 548445489 62386444 880604732 270369825 945816234 63572699 587080035 47510530 373916838 34836987 21825367 253280609 523611294 735523247 883511992 53670477 441691603 62637529 548692318 344331165 742087152 733969577 862664653 742540049 968819043 888762941 437313910 648648139 233468238 607711693 233370631 199731329 54577001 547749756 685513489 664947773 877506670 64086507 400632471 708904925 366214294 821890134 516402620 641784966 341086368 741300108 600841613 90432976 51906553 4053349 268783585 178206560 381113956 773430580 148957161 755975074 568872856 227597382 300369399 806352969 381723506 18793168 922900653 222376095 176109079 990206610 846286072 287910909 177449265 646460908 773641220 341972961 789166239 321227117 693916904 953651011 337346467 492626589 819972931 442524111 458014736 718849912 862897466 558358273 541025411 240884101 346569427 571524064 215790033 403619098 892330747 656323594 701589106 90374738 175646287 43746043 814057330 887312205 670535490 104728690 998497194 265585365 218352827 646224477 766608059 826761805 460920621 209734775 911137253 48789785 77384772 616000669 676352118 712081580 63151364 851185746 463406006 810069824 817750010 250615440 65491468 907389194 36026722 573788859 127107756 51685436 629222736 708785661 933595676 126744996 983696071 227842792 792729616 599587995 776936388 718384524 22628528 699602802 559578745 456571738 506591354 619145931 796330601 805553630 273437145 988028092 504793693 230811635 412413167 379514500 135089527 427086363 322113075 76180169 808839086 903483184 398288233 463898880 573431421 417199027 161967542 893304253 286466834 545273241 479967640 320827588 334544967 978984901 827254674 18818925 726147211 374235000 265242482 728634079 465834254 457110722 478510501 317242107 575687053 867183393 565062 808508568 833027255 123946419 41235196 918785759 148916603 946199165 28073694 163139433 420249154 502405195 568338291 497457795 348821423 354392218 954141563 154504456 837820894 368571245 743609222 722520487 594352987 159497360 270981127 764807292 80386151 263456505 585350553 838656794 172866121 587891795 356413572 860682051 290635655 707189604 838347644 450337312 262150900 64911999 483580313 803312808 9434760 373671395 784597149 643600538 421761771 391296939 745648685 389483301 106492545 79497288 951083781 716006458 514385464 5323998 299865669 97945127 173108502 487938654 639549373 369424109 823296729 498626774 605896321 635313962 765435584 420141779 281319398 723045905 655107006 760213387 42020243 53727769 516324549 145328871 939026973 476193934 965778515 507861233 114189936 898692100 537713901 183315477 602885104 199922608 191823182 72210511 221480088 926275624 531624845 15238236 80758199 519660428 319599255 905583625 446908325 64881040 48364287 590298273 278525106 838656061 441341079 965380389 450182890 283799891 928086674 763060437 741841740 40841421 267073703 286534415 691099485 684888076 124220176 51848597 170944360 790412318 796392217 34945745 800675834 386178050 587208683 227640853 809390320 775663985 640677933 18255395 392421497 905720876 38054483 494857823 964167819 270629242 915129856 316097387 268577790 566391393 402318856 373495490 735309995 882554811 459781213 437640259 205692926 876708150 58111379 481679854 66451038 656255702 833554112 937304530 777649470 907105553 9095167 880453810 572733988 727880529 576377511 755488719 424680506 335566115 115226050 527838448 313457704 784630637 286723866 876141088 355059239 262045772 570935754 607242357 136202919 441409773 698209934 778971656 9934183 296791808 465880998 6968998 925579454 463070846 25522631 297606747 315175034 662556650 235275708 801777387 485317271 376194673 761302259 797665304 551252080 897082827 655044616 482739644 443875399 86054932 267544656 929654345 879850373 184207968 184250108 24055732 381987746 855994318 984175389 607130735 4468281 172052376 622115739 458849081 355101101 556522366 204974795 310554060 898936503 472214386 459518063 634014920 603326702 504649209 470638548 693991042 503825897 711210008 229832535 377847566 660938792 873289546 210239875 466130304 435812783 793613099 797394504 146072323 771079177 422484244 414293329 878289293 736323899 85091061 939747384 814792902 161870295 372239545 864627588 566103883 428824487 495108546 188498550 743206148 691230508 386029546 789873820 826934545 122577738 748597106 645353220 397169278 682752878 687110609 430799866 57765765 299214320 70239862 802837327 152019248 385703096 311706285 852099546 767201216 734318605 559780632 875622893 983030031 653887108 853511729 380304477 669056786 853551217 73970234 101005353 19924008 286591431 244962796 52587254 392292308 855453724 935344342 233721094 787320148 566421564 269171174 516428774 979800301 560088505 949103490 831913104 769610412 81920282 35497323 454878868 183092253 910302773 437415472 737383363 111172182 39597418 772103305 181714640 878295409 486092809 332904931 259535346 614423214 349901471 301024353 192552796 897365054 41589658 512987655 922323849 285054399 285189144 1563668 679662948 706367553 592399575 667370402 957141815 803998083 491845995 89192887 819328289 374138106 601780408 920059967 253509332 22500285 573759952 130000087 693846963 656265795 432127959 521206883 389607392 604860318 239697914 38785653 443023823 383173135 818035343 762596487 659154132 131348617 16239088 301445219 455908800 105352324 414468929 724186933 977998994 566968167 647320506 708665086 181665781 655364948 38066810 712807100 400820571 249894399 254231897 714022531 363685093 711080427 343941324 93294636 684680924 728215571 211259368 330998258 915521440 202971195 242512702 134011165 211313965 62850000 960544897 319981163 11754265 152970977 181744442 201787931 448642408 24724126 376943984 949093130 965949549 45078607 867452401 778866726 673505080 830321400 952593260 1930296 609983669 327273918 525652349 285033838 716718798 585735287 879772026 79028106 174778970 185130948 183487805 971727077 674614319 676214191 564569443 291949719 879966187 846286898 309285507 71768491 916571621 115259049 438289863 25332207 583332915 218964840 508708942 579247715 846603097 297253798 950960093 131364998 935996655 416737808 281553279 139889150 162519656 285897524 134159087 216384921 292709376 81531496 935756284 326266646 297601918 718235084 106735732 161267508 214783797 377409651 17318690 92305293 319819238 605949729 65365074 183625854 109647993 810176899 509421865 900898044 100202592 721075330 382217173 833838682 699530268 107120123 134205360 669408469 500807598 585132092 670743596 237850690 248648019 121169125 635585593 35773569 68209720 410823265 567809597 442342441 176140741 61840055 733469928 589068945 563786309 366716356 998371876 39235342 784864249 714794853 70515005 635842364 840209090 975524468 6869544 496469343 938208791 259390423 668726574 208891661 437125441 537462904 28516142 379212817 934567638 535132430 844116471 92404854 369255505 268385619 980286186 807555819 753762106 981303239 281421591 881603326 354527486 421106857 362826864 246988801 159958025 285994514 261822462 586488837 834297224 321542211 483443037 298807710 575363696 882359766 418222054 507020383 15524132 432116171 232145202 465721754 726380383 201675936 757196930 168254872 223874939 669849939 360969243 726957631 800263723 921399289 683418966 636550632 696587655 934082506 458258692 471497134 53234947 70368682 578779919 300662760 43160842 973877302 527909025 927457028 345309581 166965460 679184941 113070453 572451145 182072145 372165766 460231512 769382683 321928342 849166462 922212097 658914542 280401027 138470940 561486719 450672004 741932983 829858406 351667375 447419677 416668064 24422912 802239103 696131469 582009839 390090724 603099555 835209701 499574712 908743508 451902620 210921161 870650321 3792951 47081522 565724019 637445083 574179344 71754397 319934212 77568372 633396361 154374797 747295109 462792853 917248911 367882883 935844334 576455409 522048482 907959811 806094549 446187253 15143780 210137011 271954716 162444636 202403497 128412050 114390155 126424655 866976731 455882565 799452644 947782304 95418537 721075394 911554731 513953708 900869851 64462859 924855236 775280955 367349421 716881739 827657942 220818084 374897270 224312655 223664699 561147896 640973440 284621939 776526847 613976846 156525008 837846419 265998407 391074850 38189242 817812746 157298127 179106626 365086505 540585082 467599957 287708983 850283482 802664392 173242535 165425110 807916855 487351037 643917647 427296018 956735847 643771310 725778735 939387802 721392502 813539478 316271481 379140517 468822852 761435422 819672257 586487546 840011025 99339323 503989564 628332539 231993067 935315057 52869132 134845293 891058721 945494619 433537716 938578387 169446023 806107542 599181245 749209702 214906114 991888485 54082065 115083591 151091035 774479371 371265330 89666616 410765583 187426529 752220791 778919583 316834199 697071949 546654355 288272051 197125679 541315322 392789253 917549721 599422526 818521661 538681106 516369029 175381989 721018796 416862057 939514166 596945253 441316958 757458245 21647631 399324218 575474406 521571257 294950774 301751611 281054949 159558229 573884536 113864015 243906637 30621736 274532476 147314854 462361611 49129009 219106287 92889102 348685742 14278065 319515416 724167148 330163530 397057251 78334200 704206591 518620904 877544103 849809020 724798048 236594118 689501878 115948514 13574531 811982064 212163132 7768143 173240416 947902815 791570728 543700212 378533915 203575813 963558278 292536472 140135160 981791999 510198962 367939985 573085957 212955534 358556308 754542112 818643703 667604241 155453637 219593300 950187509 392579444 801961011 848757311 730038645 533704513 229914265 622098813 168977525 773326512 325020271 918786565 431381410 5232888 253856068 379209982 874278456 476049300 687254780 880394899 798139991 435701622 930531520 685092306 858186417 355238096 612870249 562094405 423189080 181585688 731175963 57565397 444160332 565497275 471977587 626289138 603576746 268087573 427871789 413659761 188111321 675912519 78275614 2964980 960232552 636030307 542013450 151666176 14982976 383971379 645986804 169921356 177746263 733304984 399140360 916501609 52642660 331911736 849460066 120053692 707640033 505632592 887404250 253486924 824805888 424941483 703810067 195877080 878649948 166622257 840067590 227138233 159828388 444952421 919128245 881031104 522770781 707144261 701793206 207374691 284056928 913206244 892839798 997552793 604194782 533749790 422069540 828434491 639893047 803496997 305955738 833218282 209100726 76299724 404698246 805527675 413521895 680088007 156101963 978677673 782917217 515115561 610594103 191183654 696646292 492280141 880953439 246462954 406074206 689070974 965234582 876145576 487979578 462384889 691628916 681095684 918194178 421140871 368112885 230187784 975197324 270068142 32001118 226226276 487875295 66802547 296836752 962231486 738668665 854951986 517337964 786413571 40607444 629017645 686301891 289173730 510347319 103291959 369955884 195105103 5421110 391445417 732419327 832633149 12905189 819075538 807762251 73581576 26444134 613707885 496781234 575756657 610164289 143488957 106506200 256612565 943141718 56941894 553250779 224800066 791681106 53232159 874297777 118302819 798369509 269211642 743235215 736175858 849993109 917896217 241583736 53275609 371274475 154417057 354213222 138724285 305980529 920346931 953599243 141686827 366627510 449752442 307198392 96088172 221370209 7819222 997903438 209295402 29590151 651022881 698377721 443719534 613983926 97513200 36284959 135287605 734753879 225660828 521790289 613405428 490313257 810637194 566493495 95279243 552537855 298316822 678263484 444804351 253492480 122128143 884898455 634440465 253578350 24763332 315239687 8243164 833520231 304373948 723682582 255378883 877763715 744113389 443890148 762975427 526361469 599987638 541799671 800013633 132420154 51888134 672405459 998179949 53822112 410533517 146465605 857101154 957970497 604476130 50249887 483986538 273403228 428659603 187456119 461530248 925214012 629057625 569169805 541411107 94742737 496424213 126045139 95702038 510857010 222759207 18442054 515362997 480644206 136445710 352502955 263368291 92140135 558724470 929633204 12858418 745987886 69445933 611047421 840822506 504418847 769113454 171358175 909617514 792615777 94754501 304976871 608074417 993045437 298872065 332934383 834261603 818055782 640749913 811536664 792533198 141761846 857390618 334424508 533544171 699120209 199867945 600819659 381203628 234130077 306246113 400247090 606328118 873319525 71054133 257334940 890976856 514762535 961083373 323233579 440180837 734456304 211133394 223311366 49213888 798240242 899632998 670538472 35139099 329006189 871213526 623939162 932990782 43627371 933954753 33732362 275991391 324009934 433309321 536539052 113495665 982412268 53967788 793278489 537090572 555242662 779664185 98341796 167041382 287599564 74940373 829237996 347257887 507099243 861200568 312862870 77577446 899251754 833521608 820471833 415740475 342795217 213744430 861307310 588240190 188699655 753755185 517270458 869055419 684486673 915370888 644644748 397945510 407006996 678549964 338430069 553262876 935437549 606072570 390879621 210294984 286248114 630330965 51421682 934982795 369018750 346338555 933901137 870525799 884697462 862181934 504838664 829651615 730290118 47058488 143295612 40093621 478264686 398485158 760394440 732325454 858893955 237937333 170129695 266944205 555753290 134362598 537961820 774775921 262859824 673892492 490669817 932363109 786735277 210435407 724098586 700065620 508844438 70297953 3331200 309557316 335867977 935216892 446807518 22229653 200124098 815553316 150486986 323480306 681540325 361515585 549609142 351561948 114110041 585233687 214517479 590194814 750109334 54085776 28129533 108828268 769069246 350887357 598968167 523197147 7781572 267027703 728288611 91866198 991599785 433755529 809406541 614897986 258693135 503590842 27052007 759617980 323467775 173485779 926844523 11053471 2216470 839852449 587873649 480736891 586613590 96381663 216346981 519418464 918826597 469823322 606595299 744173556 861710477 398581462 870358292 67315209 293926231 628013051 675684497 257320199 653689998 298674404 833026432 977743026 825534119 901077983 882053985 294242004 415578765 432960724 286413366 712379558 764026385 685766207 544301053 933597419 614798667 688096450 523192188 906199074 890273823 550973894 377916652 930385322 45395454 635749536 264831546 79700488 66422452 940177719 813861408 404408714 993498528 663514351 350588921 752290729 369142105 561305857 502538855 101415846 861349317 593092337 101401290 330875991 881867519 197097486 108989081 337567070 530281334 555416464 774851963 23990674 941773276 495227259 557923155 631115689 180435429 263467112 631496135 518442219 115868885 367418268 648724246 45393552 578249892 385642567 584198199 84520141 446036143 479138544 952056814 950102076 949690929 704916771 908627022 842880357 290016149 594357072 916538744 494038672 724664516 785004021 516107125 419775949 790304774 523624441 429187673 172000582 121550248 825719631 118680459 729921578 245731321 325893804 154764880 521756024 591671675 996835531 780496265 736851616 35014795 924929125 333639308 405983630 468040550 948191499 143786335 363779858 59384657 188953345 583176613 137720284 234037413 98233509 589631491 69389957 487119661 787340218 127825186 895242466 331507528 96804689 564786703 434068948 327394562 727738706 204845889 394899969 659469876 49750070 912781697 229254275 871603069 522809633 555361472 150818446 632000326 889936577 580667447 797696161 122887835 714143748 981960202 564527497 563563885 128755727 65248517 846161972 60476604 38549003 123685294 755926319 442741741 242113035 239086550 3754708 526837924 305294321 835670006 424691142 89846414 376416297 195150936 348190360 386213585 898626776 370500744 995971736 694380810 381094352 431611664 539354328 104942942 954643449 189067310 402141205 192780057 623042985 626351792 997018495 382482860 228760989 427377483 44203953 906032944 357659936 618293531 247704274 605518916 702999737 393119555 593739180 513512406 138589225 641197978 164196127 104624539 424345209 310600086 679357435 989699195 548301433 43530516 157115700 84732895 584090694 130812491 623571088 353413104 786916667 400388050 214102813 715370341 254490144 342460324 217790629 109596401 880887431 23337047 248764076 830249168 331084202 758645221 630007093 238246250 492826473 481324062 907669051 577016304 981306222 200932077 988036039 859008172 795433476 714239222 746503281 757980258 493078517 323577394 524853547 225082137 333857791 843397630 228025471 507081999 585281207 974592428 573966475 298873837 853172543 682219214 58389216 428629759 405030022 648075991 717822261 938377800 117095571 192304811 775325406 901023919 158340984 285482982 349992660 446954286 955562439 721677172 15662305 846450738 594808681 116526991 853532999 774366620 180912205 930868295 179169197 492643864 239271294 137823459 714680206 24403782 85222778 945804563 388814741 902847616 590417998 740914511 395609692 803103999 348552206 72820286 958759639 243821608 2496684 937327789 682696946 156235773 569284996 510470949 950242802 456239194 751132806 816041384 442207398 182435446 873310658 804024179 477109873 59077537 297584406 331856590 850170895 407955803 732275009 37489857 352100162 171288926 95982874 106483470 387401479 396289490 471524861 542628983 835820015 725072561 111790307 16023566 773099984 782390030 603855125 702087259 327791707 473008819 974189081 447173388 468418186 42281583 207930646 660872599 434470722 489809409 544362645 172984987 28761242 801348696 170869426 729751101 28499861 356216838 763059334 315389510 418703648 737036873 661304298 349442199 757505444 285450557 691519754 499667563 273303084 597515444 709152148 242790068 16152847 597567540 199884690 140160067 849521925 716921914 146873140 219689097 128182642 153723400 372399925 597890537 397003988 617525144 441458900 499129948 453525387 459657811 111052697 470917959 641749030 923762004 830725008 13199379 600089312 86720694 661920732 185169380 626623784 902212288 253333385 249116866 611152042 195420417 863506819 855644204 119846372 375330464 385596518 459404240 488865917 792785600 831963037 887682321 532129184 403135961 3278815 320762355 942401834 162690363 160682935 155428479 878231745 387459049 178570563 800250470 675451648 816186873 495198504 186974102 878035033 220993672 355688695 156024543 517339959 733003389 267064389 983775038 516917002 523027149 642738106 512158415 62749899 653923212 688039054 838917692 55604189 488820325 252282266 420584416 704293785 164545627 201197120 958171670 630508853 550681007 583649824 187336847 444305999 590152110 407775818 62043096 623679712 948180845 609050178 724784301 398194751 795402672 349876106 917920772 408731491 253091510 471558603 351590636 970222244 140548094 993362897 319644559 262449701 647431032 540135260 836870971 565081102 820113753 447501254 735216833 983966936 48640522 288411624 774668735 202455626 200332153 920499760 73616459 935953410 137962003 492077264 369088999 45330325 227289589 488682379 916128532 45210345 468632501 691609507 704261658 116580400 919055760 927246772 721617387 302180979 624364220 929722959 710417 468230799 701738381 698896102 490422327 208517285 48929123 982131225 159957434 643738525 216307145 95187414 526330675 395302609 546865812 287435756 810481953 812916213 104549904 442312996 519479900 803905832 416587801 576206262 826698045 689971375 311759258 462188940 544575689 787568813 796479938 210778795 443551710 905469196 749451446 270450957 108643959 823272909 176346058 360266614 532902074 37190603 884230661 182327559 740610633 488934170 956043094 536309990 155311708 116118810 730689664 663756726 164217029 982271933 989744250 870520063 898001907 583964382 900055584 710129322 664606745 878701310 927104265 801253789 968643114 817645907 517915245 243718155 257364338 591923616 299634170 877997983 213531970 991692456 779817335 993695188 94578341 333635947 144489003 537737875 75124945 59510126 182189388 209913794 576712832 485369840 157405723 27764976 402434437 31830665 944259930 397064389 795109761 392345525 310379135 223964017 451526740 903709021 423365183 552579972 83733889 246090307 302730051 197340895 311127908 642988268 85662322 128864159 256289815 943553055 501341733 718903009 519887033 308190778 78191271 274137800 833759859 832961840 782971031 879488157 274381418 104190447 176102088 344434361 358317219 646872323 220753049 267804341 554526549 632503611 948041320 989098436 580922182 343963035 495980796 794253711 14971936 434227548 945266496 943131061 374704998 754507551 22060977 166377118 15335881 106389321 731381690 698160292 684249236 920602598 4688092 828943752 566234163 374994813 158335240 997719165 488370234 998477892 53425595 514374 955336728 304963974 730543896 541977063 158592399 658693389 445632280 566020479 299088227 165787405 74829680 850616241 24689611 545060527 805312658 466667268 233972113 761182642 233596005 639395387 605407755 669712858 187866443 517650102 677415060 103504581 552168671 593431710 741853250 973452690 34567992 54578755 138046931 51059436 604630109 346193499 869096987 202287380 227761764 890216352 747351020 57972409 94814646 335912812 828402129 637356660 948402076 263063915 614095413 792316928 882592736 132679647 51310800 155759876 313838914 243022762 714972123 258043235 234821990 751495998 510586698 592988583 820312819 74030563 60146231 482233939 999401844 880539042 988089801 140422432 386204121 123199655 255679923 404795523 754634984 576845025 860251208 579726474 518397852 565224875 61045641 838421353 62817099 787111840 487257252 600396328 274036982 754558581 475106991 666054845 395293278 932338726 186985295 149163959 936631486 997705934 328127182 880719660 680931957 786910296 865045829 292419058 740171823 354456050 874692592 112955555 953500761 842283888 949542470 21086553 625551352 848979497 86452418 18636145 760988088 104906315 812369551 974221942 202271237 248298081 159321205 133249586 948689465 456791983 935361865 145746854 421461361 133395070 74292116 114218041 710427265 496236000 785152249 888185320 785725830 434284831 545239897 558949333 565125718 51181030 827237837 341834804 335934730 549529141 673183812 903059809 997942560 802331577 693337533 925066221 243405009 342780929 463271832 746025337 341540598 776825566 445490518 315223266 414709844 527341408 607568737 18697 255812413 250690768 59651725 999375262 219703676 661871821 877087061 839714091 750823531 888791763 437349608 486931703 594964029 373830633 950002081 831925382 638796123 43810348 936379649 840024974 165484565 865187308 603705100 747626097 475163593 265777184 148356428 59902680 307691148 948428348 87595632 205804777 194920189 729420230 937825195 670602015 835227601 347059412 874944816 413181162 419835500 760386854 840522758 70633391 875925354 607557605 4510198 424506232 454392320 795722496 508359628 611766304 393165487 509821520 940710494 213697165 620534033 47151831 968875467 392792239 915160949 213039969 986912921 484478454 482134254 740249989 281975679 27720086 48978106 565810800 753235268 879242658 67294310 385717237 442313800 427574633 108319831 205278901 13224713 656042302 528040716 331223950 279287288 212369960 288166710 568356846 817477758 889435953 797690836 218835776 988555254 264925428 22971055 644585580 23267806 951027942 420218417 661516935 212727347 588639391 951654935 263218475 881957506 148085899 42260752 971553473 75614032 266859197 959189951 900512259 587603671 333409148 833851504 933457558 605002193 258453914 613234524 708159022 890365743 515794986 807175847 883922931 280608184 232055743 130717828 246344947 37724933 159372801 674006520 511768752 76728503 595364102 820481750 688847001 170003511 276358451 513068142 917200970 113594184 540067011 590057025 804147761 522582659 532269033 82319736 11555908 541159680 209375120 888179894 309616510 502875590 719126146 555668001 807350323 503653637 210040651 708303169 922075990 869023199 879280687 488737819 730198339 690422665 60067759 551956042 741264211 787458998 405262925 192746558 118663395 331493174 133808645 986776894 406622356 609753615 990643279 977448586 843897329 249662854 442185647 904863670 489511087 967324087 511784974 907058276 510542203 551363682 555339994 915481957 259269052 465297036 498479820 254212752 681323262 95364913 597065502 503674171 281634728 162587063 352392369 880394141 134634587 887530245 436693015 404796388 431959155 788003935 574586761 778192699 75801242 238386945 205749697 818878871 881961876 821710754 460079842 493176380 305428775 379940318 437368646 240209046 664988321 314586066 80768675 999084610 455907302 966413050 736200165 607668629 820369133 799692169 601289943 819981241 30307775 722059702 846415584 307704941 254657481 823695676 738216086 501427910 62123618 400557360 447730117 53058870 464047121 837275236 791599570 861774299 348909417 145965198 690990800 821552059 279242176 167329034 911661797 741686233 914345590 399134710 289798913 396780699 637355719 380229270 808285415 613511688 473869634 114580124 518364185 404543460 851512870 590734508 205014184 65750156 457803765 146481382 277991208 350906430 399659837 929689697 44113051 684598770 281646028 388620860 340006821 255873247 959026145 253729698 100872366 770192760 647720650 150274885 69948382 107139265 330539961 655888787 809455385 751367950 144327057 658801273 888171699 598744732 223619123 326770329 87069293 923114428 810394586 695849233 457248365 702546708 894560818 994090406 537685375 607726089 652718438 46933488 280412568 605073225 972628724 295546170 997420061 329243284 633762024 165249742 561386542 659197268 484936903 710594443 489871616 932912129 468483417 716884786 795514730 472108652 408976186 623523399 850532560 560992117 561193458 874483897 714859465 244919926 185609309 947609590 452500388 515623282 69470330 409353452 171785525 87553601 593068412 826300392 382065465 88198562 284142208 71842240 551436839 540138167 934162239 82771574 618332382 60172922 280673988 945472241 639153283 263000377 971543437 33787024 708071532 127629711 611389625 805588154 903075595 185756753 999008694 311725667 64817009 595089112 506388426 291842134 397214560 971252160 683657956 730044994 825209785 71787807 288345504 20749323 129138342 465911986 361873551 57968402 806498533 255469486 582044633 40129235 381421785 667882051 701536599 26463042 979731849 918402370 625524104 204082909 993141604 322695665 234326652 109343776 946362741 293038402 519991924 467125153 142805564 501191466 482606451 862731544 401951627 262458945 613834565 295936792 251043288 266557007 336565079 388269488 968960682 126486507 996671167 483727214 890008083 573483129 78486319 912914508 741904745 127886442 889788334 581636166 626076422 413175392 699642180 623384902 433757361 867015528 10457384 292671750 607224867 651232207 219147139 960194765 121505778 882078882 218193301 593404639 614028805 85401878 605117367 144487698 165298515 211364497 832843549 454972449 884902024 686709659 979891687 565272158 69838829 117785723 473246899 912693263 625258893 899478179 386064939 422919802 508534651 723749496 471690894 38623626 607453693 372724197 945436105 200478230 839805994 343923098 55095246 728220603 526294748 912867501 92471064 518371585 428725005 466228896 227590723 118050075 738274451 289119111 319308721 886681365 210041656 977763153 7464887 888799225 34143611 167737014 9521034 8631432 867364715 355873830 770013901 618490692 749954485 800998206 854928396 745864732 959702865 807766605 676679972 912945025 207912436 42608184 156656458 809572576 921656196 957676798 675130972 431966115 643541341 195202191 996872719 47892191 975064433 259914831 184456325 767206640 142762957 494433097 621268693 583860602 169929685 690486771 789367579 915745286 960569748 754113491 269896087 241095828 328634012 891374216 758192186 226878665 927487537 530284021 970273792 158274065 537548729 126876331 377828573 415371462 631695623 814648175 357697729 227140436 236576204 372799895 512137185 804333982 41699949 968360525 78119183 814484937 316712647 60213318 20849620 890211114 190527816 300683124 347546581 680203053 590599998 832392919 813219187 645349921 102698340 877947961 751867456 398827432 837599032 425335244 995439370 24409882 262610152 853845865 158932577 719844956 141148664 721724146 363078054 312167654 961867093 477600917 174491347 975576278 751539694 624829960 935836861 828567265 504954620 993316330 810968941 931697378 943253215 590817346 512315671 804810153 534353253 598559626 687561070 748026740 610327375 941595359 285147820 164828003 368694161 15985230 634068327 593337855 121113236 31316130 804091331 429570395 12138650 787081335 124879303 246527523 129410556 24451311 325942094 739034740 609949408 985467152 400134025 308830780 797107924 601374393 560211784 361123293 863211525 785430084 408529049 833376494 437776223 837278046 650468608 379476015 749965508 312098002 772816477 54815243 504187025 291512342 270308555 11237263 60366307 371749724 751195726 573442371 792839434 211492237 64233346 525189908 882362303 917534009 467154493 686012514 22110627 183505127 58912592 209604868 145033645 853719098 930882543 165649001 315205231 829045977 999245672 111165908 884570996 734721460 667449252 870167508 776858316 359098996 40606155 123800084 956700397 288766747 906299297 124215987 863477046 40384976 498359794 361543291 37828744 768995296 444379144 524437696 186223432 603097428 140790409 564536287 467604158 648076864 115816901 981276696 515325682 965811104 11794542 79558523 119084860 278732088 112050580 231804186 950438424 685260309 304931419 695751293 89139344 552875157 808253576 914672088 22812533 408615766 666888766 492247548 295729090 715042600 59317857 183711896 806121463 604845128 171659284 255782129 186898184 196920444 52522368 212639603 621228852 81235937 652976534 198567941 276274143 903228832 164356371 506555685 654512297 529506924 950564588 433379873 406129497 621056317 226884147 599394527 173571276 97487980 765313920 591272412 235586251 735159251 196719646 246220594 153136508 675492568 334461283 868647975 188265555 742040994 607718320 206652489 443246422 785893515 580887960 149221317 267673890 249298639 422124147 336987374 251821026 809009942 330536165 518311966 319335620 428548629 894378566 33051195 119628834 823915558 205824724 263949280 69259745 696207543 654113043 18415656 166044302 391639693 422292461 693760342 790451697 835631596 680020756 912256294 518542422 967770359 944499728 656220770 478179433 898030709 80224293 290188861 340003836 165695609 586881569 385334067 585329419 364328797 517741801 384030318 912697577 997663518 817882995 408794244 609001757 600456470 124614724 932009376 858091172 931919137 345869245 943186801 809945841 712416803 24119400 823578758 631411613 117689092 692559355 746339866 367061877 591372956 563135440 337274102 5997526 295213291 935791044 919234421 405615527 161866466 76400660 603104795 101933164 279048538 711228807 926590463 213519941 114971666 921118149 225166598 50583489 450727451 99709596 124532123 702216957 930895085 71644063 168598004 323541003 498709593 411288180 213189157 480994743 656067297 535561564 174351748 147829165 529291102 826721159 478842956 578793341 641143517 833848310 383974667 944448451 893032637 437466413 923495781 643597203 300671905 978753374 426268792 335239587 625582409 997683761 249892772 817045751 526715349 251713785 339147234 411896283 45903866 832573807 139151420 382717730 657282867 458435802 181851602 738667631 220062230 626542667 198631225 96900067 615486143 585867450 134020108 250393910 907012745 104543163 889010519 936958766 124757724 524636688 866919965 698155834 28532893 244545614 9844098 246622412 897287694 426342590 72284941 774407276 836575468 515818991 606022899 476919329 409454682 307219810 611552213 44728605 709789527 686828851 673941002 686679105 508915783 318750183 609630134 670310915 73125651 127388177 777764335 653742580 528723325 120742413 203189321 441507337 198097884 471239145 159544239 907953509 802757655 722912191 579894024 498164598 533909983 86818938 697332413 883483035 318219721 73338590 326870397 439695802 677058501 895123073 659852916 945866811 490058912 309520793 120744322 575696004 294686619 668579744 738941893 435298671 718095414 582110844 7822258 829369044 99682264 559239855 191457050 545226354 529361759 30548905 461142750 476001877 707170584 137515690 240051186 529346644 269282425 903509885 409298404 881184015 217040721 996633420 288560550 284136562 376472152 369939483 575840685 346276503 529922430 965907565 799487349 962201228 145033669 272713550 436049131 517442236 143336572 270401525 320092354 547561228 95123096 979796997 252636940 541920590 517412580 465475395 940139557 291347353 654765754 275014507 758180082 6760552 984771485 739012246 869641234 979538970 811702553 517312785 617758732 995857159 246884826 487233248 656163303 975336309 592516682 939252737 574171073 288520732 337895996 867501769 367636402 639162858 764086280 33077556 670158109 985661586 683164837 548235593 156394754 51965985 762001126 368988562 115033432 377451784 658572446 164314994 699861374 22478386 467737670 473563981 918291437 591861950 247418122 12501406 107541554 115882186 943922286 744910029 521408508 712445622 811101916 265258946 441888899 156601281 143050113 945467577 975114824 606526756 932251713 657602464 612042347 416225907 237511563 564564791 840012216 488577436 314316754 267868201 421556462 450786849 411148049 118136436 482539059 671259483 259693812 129317933 595402236 545200174 380069417 848659417 654191882 192881636 153737426 391395079 831789648 602589682 884886685 247315896 22378831 875527382 36175924 878616222 456467937 924357919 68513311 442904588 689327979 957649582 535336079 22259831 904066216 172581036 234919362 76527255 872428842 33077944 46632376 238721506 36383724 824869398 99829530 539871190 656751876 627005742 119877551 494495699 557846306 468983778 272002305 943405032 538306120 985199409 778084179 559652716 220803284 973930714 923968283 81944993 961087119 109211761 333772059 798004364 472285140 268429633 536462611 522369337 224390716 410197559 834719347 483094421 176652956 221723686 578826199 817614952 356387486 176925016 169419749 123001075 388629668 968987368 555307157 622598628 69661798 214388360 25079756 320050978 311464292 64019573 119300335 283386771 326773889 20739348 740697586 940343521 99441660 846659835 769342892 410118465 189944312 681118004 794738475 226232028 854734553 119468951 216658427 508146956 722733792 179083690 852078520 739559620 563451793 834522485 10346953 628625403 499397834 945116932 160820653 888917363 83536429 987310964 679762435 771881484 145154347 792826384 734520726 861753477 198943221 64746889 356446452 301733245 578119923 578687000 886753429 406713909 927111610 727036055 809609399 799882600 8732345 504445607 500309711 468389385 689549796 698101837 359095860 599889121 72873189 590286498 982224530 233916650 400034225 631807378 24379604 696209096 920689529 482319147 601169690 403303411 423102427 91726139 703984566 425776516 420461914 480983024 334104954 279816868 781485603 955726108 53716267 626377888 636940297 3137319 647181212 358703893 442324521 695414500 927404164 778298486 92019783 830689083 358646876 978814601 59949393 551748398 69408468 321337844 166917315 881824898 94844669 656205527 436167176 374379429 787023580 201038084 857844277 468606072 873267407 50873650 559517796 350762393 456600438 663996673 744151059 114818199 555223189 11194833 646459570 610692687 758745447 36139469 449703091 66312795 911784366 543704218 220878145 160713993 315889753 662746101 922396891 469789758 351810547 800182375 840409958 454508340 698884336 904441570 193236448 695410682 772248945 882138486 247088617 661326044 588716832 962938840 298204741 942630391 933805370 10353868 599606938 946746464 519311953 231892423 988814273 481224287 339627226 75036339 90044400 299800874 761849986 988436215 398587613 241724429 67588762 569166866 983104080 107748664 263248459 112059442 823393300 24432884 840944284 349321692 701442743 460753986 388213991 709035361 955649269 263202415 693685228 698727899 341727050 552929558 867537394 475416560 294525347 226434457 619994103 552758064 409498510 272756832 15553749 388310932 306162717 116373950 95165033 896293422 591125245 650170042 550794150 505459285 807316401 382414588 848873066 608647023 415207363 665011139 515979240 234629724 477193540 328515558 544544919 625532080 25453765 709265260 756319357 882861430 379399896 375201286 581280789 62862203 988980505 223792081 564849717 453493542 391217966 272676894 356499285 137387358 689146339 953859557 381000126 957262170 710948799 693578844 446957958 407711755 165506389 295947678 561426724 580352010 474542491 408153747 103742576 808585003 303220736 613250698 9932197 505672267 491549614 532635789 779629477 832137318 133774081 231775516 554716326 39612122 446853608 411244926 111618068 790696297 725439533 663994367 332490982 13246280 664413178 504835729 514469444 393425394 531067048 427502622 872597087 588530253 459585133 902580678 615158572 85902590 181705999 830802601 683415699 895870724 9141504 202716470 823143804 620405579 321087070 440916464 593083601 495977638 732453639 461808756 335778618 222865370 67201571 991821461 519097213 452208459 298847675 390418562 175948631 757085112 757003150 641342425 250717265 161306568 413879845 919365801 352940606 211474747 49781114 112795038 431265518 744927673 906451987 704142724 235894096 697465011 947781240 436327375 941828306 456770458 867686944 351388254 445243925 640241008 613548950 141646945 953424025 885028573 410967610 868959448 988060673 698889131 45859992 171679373 487556549 179472549 862857679 302067081 83661292 855616119 788120785 636242990 955721609 606557051 331049286 202304392 23406723 22510245 568631339 969096931 798638281 50394050 407703165 804918837 757284133 218647017 419602238 919124710 471256811 462400931 914057906 619329044 964592953 894904893 148002092 66050917 287900396 168478969 288700290 474977034 456749757 887429654 907815498 433996333 714106871 589832089 539848100 207481334 91190131 108292968 912686156 455906261 329680405 842172685 751133153 974498006 287164930 818896099 349554421 439024903 579311705 363255021 932624079 171156863 346021466 970701484 502651575 679050928 536657457 448930442 599068402 590990331 25496668 258192118 270190983 735822887 534371044 186542436 582363465 834088640 427181385 292495190 231861059 649085462 793983430 251330086 195388709 422200445 250420431 324430229 706976945 493648430 912137926 669327689 126120730 903984714 846908407 163547847 270293011 198720218 889991001 339750567 726683853 224973214 501746286 647876597 495617901 341865190 964211382 709460068 752094306 841515588 560858115 155313336 836704734 202891662 69783462 793423134 417876738 35185328 729183769 672627830 447549893 565115144 892579915 99327191 274127073 935972134 291120816 984883107 845835242 91200940 439171840 257794791 871945009 174129179 66650493 246600979 135184004 343117918 512192411 89529123 681133167 574273491 556968754 867786637 361604329 577450969 40505354 358524591 465718056 483601079 324259144 798907239 702629042 706444933 529054254 379696666 977134190 151256230 75680412 646903304 147869867 221839668 397361690 886336217 410001335 552926600 431247976 136585807 183834010 596919739 738603803 295772109 473812545 580749366 766235886 662971941 799037505 704971496 892421684 909532930 944911923 316990641 200506982 261889121 152764888 79817934 473747548 825263579 45131950 626772614 497918943 232273529 566007458 259295488 672597266 536319391 800288398 342742682 47945653 238797261 241664642 858475939 600006865 552006240 373633235 900234302 739361059 288707210 224789115 490590947 620874910 875732855 518468707 71612101 726471984 736599837 919150822 341649922 392082299 318853691 720423688 325462156 522394086 836023166 130143187 476781282 80717623 965419305 765199645 698435722 834003614 939866544 720245751 646326728 257052299 546095001 32477868 454948913 158518754 368666862 175785143 451852248 180780322 941985239 265052040 183197528 205643906 524652406 932009218 847997778 14392412 98053244 63970172 750031469 49008758 158509704 953312072 445384634 995565475 288740149 458608482 126637392 312332055 464614187 271345587 569418667 363850810 619471293 719848853 245159250 77356112 120961446 928406402 911072390 34653721 506468020 672484296 491785872 904123159 10398952 533997476 751367189 607628569 650969961 666878861 793772864 663765951 996525630 809760940 512571912 748459514 889723657 371465726 808916764 682562231 185655647 997115766 99149919 339434640 976354502 355215867 107483759 959898640 768331574 880004489 965172810 931205916 704496897 229778186 48308080 478136534 431217848 205479782 795065427 112309579 27115746 700261768 215671379 936025228 972112591 652903331 488469355 271518120 538144335 561677145 58675859 307291458 174771148 438813083 576610094 226230956 596417412 58359486 796542472 804725329 769411982 458299004 601576845 872665646 965981373 234996041 970972986 154615056 541374892 147633780 426480404 715424089 768854905 279331251 187742370 946150244 22777497 768464243 699281933 410601151 193038978 433142872 52288117 527642578 202689353 557829410 198491066 223030193 606939130 564484288 800693134 807184706 345966415 413950487 489393015 725604852 836979349 285376853 859457052 246805946 679808733 467039740 588433406 443579973 790627796 349325427 628519522 375757093 572737155 532244358 135215513 386723462 538311480 789332893 793026614 768655906 499844992 624485794 762427253 109652578 212100580 236258511 17349593 282156044 367337443 219213030 252136129 828774633 91317271 423195532 132736092 253523561 269813483 406685113 602338027 559522531 801382633 84362632 443827390 138259390 853887371 277364879 463166245 599163963 896100550 2502902 30068896 710919841 357245659 860564110 917767261 844551829 358425994 177785768 343113192 601154948 182013130 155415791 76870639 529490121 662562031 656300273 574615155 365692315 228693886 334997366 128978175 139751402 410819660 190025287 371791720 79209482 811838957 274394277 877440639 850173488 265430237 285942903 260829869 400061318 345083903 983240362 625971182 497787392 152733665 453840889 741835461 544958129 598108633 406715872 93035936 318781262 661086594 219028304 804406778 225696266 707943902 431642214 834592884 29200598 76460544 543643800 641416652 536854074 246116691 205899845 167723598 998434168 450560422 271333389 289205036 747306899 130882352 240687300 543449945 20463889 909891943 424377610 284259654 49784958 327292734 707450286 407029775 721262044 748616304 531759643 209683983 608214474 551002911 59231494 662820005 566614118 164089009 785018267 996135461 890587015 256876394 853614086 504261129 541467305 486037023 468213523 901926992 197257021 86768694 137368412 992751013 806364309 162099825 663894530 336246960 990569701 687107485 656654108 123098748 489532641 880993218 96139569 355186752 351106654 387860084 882744302 575188474 860993620 373524976 612799957 625701080 123644745 943582194 699677658 409956156 739786082 375996622 512301138 322437106 185607244 25670384 496000483 727145941 70710953 417099838 907799188 477407152 599995959 289275728 79490625 207341110 845518921 135238648 334044667 158505605 604634248 128973213 949638253 840564007 383272634 75261182 661944402 683568361 814660222 580306402 727748238 686397946 972219775 846370722 887596026 37460107 75926649 750151955 652181814 555685279 88985179 660991733 996988563 498173507 984138321 472720594 850198903 767460288 404379589 359216394 867002493 457336137 594070445 206917153 281978345 37894204 794489292 86831369 575079012 108248308 848762062 809818910 603491872 652234036 548273879 765475439 775454723 171441068 561900895 618889406 190889458 804982986 412445037 62612355 579442938 592509961 903249524 858207453 386646983 539796989 859271892 963334916 938556089 478639054 890550923 842562749 30989785 803137500 190746011 556033784 166519403 923213935 484218953 531048626 222834378 801920207 285696249 986469290 445764706 624106527 833803963 758798156 887584439 847661378 108675401 679171788 106077889 632491096 991379626 215681012 752781705 899711392 169267539 844285355 620770096 577652446 483569173 672327789 34387397 183659363 481683224 871647950 455580161 284812865 710262998 801383593 901818313 772381296 116493962 345332351 67034252 512210766 971354334 182498297 717574061 409697469 188034650 653973160 840359845 619688714 410646379 25891738 306575991 39619129 816829414 152416015 364598686 654006107 899910523 934812438 907376916 338224361 82127387 419115145 798870275 357040177 201809287 14410704 172706544 932865365 896655263 324949520 376565276 83047374 641018836 309380887 3532964 617665802 699462925 224946828 137613859 345560715 840138007 326338174 347054876 833877755 700117377 722488799 422999111 679969134 162057630 589275942 559754481 13322658 1928834 666614424 684907946 754130880 798074264 819854610 221068913 343180155 317792969 731234737 273747689 800452368 659641083 286523925 707937758 570586115 501749673 580268035 358284634 14369202 327846713 80409980 934475859 334121374 501415232 493002478 41993493 500781745 968736664 290375446 832912384 265175139 966071793 546893082 570309278 274596192 608791832 406162701 736244597 294778170 514298733 513750622 948785307 50057362 34147589 972838748 651082726 454686630 801259662 367144958 172332638 977366611 456694703 458174244 243589802 717147230 495763984 330870755 686965637 47103366 152356145 434409658 73366930 399250468 172059283 894112164 349565596 715813530 104730085 35547871 443661343 888197004 76220976 59796260 863320123 260152963 619476292 58434145 323549302 775749713 69288754 439180000 323133887 935796695 205355567 861946403 574597625 497883116 447790816 708040934 106896171 117494002 282543508 962473280 141662498 357861558 417786189 819527298 718697734 230938669 187075807 975310860 408492912 990632399 858713277 577255488 33830395 971958608 635274608 39089326 627042987 313692712 211110539 292165241 828798864 687109944 831378004 199043406 281633300 796929891 125819899 981026084 750182601 383834017 540217253 533951179 642357097 905638492 7443899 307480098 808164335 346919208 913168903 858081970 533535820 555878523 534970512 478269722 439122388 281053004 470487027 842581629 783728883 383608276 534042244 222595045 684419062 330023278 78951805 350040782 576179705 741589961 370332676 959243070 277600058 999726514 608880385 243772335 321327931 587953618 542189758 911098867 199646010 77318108 600727281 247683352 646638285 109528827 442032842 860551796 987556002 108419393 924046196 318807603 836621282 981838497 398810822 605852859 109275337 828657389 139706366 768371641 480833844 647921313 946838404 902017065 576669252 366991266 195499351 184670618 217510673 116996400 548672398 69013597 669414557 585773143 24353029 300686386 453483231 474101580 824308094 445025356 462708067 60548918 482652145 523599252 584757974 982546365 663444764 248110031 911594625 908512451 965874800 794038063 585071654 757526052 192021501 406519719 949656271 930496376 964978015 824366746 543443940 216543088 206342335 840170614 220536661 269952421 647796412 751536197 696265564 595354987 978760869 20651707 385299178 133696749 679912364 574120593 997860009 148586116 94810715 223131709 860812800 962432842 984173989 674556986 927168998 167543433 328681883 414694931 637199683 354699493 596966670 675177994 326538865 657422154 373671992 775233945 945029797 271253186 882523229 389374222 444411405 55968613 370715748 588802605 344837931 308777442 767384571 586387543 579520509 341360846 366149378 364340242 920632591 735760696 285498495 834222140 41672340 173468380 971920284 787820818 331226905 388818101 978125054 103688758 835315575 700488596 298229706 959774904 21472255 252225648 850984726 54521032 36150 934517201 114366615 503360239 192661363 195832045 662257456 210180239 585319487 137806581 369627144 995293067 778295064 390769651 416992244 823533045 725709432 914852613 876236308 301009980 665327790 182610903 910951829 834494033 369912799 216649129 428897201 141166491 660501984 827599030 808011285 39798794 843045019 837349429 125960341 106365897 711496076 338291652 993055285 504414923 271200102 604428532 400736312 867735175 209200021 356880237 951484261 771541229 522682079 43691478 688682817 167600854 154918370 537994748 292888509 745175622 273648421 532895579 840127686 554847735 537453009 688826762 901518519 214485173 780109545 162464958 179843353 786727777 85160201 728720956 950556716 74120944 334177216 334874522 756399546 913655588 673467558 821769483 577828495 10405312 578261143 19420129 200697612 293652006 8747072 56968938 828154628 24700816 555364905 842235845 695852400 930223443 553715748 56548885 866731219 932949452 402620668 611063180 421543076 116197510 840892554 691567864 376630706 677047405 445764084 497822303 468962454 771619042 573810614 514235967 212240509 274594547 296442441 171703995 130097329 841600748 462809515 858856823 151384682 919493112 449167401 193949390 293980511 267772275 738233023 113668497 590578344 212349028 171632418 644505307 437129620 323765818 712288007 242901085 315258763 352497866 103378829 617028031 945496606 984353182 288143320 395549369 827324978 622579296 803350657 445410548 56978357 889435830 421177434 718572112 64934078 777031683 418879661 955383253 432347288 592645221 353159293 873341320 99666310 125994286 808658543 672009737 716277159 683840167 312771100 549164854 888706548 230736445 553035591 244463368 35456188 915851894 293731741 897838226 712710938 103271585 96551290 275981367 398834795 831161019 544459559 810977218 805214467 515275505 823333936 194730249 686283074 610945119 704207612 371382889 785909474 747589967 364309478 290828443 479927486 863053669 341066861 213448809 304297442 512494064 568149144 528854080 25281839 187914778 844782789 707777991 3987653 157180367 978313850 429143917 326582737 48038728 676147901 142364885 486676191 650124445 689046463 416802166 427985431 687006513 818894813 673518522 72035131 622298234 657134827 528124924 844297944 169188721 692782840 37394713 770029270 761035470 819301660 808331730 979008747 86197846 515243044 259786056 746893075 375540012 593427421 619300975 942497026 495459816 150875503 916531906 243151204 72958445 226197961 571313629 578708768 231826323 357718299 488803636 9662993 862996275 463094718 511960669 940678928 532939728 47788299 409686485 885344776 204422229 674120650 826058806 244520146 768508189 716302189 535653832 242103088 170336662 554116111 795830944 388651790 106520298 47857805 717192651 153653817 713455039 936380631 207866078 238853929 838920610 221995233 694139618 259830486 633941096 838830314 113749991 937888170 446604764 172653146 408430780 3693513 219633749 912066968 105319823 112166523 856820218 604194166 340936866 781327821 43885560 620330050 803997591 458100899 465660718 382600360 482020479 609466409 39189461 406525292 108208762 623263481 483217214 276792655 997048471 814898922 779741685 556784769 945633937 336243092 772236495 263560013 321053256 233682623 507588757 512731029 518876990 939751623 421893632 353901354 159363089 477017718 230059514 239187612 753466643 445554445 368438521 367824617 904690836 754142124 254638777 984654531 287378264 710530324 274174773 133534974 340920771 711308076 557626421 591866608 916810045 730701696 7583609 88988225 743545439 771450397 972454138 717806041 404981029 980320098 131645327 681198017 742895565 223978864 125946877 684840171 966739117 577228007 634658934 649367852 938029932 533680575 119018086 786904449 803995197 261494343 168377227 618915195 923181111 278984021 144826076 25968807 587019393 54584563 890884507 694546928 418537480 93332396 769410543 174801570 192007412 737090256 293785423 608421309 431067490 365564058 356388140 781559685 952055468 405886790 344521210 734340192 237741208 674502688 816736782 146842007 651043514 475471825 145294338 141869506 167970009 578544879 939581543 125332615 654256675 500184738 342857626 989512219 314155535 463187973 902135014 640505869 723562858 450095239 113493349 497331842 744807395 915950145 300360057 970890476 729373327 379442004 504301141 682653278 83219301 300481423 61459486 733271542 100228858 527190033 239607297 825838024 460233291 469844203 462287351 769617439 990563978 331113722 993918516 239594080 251334872 333951840 815630900 224106683 120093788 389750057 286525930 423676832 565898935 942773452 651159078 273003000 58357164 710107296 111643691 462389705 215402450 646464319 484813340 809598711 777532421 934453398 564026859 869263357 795473798 282201870 980073005 703918541 311539447 430595380 83515969 165763930 660901931 645107581 319027882 231292506 489330197 97626020 464547241 488190825 887737479 324322557 541110868 71740129 637627617 671297863 833219194 114733247 457363438 762825779 939176124 258465646 72819280 391632093 896014909 487447397 782897009 324250094 808989281 844533803 977704852 113892418 660418292 817814272 746578123 377368625 969015223 358788764 888452396 445150747 613338618 695129926 785564195 612531393 103415887 692572042 317373066 998592775 446400329 981372464 411452550 176539605 513456644 113850862 535311306 515033808 566264019 605157737 629459223 506198206 638959074 981478497 44626052 619480185 782599917 441707435 215741320 69830750 486438521 324888328 145732012 969463584 340075845 103630130 325650640 249247871 311992089 877673069 567410533 678283171 211430931 816049355 395065912 53956842 773782131 346446549 625671585 468479461 274209862 472986163 760444365 751556769 482149508 615451310 688597873 417771238 598264380 124555168 827874975 809510823 407594468 177262631 984425571 635609157 46778075 703638703 42480822 897320066 67685842 999612788 270149271 770317875 115177305 953601870 468754928 909015176 21040900 683890338 575911185 929708943 286107483 677746781 570587321 208454755 226933771 923220575 551657159 86915475 414826636 37121525 841863530 538546769 140438607 633867253 605585946 134742628 630575972 757647428 90233229 313812828 63151964 502720478 811279657 634636685 687522672 627850761 833350263 933344815 919005958 479495442 59805330 569464266 22400220 702335636 999897900 572831203 311433760 290663378 811280849 373069000 520496966 325177515 978158948 59250723 66470642 904970589 845491976 443202704 965370651 743403494 371270939 836450463 900208741 988455584 66593870 894253283 615891484 918947723 63645738 878714282 135172029 231808996 83948951 250645001 893242181 582033217 881900007 486674877 770785664 534215006 943737794 226746630 223561391 290504840 591053916 766561083 487039499 152908471 251597142 486537399 512993871 66668475 397555898 173807064 316623204 287686386 589390344 557975720 208380346 699222807 20611677 222386842 499406012 616978318 905550073 382417843 93998987 801613002 109408019 147770422 186914182 457407627 52930661 509129536 800874866 832625007 213614673 547516130 874861423 620643804 448634860 675372541 600048041 652648345 475398831 849388879 688764381 766553343 284921182 656254839 568522495 905316699 279678081 85287458 777738653 107915236 779053466 56052596 739957702 560675740 161269417 46941791 844872754 743847921 355748421 862931857 607965638 622746201 40997817 211304689 761196320 29941138 177800678 611417988 262077103 584129510 649704115 519712278 374445954 71094676 506196695 628725450 781573959 597213145 53058228 341646722 917330027 684475659 728621638 325528637 592956558 929118293 592315048 236235609 10000475 517563273 259656440 90416362 454425417 605220446 962147442 641009865 448504747 631707743 548891585 85803046 371622427 63952105 751056983 244533020 774065433 582530073 312422856 678111245 393720096 580908837 271074109 475057153 449789206 317062648 234773220 601957345 475460720 921159769 524972366 77045049 734275225 694478510 120617594 469915822 901837328 906362458 512293544 9669452 129156904 991286938 449005136 906291064 714236200 679216550 737832423 962510273 961685240 428406262 836040083 99454606 948361171 359183899 71955375 126884003 786523141 869385894 248436100 226181520 121232027 264739761 188890335 474757049 351759429 148619676 288253918 298233885 215759936 115798199 861240052 483155018 384183103 150486220 197438130 163849042 824176754 303606905 86642760 302296087 162522180 331383945 668989432 884316861 632809645 828940252 140523254 603866493 360496694 615515176 478185163 752033695 243219210 82912924 250651918 317485510 424850533 288768941 538709861 806169747 476062087 284212785 361988522 183084879 367924833 106336942 430536642 934416410 762401557 129752006 881230352 496555705 329242333 561398641 366912268 294421746 780888140 136547043 413218658 431004819 15098687 328841493 963428660 106813041 803034625 444997751 323094673 45358682 290517901 306145814 161514653 939218493 348548804 209996774 734180692 705774856 872591760 48143189 98726197 477829148 693628629 68394887 253140554 278391566 993010711 653245796 701283582 801962709 684683238 205222281 560229251 405168754 872542193 226046633 538517432 137646428 305216039 105671134 782235374 371084126 674751618 44587523 610339652 256369399 869897064 352446296 989763707 977490828 204685300 961307202 526972059 390088865 454243415 311335515 504285021 616766003 831298099 399021120 501618237 841020781 350818040 108443597 851852926 971408016 243704817 316339893 548851969 84404265 605752706 495634648 405952473 58690731 171870881 925994655 668699159 456904968 195878428 601515613 509185201 859492804 858322330 881294332 480662950 846839426 732999314 119988200 492339040 916065984 304093868 585740096 332367678 558501750 753237929 53369416 594537304 175813033 895559344 902481903 561078582 519021610 808603008 196868878 378049773 62658636 851961125 105362200 473723769 892616383 917021824 876195941 950926833 326697272 398687405 297004025 532774583 768390166 628498756 279187258 383317874 232869396 971992245 452172821 987117851 37239910 778701219 839783771 479779708 606634170 442707031 443387216 825510766 302851243 213383939 577585668 679402456 577035459 770835959 752918781 218857446 684733361 272131430 946767849 485091616 283612963 107115099 327541875 539396881 821490938 401325225 243081754 908125790 718538276 93541766 901924531 537693755 769794153 125001124 431249585 705394962 126825742 773030994 130607923 778777718 84701710 884981835 469584165 233332954 706906667 470624696 316843811 707283597 531652743 989308346 323296571 411576457 196021452 407478539 770163535 56068369 629695509 684784718 694790071 780447456 327993215 388416883 150228830 357244869 728331303 7042794 930777451 603475785 399304776 582304741 909795730 124640750 320580270 513206894 454223908 175991902 824439337 124282701 579311443 894451277 520586822 134340136 862045025 249073392 47605811 400271234 459699102 110995729 254214899 314321657 855234124 270426297 630000473 147167893 150923788 847507314 128737341 359126039 369526047 67290743 592020321 646931543 11351169 63096813 550034272 141182656 444849086 903625927 698927881 472798567 811931369 729482280 78796962 16497244 182213342 613352106 774244120 819089057 230907921 750125491 33319970 960967643 544758798 313542821 964927374 2471658 54350445 507683642 704345337 121879469 541709725 738737030 926913429 358613303 842274170 979759554 503622711 752742133 37682432 473032021 485553757 839113077 869484895 522419261 190831203 799634386 709057438 927625688 332150544 152332097 111252145 373066608 928997934 84779309 248676761 276992627 988206745 502954624 528927666 139523224 481718147 982966387 682290491 557053403 615690447 576671668 960725343 793550502 147481247 968858126 601813419 799296176 995780881 821389097 741315234 416084140 240128181 791049625 248154186 910634739 995840680 963414580 423403121 953577751 574906682 848482617 397499011 204639056 999333461 312561355 852727732 642606691 982160573 899037088 154648183 329303541 855792744 358190609 592269276 728715716 864639394 35389909 627147563 526533281 667751151 319163884 104978057 663585240 542228548 212913747 2104671 22699106 276466313 616476030 814043218 646405569 14654527 729884267 298023028 259909162 389453078 783321884 801937315 354497129 115632129 135235045 847629516 872477688 756738996 986720317 239302242 890306506 765472088 220964202 243677212 117589640 907360135 243386137 729481792 953706636 863610933 601095021 755697185 28558211 371001475 150126322 601353402 584742682 456880032 779098244 308789574 488933003 576249589 177872411 762312318 309088010 988540982 292905922 346916963 449126210 544612105 124186378 917240624 464059326 293716767 356581827 392982602 716672100 683773455 198502371 929915514 377949411 449837591 726616113 127158847 379712707 291224872 853578513 752982869 198149417 774100492 853922356 375058177 325328842 6861518 193876977 355837188 41399867 603853430 230875163 2865802 683135378 282656234 871102424 213560375 991796962 995210662 473596786 542375640 265125377 439640714 42878753 78406221 799205096 558251259 318484406 820954633 275460560 801166552 445357440 352414155 843732189 840660680 598281719 221124484 628727888 203871188 392129896 6918481 947981875 769723004 617610028 444253982 338906066 63735941 423511322 341749362 794932443 91572569 709857570 589490944 533274376 752533957 807476437 428315784 188609304 973574252 467519748 478205106 47124648 758823200 988123874 186299025 334149388 742272968 849546540 546849485 78968482 844120167 116210401 695859954 57799524 729319320 599667067 366515439 745773851 719891625 589749996 33449881 699444361 9403097 810307694 911025930 944266180 437681937 11492868 383337310 232351642 212485505 125512958 551798922 467653592 916590705 11944463 213984653 762824241 793975541 132833444 349668795 811244027 333045295 181394765 547321743 779889787 470477896 534849540 823863089 167237429 925763505 614419319 848138765 301356056 336448937 473065412 17106969 196821976 113939872 566802827 930579455 551216421 500218464 264927942 873206222 757883985 989903245 793653589 142931349 204213684 16657717 372675297 537317439 665388250 102982923 971354975 608992046 459742829 629217123 542921876 892800292 889602939 60385088 503831757 55189156 60700796 147872997 983383546 540392733 926085575 537947591 784076063 548797304 911555307 916199791 561932050 921241822 294440105 105976538 696545090 633880128 339472395 870736231 925518399 910960026 974346579 288678649 730521571 579602468 470790849 500809229 418793310 453849614 462524699 626697775 858394287 671477817 237836224 437381398 891274950 549266534 744250928 204974634 674838089 23344347 85920210 165482623 340402473 223741130 678140816 638995302 3931791 33928167 473751977 699028309 695513691 863937339 748279262 614130473 244098032 592194417 66911958 269817321 98909262 428134852 438284668 55413431 795821544 562148937 21123780 205624652 462678433 773033693 874537486 778657471 64659102 809275837 717785864 48471736 55037867 889048367 841096547 99128259 705408986 867181856 74693318 589758937 922666247 57481923 63279474 177110686 780062107 286331085 511951828 740557766 831974539 635414863 412310170 707588780 787801995 715763113 578391808 643854651 656655553 659483408 526405568 35321562 962803069 268754706 833521852 171851218 702746245 875589189 479823870 968696462 32406325 174704023 264761089 936252538 755197520 812451303 640901123 221285640 23557623 260717288 248373040 660170573 676685369 100895851 658939178 677889055 804877692 792708946 813203135 629751701 952723737 198478818 985902533 333029702 153263155 706785664 84624128 785401416 20189961 927097867 583165760 279983143 386585781 144300667 741243750 839457379 84958580 8076713 968754391 443022737 797941796 50889676 297794053 863453442 381164667 643568013 311410394 173945006 186464899 625957368 714717717 891174403 732295925 735904954 826895702 3342262 470528205 989904859 43250926 127873959 194401623 61524563 981285639 530125221 720557589 877296342 674200398 369399841 506104682 203508515 98965680 439078078 224911109 548496759 10611765 407644365 463593380 842213922 440935435 913011180 226741905 845148821 302246487 558290490 512255276 30422264 673411674 714994447 674267827 985192030 711239180 445305280 305510257 490840273 20879304 263490058 658795599 781100929 226115547 151303508 12869574 241035086 503715361 14820527 493422945 137537250 104177255 457437235 732367634 765041428 282854777 694878414 275387714 563681738 977838117 893781696 670182100 611990957 956145521 305569520 230675347 739463073 59460783 605892991 677461868 521902737 922330262 415955698 371077573 492945084 813226918 111227327 984464559 472652782 970860076 360458827 380406247 8948906 378669018 954737414 799618252 704223672 155769451 845524683 114760985 441036252 949463901 26265430 229089170 706001861 860763546 240670368 66925445 583375877 381444923 721770430 517051622 37857393 610714281 924503921 829776131 157253695 155718807 183503822 321447361 703577181 596297731 363008948 471728860 912531438 531726067 195796262 39119470 834917120 766214925 233637067 332916810 396940966 128148145 906815928 104183772 675162879 873838781 874210119 494427369 814743914 334808061 334280549 697828520 435502734 519962286 581334478 428285491 797601399 980481291 456725731 754293427 357468433 772608436 548652247 82245393 8400158 589582346 38998206 298174445 153090425 969801537 149260501 875555595 312826450 45796397 978991681 716208486 681834477 484088476 223864023 993021129 858781731 820182430 939913970 602081673 866817981 173003138 782321643 530879182 347117445 731455334 647758910 220429613 488448430 492906623 828456437 194505185 699550182 472360083 791585958 565579313 538223714 417790213 52431013 545586314 900222241 94626737 651339966 315328927 667964710 22344172 426090505 344774078 757430238 476360308 642299862 983193884 970984796 600351875 725880313 567509381 305663273 605752312 390789846 463585740 411631424 412237993 411280723 603986728 391483364 204003500 285069018 980937509 37635547 25927777 604036655 515710266 169454108 961384244 151676266 692556335 317767117 55426035 317477603 273429819 288220691 338031707 948038913 867557901 705746393 14200118 114181188 799401294 953255987 969487010 495632685 214301498 156811961 125941747 131559082 42372966 346689000 141743365 116587576 961354866 476415817 108137465 169902313 300727225 937196870 738572808 74625778 508148906 911563513 986379128 809097898 251250097 706845040 950446485 231675608 708077276 736378047 557162256 166738768 490126609 850993124 17889343 22341472 25298467 755598591 856182244 517120468 222061381 868989646 26962300 369809193 678523855 25723671 191052481 464494447 269904109 83130485 447847233 481929088 418037984 851269990 128675819 348105174 74244637 533670550 998313016 251840677 73882387 34710598 351273801 394030144 131351583 536835355 848238568 803938198 356704159 515791797 46627964 334866504 276915545 623997096 122183290 290543734 525942706 945699896 445070852 913122801 602534678 813255160 740238246 309541476 97707955 1055216 484857349 126544368 721814954 347172021 247989672 810909174 94983844 986752767 834058839 791307371 474560721 19039255 468631744 329178099 349093850 220409437 314112600 689423015 243016380 569855987 274622658 478045373 104702372 960433061 116255702 494247429 209273937 148087231 186890341 3799741 281430073 809528853 726964511 770614658 664014328 912623480 248249236 292850281 701754600 766601696 552397476 428884211 481660731 940501408 247228405 139611528 410603333 121852786 249414697 975996035 23856171 485965108 236600342 792108571 605713184 216423421 335494381 550489579 905512296 602800807 186653982 852737320 300327655 69419464 946455651 32112666 142123655 79228537 180044318 469152582 295457906 636671457 592778556 781402745 956160290 871996069 251141246 372562932 879966663 187682931 227324243 355006043 742341478 153020660 371203555 220582440 200596637 323995807 474669949 160587903 725080513 120927247 977866009 513586931 295565495 838270886 614913187 504578484 607316834 453869027 178914708 344760618 602615979 955314552 419592141 983394155 90617410 723242779 669626223 952881035 717420046 576359458 747440465 878920829 162912889 80254762 638944772 636983382 471725886 152827186 503614313 615514942 211078830 939366957 634124481 7557869 656893142 118966402 927009375 46637609 309593555 141809566 528094153 540030747 564198051 42463937 293454544 726615214 783895896 880267501 315215137 490906346 769610327 44277845 225039876 175828910 865788085 940590393 39796434 899115669 631447186 86043241 734986901 592580002 312416072 48581251 829329635 549153954 919632452 842160678 749860317 264982725 830383185 644059936 241725270 145298249 640868967 222618738 233127906 114875483 100051007 36990945 806448597 835927812 588831344 641175740 313011369 292769429 738983724 664227180 822834637 977953624 361603527 919233742 196554160 414200105 775124703 531272656 944866337 100472753 614982804 250666620 798249127 916573531 157115265 49613561 963712496 509387117 594673411 51705100 562379555 998254176 663012442 973803459 263037978 146669021 895019451 948829556 745308489 165952921 331492176 572003325 101774957 101741883 658503332 354001521 156452430 116519166 819104520 562604119 199416386 565749002 439568995 643428513 15918987 893592669 198554324 256478865 143029499 281676254 229830405 167766839 303078644 928572784 453586972 128194052 476872241 867234990 682565660 755206493 223146064 35486973 867228200 569447145 367527536 780461112 439147910 700163939 413425136 929733361 588501933 272427498 467808123 487320691 863576056 799196348 720268051 692839531 568454352 641289646 161765016 469274862 226725324 500333900 928101705 812048427 743590988 510074462 421304899 411515867 477316817 361966224 653163710 6420015 980916618 130009593 98150526 193459299 380160242 643718707 581150110 212802607 177809188 125837672 513229432 267427928 124939930 503110526 801012883 196466870 353091793 589596815 39129435 47612641 333732444 894899681 621259999 499653735 999290973 625785583 691010308 504568870 819375887 415751419 952372208 132569518 50361689 141615777 1150108 268972132 77490777 441798001 235979062 100489921 512117019 264587163 191259525 836172644 95361394 106917514 851692873 753627779 451773800 696726272 157903453 540382219 663307303 911405722 467763695 382114411 907380724 882208980 205912059 420806831 145888946 937611303 690786014 149481515 646473405 767965548 979449570 301294037 437860147 802079608 622991281 989566387 210117745 433195663 662134151 379929166 230501869 997694050 318345845 480017794 70280406 608310793 297954524 274963316 110655442 805091825 774153686 907198157 656160306 303148587 464049230 852667351 99521001 682069678 445669317 96064510 758295817 265288099 820357490 278515506 268085580 726514816 640348466 830947685 359410384 639919351 673697165 933115872 166700900 913729286 169826376 666015680 63126696 520872824 399918668 151338532 259789267 441782110 128741482 461761686 67384709 633058573 197139467 101166859 177413937 578355128 785791892 497179818 199558781 327749317 32814758 12107082 544441000 406802737 776444007 184671702 944627371 667414878 935107262 235315184 824878495 241336441 256895083 157677833 270567582 346728733 608654486 196714087 312424557 365202537 217837024 328435047 266337648 776808996 411503672 710260872 520245210 528440206 39119979 380589186 566559364 117808452 370293936 744023690 763525791 735567075 959695963 339588427 686488894 583302660 165405072 731657359 557791190 676168052 606131594 539565653 920679938 333293368 997653971 572120708 816240932 721042770 363309474 952308388 787637072 552753914 809151568 400178922 557639236 409657311 22246886 478142896 780324621 659086994 204526513 284115274 827141185 317311199 82281345 276995489 202517767 810589981 25502147 899181199 965879465 191783867 38960083 308114919 326284441 468413786 923464411 462777544 480799677 553423888 492826322 545774510 141025556 106700255 897087539 316080677 199080343 911994511 93857345 224280213 654473064 443754338 322960805 887187388 459370330 998677225 730641542 380690152 530217475 614922378 743957654 341344190 662489582 377897684 752397558 287536779 193047490 291716610 215334920 838060027 882976552 375746456 586833320 227704858 444351990 710765243 230460145 224984162 462791252 649519839 735669513 672128566 10803209 109574631 915033135 61210650 712475405 293368674 11044844 938898342 390672355 739431035 808981362 788737539 527288692 527390990 909011120 583519464 454301565 226083246 669046319 238800459 878607693 843965144 870216120 343396754 965065338 77948871 356081140 294453311 207651640 985620972 666486421 493909290 101802826 665396986 634632747 758902346 888149737 479372916 463571955 804628545 447891237 409531664 830465440 311675067 541294758 397479408 641835057 294796225 39574390 460472694 170182024 233779370 989598165 950272063 662460140 894175349 640149792 184796608 312552387 395754260 378883878 530148705 47412435 2116425 362352716 617300008 12212000 985198752 925554009 230565037 742890880 2796472 644812320 199736308 391192059 459853461 757878205 425147769 92487259 766096385 847970484 93539501 134675564 119754969 989423992 23679924 19328069 3666770 897963968 947215421 396310140 602562402 379173996 624737008 366740543 171459210 897609345 143682756 961500770 854622487 336807990 309089722 290817138 22164328 767943499 242562269 538875954 830283304 194552487 932599653 336925242 486605807 538948794 174980881 19916638 496708614 392199612 358836669 786490789 86159310 31878387 869598775 449657840 673427967 737708905 831573672 379322137 444479708 95149259 964008698 289865956 193752922 298754398 239382818 413945671 824783664 827711578 76127106 690796630 842868207 16268041 85942291 197697381 694789992 426014443 459815269 85881150 31167305 402811562 152865474 891092805 933486416 313449498 189333164 453004308 612728409 225892895 467798107 409671233 115668432 449082247 908932432 361828514 357803888 667383898 255627760 483544505 559597933 939523457 30275787 998630725 845923747 137037066 73512141 520386274 519442330 351312375 580161234 514174868 354401870 707026433 433577223 859504137 127323338 695614124 49114212 227359437 410924180 130507764 986674639 791613420 791052726 498498321 462216403 554455983 898807885 307524108 499531420 839586381 570925798 849315747 912172796 235364252 991649463 813283900 262664988 457781160 349617311 57341932 742406441 689048041 922690470 224290077 503011660 627803108 245953792 107208148 61393209 358367040 448430080 756459585 429943157 212052711 294177026 60735733 379851082 98399466 120873731 158635076 709678636 101716320 893977982 78672966 608159814 22431090 650536398 577650810 836489897 660421163 326112981 459916925 291988014 152137214 768769066 53244741 85921332 900668018 766937314 32825015 74443412 946437039 484348905 212363131 315773424 701384447 664127327 494105015 887873519 141265023 233823755 3637300 864902686 754660784 386788152 236057619 821367964 239454998 159114247 203863507 687988291 32499137 168219564 982411848 319350798 885035158 900984669 966807125 126675199 129756798 65241067 776588844 631626721 384008584 74552211 655179354 919584685 952679371 956287629 205124130 465361564 705949519 289941227 341919126 490624238 475863409 164632310 402337424 30665211 350765624 753542359 180978578 64357480 481958201 20505581 60198431 264608059 712264580 91912293 615852336 194732630 234813924 262504248 864762232 788573154 748469775 226446897 460497044 659130472 969472307 157142972 222858958 655492455 309763602 37844451 368050918 84210831 987035035 425646842 174875489 804358687 318808567 866507828 55793425 507189402 341771440 37511752 714126128 932777620 923545739 945248101 31851067 899208937 106892165 866867835 251738728 711549966 751642292 158706360 891007554 507969658 115191290 930343982 126531025 556154861 654654910 21338847 11869712 178649236 705643159 732627993 753702616 874293422 763788814 772872846 87959328 423363985 991895306 610712118 941032793 709719240 611373492 742579798 608409922 531845484 492048645 303266834 820796984 987847251 437685338 50756904 116506529 595670507 576107068 639556726 144942552 301134978 790212561 71193511 318376398 483583185 640869441 502709378 683551876 268414767 723157937 524846277 29584907 586070359 297706587 900223149 985142717 898336967 302846430 390180047 439229605 258197345 428425959 752457045 255171863 584438694 784484523 771416632 476434261 880422144 172570015 217920075 145274668 422714115 93789473 817344932 686142026 975328064 212829743 70905154 690520609 236205548 892688811 982692296 222589267 895616354 140427366 630139007 402260750 928791261 150001959 508841216 840824019 680532741 891335561 168382537 369345405 549035139 517329237 134134460 588698214 177471196 286197273 635140388 218846967 415649935 583663763 998565402 260969883 204045192 533319171 530133462 452772422 538416035 38354957 763800967 9629700 885558600 777974815 768713249 235579297 710989450 514951618 300813957 539457507 512950122 556957730 919313324 217798815 234494222 919655749 211565248 518943937 554080438 463541138 178684523 651103932 510446747 1710929 527319878 96350025 836196098 97161551 96805934 83110789 170694685 955969620 831459565 570611943 564796695 3114585 295656690 488035557 166904094 717934846 231761905 628032174 509439973 631788645 882729519 884637935 40124959 503006747 398609403 50457387 606269732 480865528 624927414 789862895 336167031 718414721 888366628 643360608 165369089 726362304 484160845 752411478 468778061 658876735 649664962 810899968 648401772 723269833 66425793 91810973 727807195 240163461 388733188 590288860 787915611 607268055 38223637 474646936 10547955 892852659 408185508 805706743 387619011 847007616 834159171 41982307 278569544 271152727 178438045 765895224 956411076 617971513 712695004 174736025 986866046 398648790 79927634 518473804 555351989 557958502 28438372 959288350 57980035 487641186 361909888 642318853 304323614 146295685 168498811 424573189 338998261 698695908 953755000 400914831 355747214 332217089 685758052 690384109 737085687 562702594 60303681 227466151 154723395 24811498 896508025 391003444 754467645 826216778 44347136 609871897 143882676 945131271 92933946 142124552 930291685 98005854 843358699 930313439 945838539 480465479 98464023 892941285 562991924 178628854 202130818 498441017 734756187 19948195 785957531 923625285 110292443 772807290 911178421 20088112 57931021 690320262 236109319 443805678 256390804 326465848 504297749 203750975 550242617 806495878 846457712 79534534 330229112 288960523 636633071 334916792 251022487 568847021 549495443 753589479 660806640 992111105 801565158 191365335 644879041 226548890 698724048 656499178 211430935 632919539 750771460 763344716 360802586 677593240 104918813 197548982 140854645 267327457 243722485 298955729 763644002 864838544 164032291 107849740 310890051 712552249 372027861 813134057 104390861 273650651 32779195 637051704 524802939 479950846 882384915 55206405 35230352 428193563 887562743 277575728 919694883 890181886 569056934 229872970 845604259 80606151 358280716 267594882 288886353 485632420 403137586 716304789 930866627 960139785 234577119 395258230 738066518 743774720 936176088 833478367 729533956 435504976 873463723 652357975 612301521 588570098 801433126 893980791 3739459 333878291 832233134 3486902 240514222 954395553 445795297 544502074 80187274 321905911 575093184 535510222 252463638 676247866 514607222 188118061 836021067 260491637 210074987 355410066 458504712 175096476 715502165 895219063 964556881 692050551 9743388 377485267 284548012 756454801 403186786 726432162 319004126 127576361 953722882 834600909 149808950 758246636 705642372 831967751 287999046 980939865 595634957 659980182 904327408 577476521 14970728 568468948 43698841 888313491 657608814 927639839 119110810 524007882 78644915 283516819 894590492 255511397 448482742 658665018 602172078 15367891 850622935 259876800 623249694 938992350 548402086 174299842 222341986 559181151 992089603 222770688 437033958 328879787 490864045 804245931 419747047 745456102 492114648 572546054 703428124 888977096 876431319 466553645 634628490 22789106 985715465 405469108 835637846 789728970 323094150 253681384 732873833 239311402 531938261 627582431 433047047 991162273 676418384 228895614 890576755 745123168 484544314 368822968 956956314 957568600 930103397 960627728 521794353 628210658 803091212 771754607 331175617 618820643 518894875 635300739 98705987 513401977 110621977 126872291 399313831 378268839 338846745 563906865 482683792 73074401 278178885 844515862 331450751 198590164 189597385 989456435 901280126 861870761 86976771 567732597 187802570 998060889 962404536 320337468 508633411 218130310 972125414 538058266 570381963 692316545 397100965 485193118 632855589 351858807 690562782 836316457 398941849 946558655 189451490 835694217 800487485 412858956 694439967 488880642 531821274 21711760 167727035 53882411 577497790 469455048 58125322 242239965 979297468 565956691 599681052 701210462 810123621 8558614 981089620 749108586 354915825 282824217 741797386 891840502 863046642 43197249 125593917 901850037 356020102 859031551 833884962 622940050 985170643 146363272 111297099 372193159 504555343 195005429 834444197 709672209 230341532 386519396 707476827 610718224 501904310 876484666 398513231 426539835 238750285 266311021 130744295 299661277 948083331 752936812 490077653 312086884 304207432 985822927 90691374 841132116 251267974 598727043 262296374 844101583 16268937 778699386 264816219 244445497 389572550 653378565 990339122 23721667 671961138 612156422 264098419 728672751 435993026 867501734 134002966 869612541 719583594 14553484 156286418 52156868 491070234 875435115 317294619 697708076 529389025 945435032 457565207 706844164 675008474 806263523 42056817 836800474 663164538 927667045 16484394 121476842 66439624 819599821 469628985 912386253 368977293 822357170 740766225 551634147 248855807 133020590 47812461 741634943 730352829 335299179 962151577 880033797 485780072 396459221 616843543 360867767 973227419 782869582 750073574 15968487 353907406 23670427 719113150 959492253 956567776 99092827 250788601 707834683 805309010 766386179 494351098 837597021 758176858 54161892 943011459 861892104 692592214 642675369 860876699 989225447 285417678 595280945 346084209 52758416 363216322 503711408 4342571 850583609 185876887 591651731 821570388 626709033 652746502 881408065 355905917 635858257 651370359 957501354 171702133 993649574 324601329 635895471 460670218 432628601 301947560 519636148 18809096 376530618 709342386 93419306 460583864 184275542 987743893 418104824 635134768 299659801 472126064 650280655 385815829 306234140 447031041 67033861 468823679 246701776 40185041 303918178 785543300 881228390 674251569 193978160 141209328 604297587 576106091 520440451 992506385 879802691 497409825 75577639 519815029 966137625 101890240 731722906 577334336 568295317 557261876 949078373 931422543 474812830 998558639 274266845 203391328 60023793 134100516 89637009 316327120 865677520 120973444 342797672 29514048 34209339 822533592 469521555 4503655 512724014 494288901 929559670 748316534 915816806 506214222 375933748 657473003 968939544 521659549 232365333 102866647 811342926 880569083 32397661 928727872 459493858 713346378 77086264 579416480 358805586 857152557 37783996 919372044 905204890 504858253 548094271 448569899 636864980 833017526 972204039 347026446 104115579 454072729 755189570 128524155 654767767 650210054 616803559 453450632 653987580 995091046 979448750 504611178 135335876 312588628 203523712 103060325 720217071 171922373 930099826 284350498 987564736 504600316 281916705 428753584 691028198 550923621 246328740 580522415 519823332 705580830 643593137 776328211 975081957 674094421 884237132 628276671 508774408 981251736 44700321 275425535 661422230 64478125 967528086 626240289 689087819 545298165 977069061 742303328 695680108 209655260 267201887 849944297 136522124 745156291 366941963 834807455 645722193 401971106 155635033 892099219 679956782 205273666 629964368 9041868 740384247 190453891 334460068 743113561 360010191 226742889 650760889 891531210 913115668 152746104 740827015 748790945 165945527 81314602 396588000 116498593 293795334 579239887 775497516 741130934 469161555 936851102 582305793 452792181 200062302 563882867 32628908 949758812 619288295 351399779 448399902 495280965 564091407 238617930 563657162 608979715 147992249 767875984 438704149 893888117 390959110 798145647 717574051 279986178 394436108 279717291 604519797 335786763 878366442 589291912 744392300 544073758 189363030 500638424 676295156 363075834 813437017 481317287 660796116 531068987 979190663 768120932 463122002 176574128 595251785 284918266 855654102 180280031 128985845 322931655 540809061 197268449 757598617 76649270 806246518 479940264 542277834 151048690 722601151 14134561 8506979 744785640 358662410 839452342 948868280 860427922 631551705 187998803 906384172 683284759 175406102 283820221 749638497 600724589 836922881 47689911 596159436 758896258 918671816 973423830 371771249 57778707 914957189 969606095 833990340 321012825 802067675 319854489 888832392 4076627 99877557 791745457 447060152 43291135 716588827 434485516 692793985 818818251 835031503 371164734 110059306 376409466 763599146 903056693 552678945 545805139 69349970 296795935 128368516 534998094 540758474 348705202 810536629 918754129 46663981 264733572 91016298 236905798 391129007 720479269 173867930 92822466 367979998 51388461 247832270 670720140 870317803 550794904 193503616 883918283 617713142 811357820 293488026 951573030 194307880 759342400 203393563 23851280 828835422 115883695 659966643 275689336 782830987 416675391 169410180 292892504 463966216 508446802 427315673 593358621 464492 854097837 987433283 452015019 343626307 274005480 164551681 795186043 777433752 990983800 843044639 888381352 999008870 278261149 788205706 699408689 49971779 5036971 981597590 557675324 313434517 212815946 382690139 491144017 719423380 121450502 142384841 271051459 207712387 18283726 837710308 366741269 533634337 172502888 390012179 219713696 612126177 554853777 447195070 356587777 312025466 186656939 269358274 957421220 56914322 490865358 702577136 292056711 3764248 443247031 251241674 438477118 430975206 236230494 479555452 503143232 251321901 796366375 105510655 313382703 473632529 91931187 222584456 362961401 311031166 818479296 723541219 372985482 322112545 631601906 350926482 762477313 700986699 919377536 116227426 219558379 124380852 568607143 442752879 698942366 25341280 53540808 465209248 125459672 363710983 507806881 731605278 718152902 437546209 415271516 825828189 40141081 645634456 50663205 425679499 950764454 833721315 751208097 880996353 41803036 599306777 844669488 367908246 874450757 792420878 716030798 648439634 789969404 100369728 742553965 883304406 807756641 515965850 642086884 87541230 215173548 650114391 130400486 610371823 204570525 959358408 878779516 831951620 219726784 144589520 90967019 387268400 757860167 136280248 645886789 110675807 544158815 822974870 815409988 369809841 947499952 739687983 84404321 563083693 265006227 927915245 196466654 147860550 945556080 983144857 372104734 823114975 533265835 805650163 722812655 810458173 581274492 494700017 898551413 585188428 982038319 219826749 906528020 97196602 515293524 742655792 672788692 368625606 253778661 354250505 641056977 865017512 817705020 668100070 423819474 75852714 430624349 343706458 862375695 934428791 43635411 384075817 129868393 689271895 990631834 505964309 592149135 479968988 630353888 953926004 533372275 923419991 869676925 567560873 973965428 813938597 347789907 814030033 70805977 411288730 16862740 65354232 653289259 190355111 298736471 903789017 383677765 341266733 34158475 617367833 949489782 889745847 743101973 800771580 526778346 106350272 73474668 869867303 991134306 329695751 616368511 161971721 64439869 775832334 745600776 441002129 543491316 910164235 583733110 315149629 968465202 298943131 484750110 967449649 161450475 459591303 990598256 301819321 340303148 371785351 173317489 655985798 720165592 625609187 418051745 976321718 292262675 34087990 985981046 980500286 214498705 738944776 369187079 965335303 611320122 139936487 96199767 40272793 40814361 637370146 100124012 145518730 903266733 648698001 85830230 971389972 70897272 76267227 26885839 327258329 3598367 764539555 633801024 843133600 379258818 4091046 601869677 741797791 234495779 535835911 822450066 837364048 860539451 912838490 478468419 109200274 471283670 507375115 671206889 283358093 999945073 862331075 407815316 960534725 320703077 498572170 763087963 586700183 816286377 564998467 242008675 229289806 531687267 359665881 782335421 247341668 115742223 341210989 76107491 143631972 56794629 266510377 871566529 621696752 78774594 131871673 960342328 409646171 156834088 123259971 697537974 471159832 441096219 919619970 371770417 84983490 519995510 511725061 308679121 536465592 644857780 809695533 192676490 606504735 400670566 150496279 124810167 233069527 233504441 616741164 312260413 280281161 381503344 542773256 698119513 385404530 97648712 560545173 981194423 228367636 21469302 963614951 71991686 544506653 654909061 366124453 247547122 299908909 508896225 852113603 872748482 89287276 570424618 46757994 429531258 999412055 85247723 64018681 989944127 781789832 511555857 491953966 652192071 903999329 484249845 340623941 624765645 868752432 693261299 162319980 792564442 390602548 760192655 655962553 320848896 470005970 615502845 780099727 919663747 540184502 75702508 134469566 537942392 742141057 433520594 963573426 580115081 119416487 852897755 904067215 281551972 402252575 752217149 955420116 571757740 58652374 859714710 628767336 542265241 948875540 967651437 247064725 488418344 562574111 188582495 716822393 220388268 826071904 960253054 599033999 590687180 130358752 286372049 407603646 24755093 413001119 511864839 782326874 825876823 164014706 711820861 113667356 591168906 665133644 92307671 733002341 627478601 36640743 152017418 448291938 136089650 131356856 281705385 24184077 791214825 678247314 731582205 818555974 959008465 892593014 297618935 424007095 703798545 529866611 356646024 122920534 598440 467399858 384943686 627285695 116635935 17010293 375467872 600796552 792499604 454649788 608932754 777082681 673061150 202023862 506295016 432394497 658343368 876055247 49383976 501999105 880581601 636812532 289309320 435523241 690309239 653330201 101010987 614917647 279246592 540303863 387754838 973141226 273823279 150048688 821625844 40465107 467248513 479530355 914736236 473149096 334582860 698266404 667526321 886380547 151160927 540751043 600264917 126999553 869037235 712425543 498281108 171610191 916976673 121828422 310728400 668015605 868745559 530139892 640381717 998849311 109591219 285545937 522053291 42139618 461778452 948062642 937494578 46753883 757602890 388694286 344965527 452680926 316162628 276674998 837181436 86606526 220243415 635952121 633260372 340492227 573838839 987979047 84663280 54888368 192208057 217936213 457258052 472141871 969244429 125167172 655631494 542675293 842801968 461851601 772452057 898706445 606904855 655158810 310133330 944501040 67940184 728484771 38671934 163098942 460045860 867914575 420089019 686469243 458717764 426013612 855948590 975799989 979691978 584050382 900089927 63150990 514946151 412651925 736064046 57099584 936910487 442969008 577041508 900394261 907226631 29788858 979892394 278340773 44389843 817500252 507646717 205983395 200818715 316926384 881853119 429529391 101403763 655103053 151184811 258854157 751679433 940325341 195062834 109227961 564862930 45720893 890669706 160959133 6802038 441345020 254160128 465953311 269218137 933687752 95714053 431125534 459393243 213546667 176015363 425196698 55537832 122186374 500980984 245773149 109732393 292968521 772966034 71651403 332229455 7894210 512826143 506324270 480044128 572747829 830953907 294946107 469080627 769638878 479567624 966275672 731066674 239038283 648733342 432326715 880671373 719699715 872319431 903294990 557700446 551663602 667319028 578266309 607722945 763312074 181746218 295522000 547992035 523830177 447727823 445019577 902731432 693225163 464585087 478620023 391886385 821285062 818446545 640022516 705221548 394342836 372995037 471688029 742627981 915175956 153750814 16636550 992900825 5811062 35804096 386602860 219893462 683004500 16315600 519363068 26732885 375329362 349426462 632850541 965850806 331803719 629817144 718366783 560332440 862840310 699509633 638308494 155408938 368988096 377283492 651631391 858667664 412643613 854919697 202135474 717502155 926947868 467923842 274800829 739807902 771048463 49637349 772001240 338230141 301925441 744280682 714937186 596947052 154843243 814203961 467355882 349104056 36593658 945981340 102738820 446771233 179975264 895029774 371880237 665371077 942290966 961200118 948672340 935871806 57353134 420644272 614971192 430505816 481385128 770214848 535969748 932901006 440650917 707447977 314352088 913130000 650172553 970314166 263778392 252471042 118862477 8981743 768047694 417561229 261277459 984536279 607417416 179598388 79385004 597162347 596497037 728713584 322618854 869150858 877391052 564869366 457173567 997868705 591573653 805534106 857017826 906678468 543268671 817176706 620922504 91121616 14995002 466706935 975646147 306340634 73815905 847540881 554485817 296755761 634509240 106605990 514031087 105009752 575845232 395900458 177677461 23285277 177995930 369084218 621521969 791769829 279995792 937333785 870485891 357059322 747828301 427994750 672836318 353295661 152022105 482040221 383790211 316446256 574543521 530442956 243127533 734430415 617724592 65096554 399498049 563731966 877497170 366503026 727090840 522730336 626960176 368479822 481088167 916751458 951659138 421413863 493025559 813639445 350281509 985340750 370101736 656464107 17695058 324161604 632436317 651340391 400284494 812905047 667745875 141315284 246873123 156869484 649228161 180229174 789942071 67710521 116415367 807389551 555456435 3650363 151766942 57711155 149860139 113485736 58857003 134735007 977001441 932921424 961166720 75883795 309858700 431181763 738182735 703933644 301569330 359797737 998318467 189535077 787883800 432570751 666796083 378182163 737267339 827046087 514525614 817828255 426129702 780166485 950562095 271555208 451638629 465354255 147586248 702444848 541506644 4826152 514741209 251148387 77410793 365726466 386715839 539565453 901124681 120594991 608096325 769979942 513035975 206245119 399535600 961181731 150277330 540818931 720517836 707596361 869370838 985485486 636212824 85181930 785603689 574051281 425282865 79237536 907907920 949008812 688909250 542156649 73216100 757300966 722331478 264320673 127183590 497157069 686746833 50726409 786753116 358749740 223296670 344436268 399822537 71766183 117193247 745162646 395322115 557474857 558384212 956983594 170692033 29750274 555670728 915994698 602859041 670265686 921233502 492800581 649995462 376360745 147144513 564923076 85404302 869907299 481006263 197398581 652895788 361576923 220239444 101168652 141763132 648738516 127750094 465572204 761786827 64582324 959125503 294079778 537779071 760044376 54664810 416227796 816031330 910746458 855563038 819023783 611578000 556869015 430138568 356948150 188840501 367113212 461778454 410951065 661494704 279585832 114787402 306597719 105019325 298176018 217586093 879393894 528088502 299068790 167733787 405761926 313928184 876195186 566276344 750870943 47965341 404921554 803452217 363190565 276833257 286872627 224969387 430020127 445003686 718197414 292010333 349399453 5715600 412657946 374745253 240112689 609225828 687133488 487632137 89902458 975648171 308168672 744257916 493514809 835598398 913126637 738349443 965195024 806901424 395421731 846067460 18584288 881004179 635078811 811525561 737789247 977761425 954996045 666794591 353379682 362221555 608363761 863669456 404970218 913003122 659612429 192028923 706913144 882327654 495904965 389325796 469129232 301850851 884663591 612467015 287653511 552632715 908014223 134044048 693639301 46732905 256590766 964400524 975853819 872336302 131209082 978501374 632458892 920128723 262220464 38906650 215683666 638236583 226045225 976835355 56194603 554048774 323252551 968455000 944367070 913330168 105119003 929830891 251169334 952712784 518051574 201008621 467829130 800078222 857222085 982955988 587620534 511369355 825576849 775235479 240938423 353878484 358108341 821161576 19329542 676745717 522900188 624777156 34655654 809491422 483792239 195194441 730361481 728817546 907218960 744705792 646935567 670809466 96684923 466120558 5179557 591239952 103981797 682605933 318797829 933484176 274147982 911011094 843279438 466718094 325354075 564935282 576576920 925166574 554544690 638447731 994225307 86014391 598031045 853253640 836962147 464877063 778519031 628663144 498121509 903685683 564381176 210510707 86385830 383643472 408442337 780865974 266438790 392729138 461135974 619201493 105837658 726970370 809523301 961180203 352740811 964703263 392743820 945770236 116230189 729759355 301500022 228485755 60948953 295694717 327337301 244096893 891437859 817113693 894856789 440967027 965001899 279869639 540631748 855794292 994142069 50988195 402966088 607743523 529801554 464168468 604251017 385323517 749586873 525054419 761693011 995590801 468615544 313020416 642718093 46758423 685696268 506759208 902258495 57870213 894032576 41463107 748121956 536390328 891984245 373866449 587148019 907432706 390031953 556940899 865779986 146970659 140387989 880883797 571425821 902285710 419971903 768619607 900170280 921965101 229421259 922250975 683681820 609287079 209798558 569582980 709645839 960245441 607786333 523052448 980846779 139730221 121639462 703833088 409995465 934983103 253877105 140439785 887353901 201031491 281089309 687477695 659889879 365182483 140180411 57630247 688216234 669194078 726114760 803908053 49513473 765850734 435481445 132668365 601803753 62293080 487817752 557631075 149187855 954838963 322266295 291236278 879062539 8439499 300600007 721096969 281584391 539814140 378966139 753365279 168480827 137036345 410582770 878696296 929311997 497215805 720454972 151830222 502915688 352130526 745296340 264262304 12724511 501866450 485486685 792694313 407507282 838949984 667353730 394995753 280106061 936406384 367931744 811131545 63964674 236864270 970340886 144321417 268870381 479282005 199420894 981025677 268219056 478122721 140863340 220245457 783334801 154137150 40754546 376735759 632665120 26181361 788086750 98917568 874553565 145853112 880628790 228057551 131043227 834110016 98510695 441029947 470648897 631638424 23214282 330153355 775515646 438066210 699314308 745928977 330601005 962855449 323982537 470739792 539401752 798111485 526338506 398327249 394138544 63869232 72058599 169843026 37987459 695416122 400675886 921524573 369449117 542457771 155679644 300718732 258987361 492247183 369908519 561193705 194377496 810347681 557820925 821239607 68665786 270870386 6447998 791730775 117102886 861676848 829100253 795249843 4802238 53049725 936089172 990975544 911452723 678690249 888789482 630981528 324352577 167721334 412278034 495146206 57671659 316498274 666437503 486080815 250881170 853982565 89179509 510162194 529607822 373486390 428752310 935314083 991594865 155442509 875525241 700866459 389199448 311303526 170997697 694931369 863677948 971921998 750647382 539055008 145860145 677141019 564382226 180734109 126617585 814591791 742829032 818700897 80359491 213217888 33471046 76571305 34075606 94057684 988230048 992700029 944463328 728368695 125573925 771714354 491143369 543983535 249812273 973274788 507162093 867987594 929550260 343826721 574556067 914196069 666192894 593309355 294834040 537554865 596728787 842657108 978294058 609133572 457647694 217372428 513371954 693280713 343911115 936572648 775835145 490080182 540513044 883706651 304741257 906329621 506702469 119287314 515787333 153914887 872103566 75177723 197174423 552088344 828899809 230772279 630661209 796174464 294477560 326201322 73896077 345399134 748894876 110208883 661380013 897360555 291388137 18514514 422877862 896826589 615661211 496208588 854666232 785020587 621461899 974315799 717794089 100910507 629977659 505184984 949823514 475918879 210324365 922371684 886780652 579746114 267943662 369217517 198708206 399223973 362152607 426428471 313969971 179228831 600147775 67828684 102070209 446589543 345846103 969344042 725940834 84131854 138708055 473553075 330979047 913838632 373100930 589664784 866890780 995957432 747538168 257433507 56663734 554351746 255612912 482968809 317129619 714167006 650763123 456596042 572718715 263757360 140139963 469117902 792892128 871063288 408029238 163500503 102963678 514750702 292007981 241305478 63152585 540939627 427878021 693495167 510267614 490768740 18542883 57159317 810927546 922053153 78839485 740115446 392695790 699177007 103891536 480412815 472620062 973509343 973663071 899913596 98008588 474719085 149872017 221653198 5532661 546659315 379525210 701976043 571263908 133485357 121454903 976067007 375658894 780390672 25539976 114993219 210644915 64275009 688844181 774294795 530473038 452499820 864453532 250070455 246857820 487276834 136974649 512978876 359273393 972760362 189818499 524225195 857222954 367866725 26036121 258100562 60360176 68347782 765288696 885886530 907899659 45502771 105794643 581747978 843101467 37106155 878293654 772099811 184775110 109411756 793905274 560659146 886839040 514671886 651930817 896506530 662431665 428735809 886254866 301150681 772026207 272986709 400759945 861418815 712294666 471204712 52021939 734516991 603653963 44181569 712514347 402191528 800029929 285833930 701795019 940087476 671108260 335487334 604872702 113510943 428355696 536471747 400502676 941425666 498580536 3262857 416023278 958798252 97995265 593956267 136836182 824849757 275958018 169331750 623682969 347200811 792277003 725991590 490323562 772442161 904391261 514226517 389111741 587633128 494015630 107107923 223756414 999386458 54813982 461319347 291574135 989692283 333142062 704624695 668127962 838165821 18141419 627482536 822583789 361023180 583039583 33625722 500630572 104634726 716980838 313612054 758462493 972324669 714074360 818929298 305106740 517774713 398808974 585568696 603388868 678496499 736607742 704361531 307438268 161304258 446164705 535332719 253635244 77938192 938227668 988340674 359970120 96671108 18784299 209268501 193552123 270847189 576405054 742967883 236595953 22711989 109172121 298692754 804764236 237913575 616491310 439658024 71216671 632513771 668267304 960688960 815321615 963551189 957795938 301786050 116804392 891684446 130173775 851601941 624168288 982045143 77545751 564277705 651713481 777713731 816218891 198190149 651757614 213778368 538000184 497945445 48493221 531780070 512197642 931423330 797947532 360059746 963193229 310449504 811169062 286848073 471646349 374828730 380243912 916514623 771811802 722434044 344119049 798636807 341055345 519935931 481093643 965282704 798142743 225846224 706008921 450774632 883817178 108330085 122993770 223471436 657086569 254606251 763163532 704704204 226710121 274114443 424785170 964784414 414596304 941147514 494457158 669878409 150645831 51561010 867894125 345900923 558231999 933081662 535071678 482535435 359762 264779737 617382745 511614612 794642402 840391056 890614809 26581966 868432919 377093714 138699640 280025310 655340368 228277219 580883641 325494747 705242505 291031391 980204713 676848955 569011267 805107859 960605707 574840428 814477768 195296888 664998903 65754271 796547468 122162036 671479131 594533506 292197105 672003875 519475645 684161442 16352167 205994007 180419551 357958840 640745788 461425235 511750961 493403569 652944492 929839763 432124964 481656506 957765148 383331405 355087904 548749748 51675086 942004342 139809484 190838916 16443957 222551513 750532695 546435417 475195882 444294610 542739157 726011955 738275890 367595936 649863329 183213612 300758812 566135090 28559609 689127505 751049310 391212993 160256990 257893238 474211439 819934873 588617803 773189356 906152061 219393556 158307227 626400702 966702415 425386535 415451175 612403657 306577774 984998363 160635186 381354096 681712502 280294084 112853068 251874136 211522364 967932941 81217383 622013437 263437842 113469399 14752533 924315182 45459017 203680970 112122778 183070615 865866645 466550047 649496031 359915651 250447643 508824225 492931699 88793875 292805586 468859210 533972915 713134723 657203901 255415010 171399853 377042874 745811577 463114520 150380159 234742754 668099909 311049731 210216003 306843289 458492022 621963430 562222175 899999280 504670188 559718983 46138895 705452650 437854534 109150088 353784065 590621815 838738885 495246629 875941335 305214535 866249448 592483695 162905462 881138408 415713531 663459832 22373894 996481056 654968652 869276572 819800217 935494541 575382396 353329276 473465388 155010821 107423649 234498766 303168754 267506630 319096155 857680518 72476920 220863135 411056453 14856409 109852246 230634337 767740945 551726685 939158901 1716774 48232753 290235413 530020756 770339799 580333270 89805032 435720629 120304715 983147101 740881829 52844594 814799867 596356302 406198371 335653913 597797297 790861266 32469308 362765665 692657614 809143907 750266775 564337092 900422310 83781280 934476527 232989556 110689706 571990538 234610615 747602176 272021015 578559462 393546257 829422301 550371031 380100056 928522489 383424688 932956405 557720753 631167839 491909774 444511663 904645351 222735850 362008885 522171996 300333078 164602271 636217917 904511563 739392236 660395635 997700764 426226592 674621788 859999323 573171869 770636482 859303676 366204519 955085604 515486980 561405227 777591807 784670161 982185126 21585698 722365544 270286598 442474703 491892712 996128740 699528729 902949106 600606533 807855811 903717251 719259701 775633915 756701586 365816843 223495399 842867209 255914918 698992113 273679174 30845295 650944722 172170605 514130865 100236199 789799534 106191331 312269612 256058134 744032178 161492164 512439141 101907570 926692547 554378043 359283259 365859935 156698522 845490279 176719432 503627075 183688546 317243543 668734494 374025113 104006899 75127426 734416380 279112604 701457616 753018527 583925495 914457095 795013322 61488979 89995562 273572404 498342358 345387285 338778158 714331373 333208185 579506182 146540709 413283739 853617458 757693484 98265838 909981273 502131881 339857162 449596271 883229274 200917813 805639655 945163001 65163351 159634779 605152525 390995147 720266640 507513030 794922124 361392070 518526898 984677254 793491052 955382145 496323537 956681514 380221559 218711795 453076391 796907243 762066217 532541746 228883436 7616062 588628875 749968106 919567683 872731676 442609732 956386492 107716898 50626851 168332901 88660632 302343119 261074385 257415913 210902450 977996946 276749212 323257198 17966242 103346373 145065063 914852550 217285420 392406681 213138529 16277422 492814885 630018066 533682773 547271332 878684420 981580888 63793220 959622712 110645480 917403947 507282048 562033183 612069327 858576665 19224292 72063320 882790050 615242189 103621072 895941810 212002855 346580208 551099150 742482902 457260616 292142974 592885455 945002515 458143589 491098420 523782673 425925024 935327168 212344893 541943326 330462062 135027241 116599660 856355826 113673543 564579846 659678708 754544697 656547855 287899133 956895214 153591388 201658826 505934704 879950583 622786601 111437555 561324359 470167463 105509147 974174406 420150766 887303748 887263272 773378144 381511426 162953168 843589759 225476551 79979580 490613143 942392738 532472055 779132460 212275005 877139044 276930520 261248216 95831308 574078838 529966250 540551969 865697161 67071188 250066454 179950276 630191183 11982643 921881362 284838812 238124195 831140843 341755735 319853821 339889968 775965159 54166202 424776099 244153520 787068085 236544680 770676484 977331559 226352418 393167862 780426996 524886799 831394785 371684694 314445471 487395054 185590640 703813746 418745635 602771218 939616756 190011484 607078941 954827645 38664132 405554665 359950489 284870426 845321544 312122135 873395820 199844943 467118058 309282772 291730576 745357632 27421110 764766701 834676109 465691935 839717256 756521269 607777329 476727620 841826781 446874077 159938086 498563674 263951067 261437598 355297548 421359386 906714234 955158474 165034823 324641492 299179614 153943332 785989161 41469695 803847608 244970796 579118867 897951515 341597319 300085459 929936831 153017486 267387563 427100611 353431679 326705469 780884118 850459032 743728400 746724569 556473441 82149684 643088006 918475097 888785359 969859886 25383343 339481158 528149933 756364650 235806431 601799029 683337782 146785937 505033220 465366596 543561020 953522658 740366238 834751059 902223762 213381537 970224269 43203727 750960617 292898842 217510453 427204892 733251470 904930530 688316668 879755349 990080386 383324449 851453969 658996598 155742049 677170674 84743587 774605202 545573795 984114888 25840913 740442149 234730298 222970837 100540089 983838574 532474887 95066139 226694858 195730397 764598897 919903598 409711421 134791879 983121953 935980741 206937372 635154666 581921003 492122770 160018792 111062261 387059274 859808354 496218305 305039773 77902962 75243480 945696037 125369098 315997750 417266078 157385823 786222613 673193118 310754265 152212104 765331992 883760740 583908010 630313366 965395695 555147452 784280516 948995372 361778572 20232679 342214027 975466584 280961193 621536033 883086217 254968750 828958136 111856518 572659312 255038808 216926180 161182086 133597904 305090109 188587990 37512672 965117522 450473084 394632671 859446791 754954920 235380660 425754621 934396485 888139222 294148943 862921350 492221579 987949183 903896953 51566624 432268427 551979237 74273754 358403101 337571452 371218317 679046055 669693145 709605729 944900884 731811849 689679743 694226973 576405433 498578121 385735536 484927232 561713950 497738083 296459085 968100315 363512272 748175729 765831808 964023404 468921705 224558877 731816615 196325846 287963497 599700096 352649319 322446545 152602713 371862022 285035339 702237064 440143709 222571540 524386984 340003908 302959289 942659792 209408005 258185935 606151966 57430907 491975073 410650950 768978439 76287252 87118380 919349776 906568238 955363722 847922639 365227660 715738056 980691242 335747240 856489920 97044144 642296093 588295977 163896081 299629347 352210727 669377578 674891689 599794082 819100477 169108217 394323546 447804299 925312537 778172041 21638029 523756397 872662816 252761743 534306153 703875365 735447034 747215717 774549592 487790045 618876819 239218737 460796627 432015758 486214733 984241615 867951000 816722733 860945890 661195382 885045677 239885790 635482763 798157705 428506472 134377357 372544967 550584302 760318908 991734995 971157993 784032539 107371963 840219724 555858608 426095288 137168356 11980862 327294664 228395029 720370023 864078771 778452932 817484856 341433114 259881641 643356847 270022274 149992268 412798749 781206973 614476819 991694191 675217130 630522314 204660212 373962821 807514496 472265656 729758027 198824125 782857540 924871583 446667799 265427939 978671824 523772381 592114426 897083289 196454725 399790438 557669001 237793707 728337281 898013066 702119826 746486587 923231770 872157466 295659286 253144304 746810572 710006454 201183051 395968142 52835413 295710775 934128526 276259220 42275574 603159259 132272361 482858733 321024512 217341311 939606912 438400330 300750999 976755510 908874180 556659515 301218458 989672205 429162771 51933716 451079341 678290059 440425618 624916835 602545395 917144883 208877589 437621575 165399052 218179178 812954059 357395809 231282173 813364614 969025711 967727637 338014019 66469423 926238676 341241633 754811169 675840199 284960781 609328466 714834814 495540856 651867458 194554171 850535862 148884302 257969970 646763607 990545248 1378780 316132113 168454384 358773473 924468416 559187937 44916090 531174061 313603380 382146358 450812292 632350543 825803693 656693793 388337947 220737432 66092596 790838524 216543101 119555154 900715659 290654381 894886210 487131643 282468017 316136388 312702783 42501335 465827831 92921805 290781613 792904086 14541927 363569101 506392475 429574827 220448066 351625504 64446439 651883924 830739276 626591918 855153411 280666047 352452033 76919563 859858754 131723003 510621666 21523487 413590217 602370393 610600097 801034316 876634206 159134377 919087255 584752216 123221076 58239845 355685951 211456365 653643584 967763323 451765197 405409279 945881355 637946219 705204070 847500911 735320058 141533549 722042023 43712844 505623448 559710853 148499360 539102982 398773940 621621783 333798865 85551261 791846298 468254645 424455674 951028767 422693110 550774977 423173783 81705676 193907965 182992885 892821113 872445784 137276794 207987226 689379746 885314686 142921973 762644892 124258513 786268514 241995395 599145950 270106870 109762061 615390589 822238379 414214896 718542655 257590643 226497300 722105619 532594366 859969627 639259531 618848332 265885394 372186597 719041749 425826306 237559488 971954888 122407875 50510639 12085797 639303115 716678383 233200431 91389211 761935195 298579250 479752430 776455616 444886900 601084525 660679326 570781537 116051464 998877794 581709639 481484628 711470741 121324854 90115994 603089852 898157499 721513817 522849021 274882984 894202085 56715775 485311870 384877060 696463422 734453467 298105724 409070766 965342338 179101798 278035212 432941171 240818152 651892262 468145885 553877694 32163638 749188989 220595423 838069529 399022311 351803645 438875599 593020928 703837279 919594753 191303590 646379429 756630168 971617798 944082787 716835249 903231075 847324957 78621603 140979772 663674565 433297445 326985917 833736331 420818935 401447225 771110752 363646184 605798240 11840871 738677279 329378770 728427502 809680416 374758432 245496173 340912378 955868100 643725371 778584917 400561301 382519854 13600775 911344618 69166877 233295594 779136449 393522143 568518981 230094924 801889822 237216590 196599139 177833613 838810117 413901199 812526466 524622312 712364404 734017865 454168182 191981824 145552237 747220030 99226419 471785906 631449997 911316335 151187713 848243454 301819282 545820768 368807375 590511515 427438011 202360283 248117140 863757623 721254195 413710990 262049914 718119523 661683685 609379563 802142064 508920606 488002075 308806604 780673671 903657679 44396907 868119758 788420584 206997343 549509519 617202943 304162870 345199896 146337346 823658172 205057891 437999532 548688514 721767270 360941873 339786452 467938246 450146096 329616654 17392422 474412344 409312307 987536964 673317973 752396743 114014010 942892594 933658399 58890687 168273346 220681077 364980301 297044473 375408288 526373054 213985477 857046346 394838564 744144430 237927500 325042959 617923018 919473616 918296877 199115542 582729144 126088887 881957068 18261100 463160455 457110176 673207258 228415675 860372536 422967238 352375904 736145167 583579982 51011757 541014399 499069414 527234656 539665035 406029107 91218568 977147207 994345315 206769381 270876386 156140621 897609019 385481209 492793024 337960871 131270679 427482948 104381348 701998170 308437954 567805028 474259387 974470608 7982253 880079007 244204710 257567924 784895433 965315051 550006321 360148453 66079926 240502423 96933620 71092639 50886149 366021313 629581892 404423216 374258988 387023448 326296511 208557968 131000918 714467987 106230531 171908811 657698239 408981997 369866604 122127955 945385176 662731653 300866374 358866458 554415961 909162945 994044559 401725381 747349019 577535368 943837908 392355386 358865151 136453516 506738092 951504745 260755745 47576306 202284781 644776177 402055189 330365413 192280941 998073664 973891275 47427870 110216330 787041313 848995499 580993947 774113146 223233813 812475771 316899687 789955827 771548838 17748109 968101737 429452200 627386021 898229551 26130893 144570891 115905841 745767019 23927849 52764720 206428274 888353297 302040536 392881739 253169400 144141891 615196019 78716503 363866173 48204195 941133181 271071329 918293864 242814939 978087861 314545467 913136006 187363596 203378460 283127354 1986823 914629189 347245149 811278183 689524622 585908790 29349905 513724714 228818607 645947713 171102289 161614788 903462406 839455436 96970219 104571956 393746943 849897606 54967543 792511918 141216839 338962586 29395783 194485284 957734337 10552231 637788514 536100160 648673147 532064712 296545043 22331312 143939770 109719683 76425948 831102714 314421392 577776597 312991925 890949538 366461536 513366827 826684559 995221781 763222313 244722597 782764387 711109140 63516842 872127693 317879263 521117940 193630914 760154579 301581128 991349979 691681830 268447569 74819966 891223085 242569772 233075365 63198678 541015778 925361501 652711339 724273844 571815928 4112921 202537754 279899275 350959973 977655832 457676611 895319674 870306610 137092084 900295821 59731659 327678064 394071487 983722120 789130724 872274522 735329764 69013160 759330690 374424218 348847747 363077709 759663822 767399521 698481301 696515024 230964258 63397167 41646076 76997525 951123998 66101038 4512833 807525079 382964543 887869867 134714186 132182253 283890194 702960056 458973968 674032162 208865128 864886260 826800763 791350574 525928833 615141081 923114870 397762560 625991133 996303240 870200850 268156986 578455251 621171721 72334633 640357856 384300297 464441750 410955180 673188265 650650531 62470465 460040339 737075660 182592491 285277377 878862688 811014345 371766443 155126419 71851419 683663010 609753945 719885930 534081111 153020347 357826088 528933236 612816420 84099586 984047943 23684509 9055169 472896495 374037780 846787560 589613404 288383316 420173154 456101013 129886664 478311202 820521933 609155608 440252624 181622831 613189727 499889383 410694557 565412527 344591845 267882122 878552996 892411153 705409210 785190224 964389941 484298760 959502704 555185538 597183797 249473552 110200984 92914250 29360186 382854758 324199369 767538050 60333444 823671557 160719261 680417159 926735179 334162658 577562169 322663419 351739216 837735615 58928532 363161423 552434334 270100679 768512086 686345351 877146862 750672451 296063279 945116543 227214329 133552036 504509287 286730234 477819215 689707123 710010132 22191099 576188435 745167636 597079208 504066132 710705877 815608029 789002509 978008355 387808938 83867558 299380376 664380128 959444658 368538361 356107136 547675674 845890840 76907372 524348209 73330487 329092942 642913209 145020762 658768514 562637743 151854594 172936249 606721938 678273090 826871626 762840908 150322872 221317192 975065651 168731225 188006416 799536676 917836233 609219502 683940516 138028552 920307702 205442742 893535770 582893780 792641832 253096797 18250991 842550172 887604742 358401075 218736682 728043105 124334226 226278106 920377685 652847773 469613241 250689071 364635878 247071187 206965805 571173661 60302195 288578627 685689168 603126465 360046041 728234140 824503535 923250324 900480508 978681519 249870737 694245350 504736661 895212974 686349793 162250775 343567757 125247487 8886018 846341933 39461508 617011354 813368291 979229072 532484289 665716062 743156906 761545400 945702815 152575436 438279868 609453246 456104505 259991919 101930333 550033494 756869948 236024100 632424857 734323725 977390139 465912033 563071311 440185984 808282760 974221814 78877610 137002190 133064344 726672986 593577474 594397318 997477685 294063870 947818914 640793702 766398744 684709 643975883 418591459 586263837 583920114 259692918 825821549 371707020 940516913 867929746 247404770 741616393 682772968 561134416 545900329 645478931 234239862 602344017 833546314 368644083 500652925 276993696 851888418 308719729 424936630 763213181 436327595 503511160 807230321 99861850 504239624 106199578 352607013 63029585 651597444 881553087 212575893 55610392 765117730 266922715 513397864 78432368 325378715 865983183 590219170 702243345 284974075 156907429 12847480 144975854 233213945 431657113 689880554 527433915 476843158 299527268 343613520 786254904 437478105 711774506 535358538 361857003 863200914 879120373 849511044 186947484 54660104 410540274 175274797 23845355 386135641 942737882 753428904 510571046 843231843 340281943 625746596 234301034 142530883 272966806 162223943 570462851 462700925 218740469 32656746 834282385 146288106 798260725 507063029 54257431 542069813 418948685 231125489 590909514 624081915 45699910 684221842 917256965 376717190 713706354 76643564 695490887 619413678 658068850 322521292 460016351 359603547 120101124 12741631 489700646 691247592 78968796 183340118 60346921 249920015 647172662 859014269 94845275 513174694 478459226 877832604 254771522 461801652 260958288 318444835 565099127 939832432 81626593 234323394 163691585 816503350 978171513 24221383 948232598 191699613 392344566 880283607 473524378 996628925 572795748 199827569 848405765 430962371 769734241 64305084 890809561 259193832 201253623 369185645 733771844 938910947 825262323 310285177 929974900 645659260 662463524 515789994 215229876 494907182 617876029 97523433 747447413 289077124 978189893 244117558 645173530 482924751 223131380 104221502 366252602 51490779 179748556 461629396 868946028 261767660 101471192 705007522 721564707 677018526 508295228 334667357 451367570 381784528 635638874 602757846 829765224 261261969 945745014 31469419 482418571 163658843 998461462 879223194 32641720 49555676 698384781 192343790 841496671 63518328 207607624 724922722 711761523 28039712 798829718 702745720 687356299 447404605 835065508 514514676 717048864 738295086 977952802 303152545 37790127 580297799 326799745 102785941 136890607 507859214 693541046 697768367 387972074 896577165 645570757 362239321 845702511 677285583 879157443 278815264 608688305 907686531 372969 807781376 248887007 80886774 550065583 214922647 147354835 736619927 461537228 595159636 609264764 704325347 593642380 704030022 16872850 804367848 466032451 693670494 808154573 877825342 851612467 191615569 390714819 77745241 856387189 715219277 589387101 924930025 270617569 202510908 821019404 954290149 193821457 426293514 744536516 414405460 480557656 288040087 649203060 558023287 690239506 266932275 505107718 51482440 554966744 494723904 745666172 691583590 58653097 349615271 162349599 460086277 537936002 774041857 382809269 539420358 552044791 63417466 96608679 881328589 147239547 26039197 524845380 29432179 623167528 979575953 466069793 664960232 831301459 770796220 432312677 697304206 268837028 128039636 195112923 903406369 642739790 757038374 599082170 494905165 242587192 916784045 196351356 604476723 894576594 340909041 206923113 985842877 63861413 80456760 794424453 722815341 143153400 5591629 200059271 684093790 299686986 937321248 418128508 853711159 142349192 512398798 124275370 368584168 244551039 257049633 714352071 9167118 292225010 871379241 998751078 721736555 62519461 868814119 966356318 993115948 962653871 746091392 469046423 616624296 559741379 754028512 804570574 891077057 501176479 950189621 195108998 76181899 790106120 630948508 754774159 743234666 820153997 840201819 513094592 276526784 900370786 324189006 297309601 379890005 8989826 60237304 501676262 518644941 513664389 752264455 687644547 865230874 248948425 86628931 505496183 551215926 739842989 215605630 399540257 941919127 359735716 116498063 556582596 395420359 382540969 670805618 816281418 53167619 882058551 847685575 805151338 157294882 51835435 989380585 189907615 42909770 402178929 569382765 977547232 940049575 562012167 711835080 907944102 788437384 218598955 474979169 703014900 945541230 987427989 247468287 158093850 661790627 707735561 920516101 926591483 238461378 762507187 349650934 831350558 40209727 930140689 513233409 958040373 169111322 378932206 689045135 643963335 108020368 909900020 144001146 326311273 741989466 746614280 186967743 341879378 566391410 208037194 995864629 451774506 286968073 952149976 942272207 720810877 982981894 125439033 419344049 804143871 810579407 11128729 741823366 583781145 805558909 117913036 400705428 589138382 467783426 890484426 992807263 128438381 819322402 860565969 715145554 574786288 595512117 437342923 449995706 938522371 636864804 497188778 342189131 326601260 519549334 169121611 409095967 300032599 941947139 168405239 243762467 664646493 705211277 968487528 194424062 974028781 972287415 762708974 74611960 747243913 508359692 815227820 297455345 47774856 370707438 835377242 63170821 880694562 759755952 240014095 748170360 405879328 218160060 411506714 566149406 140745504 641231933 150406144 901126674 906443352 366826144 281372520 254793346 827489032 991586872 870200336 825618043 215688914 92939698 622745769 420840019 833291022 728325328 315666791 56496030 837033439 157292636 271302442 694158706 531492837 878701577 824193621 354033151 894898154 335793935 106694165 370357477 246273385 942897030 687977724 944742574 197703433 413517557 911545442 10787751 74625487 378076731 425650908 781010912 230879231 308186301 635114452 217727985 238329914 385639311 436710516 870567621 546892471 135567114 798154946 909235441 139684119 658455374 825951458 793599846 311375584 507738205 78940070 925302785 506144453 846717215 720485806 887795245 251589921 788505884 97374642 666966209 677773468 313507185 334769930 76942154 784798230 132849933 487909954 356180014 807373724 54295024 884799620 253570993 765142203 983700453 36368988 558348182 468615656 354682742 909190157 653972364 271447062 20169026 85246205 144367891 849500280 784964507 768969056 864524393 807035001 369634541 80618848 236099531 541763832 811090023 111505416 642689421 178231902 724306383 985054251 302121016 627746057 500758416 571793937 971397202 209870364 945984831 890526708 537048406 523008971 651389417 546338236 963034014 736193039 526845068 241884311 715020736 176325129 685602790 405943428 281096500 859888724 953280474 247730284 535652548 639544503 642187017 420273143 373735865 639542038 785641027 391598074 39007824 951614282 471775120 627233554 841788245 74489261 496471331 932554255 546818885 383580353 283629785 188397052 300245973 48400157 757411449 715694842 653242961 977523774 989731201 432934807 747748690 760984429 311040481 985102475 187496332 991959091 283411588 783946133 625266817 851524412 636421164 644803193 724514917 37218463 560670937 105900005 496058091 898882314 104456616 492935954 42026541 799807136 326941805 807963408 695857779 114243296 306008962 414414215 469716250 98643010 305186760 704949582 528897505 826731896 286792010 972876485 104827285 902382283 824727983 51480731 483531673 344135528 909904476 303041119 635647535 841454591 738357032 373904593 544104682 469935701 616323554 133415802 680252949 260611683 407703581 792614201 130299142 267531577 210250685 238130746 580315224 732090757 855248062 351292580 258008091 379192048 888565616 654775115 67313468 541177018 817273550 295069441 812371967 267062351 337385169 727875737 587934568 517545943 648329733 562857422 911849869 676211769 869790066 275446635 595974708 72305632 113131762 208256120 674461610 294089361 982728306 281084010 207617860 2625132 14543639 799620678 375758633 580963154 266640381 664342639 826985777 979689056 756047135 186375154 207553822 259731499 787383295 296265186 468224195 593983984 697690109 629047562 751266769 742627514 237594590 654871536 268031859 440291848 51724855 824712572 220154373 48706693 82455718 749173549 838803751 809875719 828823912 982335069 770925863 238204200 583260967 811456753 371597416 187088336 63788383 697430574 158978489 886750175 426651217 285174260 981370775 506426833 599097245 627855551 496407742 656228641 259515997 83951137 330312886 626956936 419660014 705636907 376695586 866380623 680841865 658818370 753651772 123734384 707070337 647435757 653898814 979648081 861986199 80567347 193160120 311201625 429821405 926915397 794301497 495346236 375464435 536394806 357660480 337062975 583834755 81434351 981217425 747288625 810310820 639926095 587091917 859947114 831004681 386874311 537043234 660755756 365409514 698178821 456854960 481166869 483195146 603684793 938789181 541142868 660181728 551873026 221113713 310338107 376548658 660866699 954043876 680692138 973376407 817429390 538126331 257465768 307505029 368249438 949121007 418850416 58628973 980230444 951967029 100375389 47839554 418252647 43508295 866932125 514428625 552713030 218435568 210064312 541717958 749401300 200911948 199552935 170072505 284551148 964829052 841242514 855128677 373738662 362275637 590536047 599884138 823498780 798346082 296192543 839816642 300376458 422142622 479305860 829127951 923398230 436980749 645605733 125499132 827792166 93021620 504885853 78360984 497819121 526716918 979258046 490447768 830610164 38445935 168687673 86744877 95994346 189458724 65520012 313062816 220922332 328448183 281064828 525890497 511085309 713962803 214492333 768260071 902692323 639331334 698330662 33222906 915365792 100526610 881083577 295906708 797204712 349232129 44120298 282356074 253592922 959003214 423538276 509643751 862959326 653440695 475047889 850438557 626258607 293474310 826644991 391489956 195954481 371792422 137738323 971831161 441842987 399342784 929916555 896299724 343014693 186365931 358982541 48328006 219303354 326288969 204638538 814069143 723243494 62340060 481056655 361979383 687106940 39622184 561964660 472250709 602694163 23886702 621698096 491876364 680158020 18304838 485740681 592932594 188868122 852799786 258737731 309322197 573105986 753142705 586858491 799252977 248304748 83676402 257071248 18406518 660714774 228561321 601007538 164398765 802796527 476768519 888630606 232389192 443054779 285815701 530846601 940519326 506195084 756804232 280451055 900246007 935232037 972004498 829167363 452604095 707902220 762321281 287553039 180983179 621056469 577991356 617050959 8615223 540906208 74968276 917598348 235454564 758169978 931971008 460694297 531259388 674404425 331942415 95473417 833900507 401256761 519405135 341488948 630435664 157111339 785988917 370519551 751977947 337665470 300050820 308000999 974578622 686946963 892970968 91905212 344604028 521821339 702809760 834650868 323393546 331737601 287179293 691124641 125754216 403985270 979659359 550107679 571522276 539465541 161504278 696748298 701884537 489074753 188011780 308686860 641222397 324409218 946455384 144221425 590903891 485505867 146936588 407740481 892135784 78730710 202471009 850488949 231874103 425127811 860967636 973443008 729697322 433437435 916622550 860623027 465453087 297644729 664603907 302252105 814859588 932516185 154630326 403043682 686862424 162828533 826226970 594557628 910329088 202778999 587057715 475248733 319674605 270631087 857727221 122394353 733316703 468900766 399652711 472819611 85365521 662465062 818120841 798316714 205081277 936992152 681482469 240676973 106944833 246876738 241296697 583373144 667802951 402889765 153135783 494895042 561645866 631752714 93861208 756220911 473230479 799776875 6868623 664677933 226834886 910313477 511254639 930438069 494756224 976086220 622100146 986542288 354357186 38368049 755748918 660645802 175797439 872666267 766047137 140608204 39121158 141635015 496069654 67586805 525654620 407422163 984437045 512870695 776002239 958351295 460017459 716288335 695039409 165421167 55527010 277986534 127367637 561495670 816061900 52504862 215699731 542422084 155636047 868651086 379798642 895069416 424581800 192745046 470825522 100891568 543328244 299673562 888748535 531887018 714322577 15948869 808335106 857591924 746225544 855439785 91016059 76586860 863562237 51296673 466804402 307240530 385955529 446163458 769435072 535436999 126954306 682481002 615605333 827023780 356207559 622071184 756397853 669045445 532573203 851034465 531753086 646965365 953308389 239527072 513041436 415528968 84085330 434905750 594882879 379506906 685861835 852767296 883531981 251019146 387865548 237477917 519814398 499070230 910689228 166277399 653419536 475889882 759604365 53504768 547070733 217819909 930022232 627419369 594036454 131300147 702862827 532760980 189771389 634601322 506598016 243447955 560305025 242056235 529489914 867275886 124218535 321018112 881981509 401777106 465467833 548551601 486714692 71661466 192320073 303857012 178454069 808521055 100871906 131420577 210325833 350600206 920357653 987654961 342213319 248080713 931693368 635948531 762743570 681008821 753316496 841631436 604371489 262223283 196244863 335132246 50339981 546672287 129441761 585596779 595229630 72487069 939523485 379336417 458257874 786693408 281776968 77351395 435363935 799171931 501693871 884691157 186902151 101666852 612664677 814629405 12305156 997122561 118981642 658728005 139820016 59998680 4627160 575828670 547249259 567151294 177175196 722167765 499508897 427272353 680616492 156712421 69582531 868287124 775916252 628694887 573150631 247187671 539852751 22576758 894842100 617383590 260025437 589126752 923724359 632571713 43864967 515697871 879331182 489226147 811016375 582047358 114363560 621118611 381806296 782109832 395193480 567029470 235172458 106731601 149510171 596354723 805366327 60522244 494091136 306843229 617568739 373137511 293671927 6829740 977850078 631807446 442783600 363955126 855488267 837101993 936123134 140847800 584056747 770416956 473855932 208794309 478825543 181900389 142539978 476853592 750617296 876819158 372116646 802300064 190464395 239108724 900532052 506616545 219043352 742242867 936104733 82549535 584691593 701718059 123650512 324043288 473138058 689458296 688237825 923185705 595889070 242092477 90941761 357806411 959148863 239861746 499120993 409355948 383875267 295135296 377753436 891946102 509634421 632331190 410522347 631724070 602736748 55960907 266045974 925933757 682304600 378583344 720581224 996237941 991874202 412295346 29927329 508422547 362439398 309644983 918537849 552302152 82698346 655551246 10380775 854621069 957432777 968098816 351167977 670244763 763166363 92500231 742215009 732845753 177107070 158478251 351316456 82324874 215878306 222782521 786860895 427156588 662607089 476796228 290117217 425858943 566447313 27260973 2504489 407067877 846205961 241515012 333964672 445991560 68573993 607121937 87528209 583331653 44380902 798331171 251863850 912971251 292076098 346158318 181327487 109944603 352684097 491124592 360606326 852127199 924165101 913972101 204776941 855915513 789524739 566222976 453960819 453772906 775665476 144442839 39590657 397781248 617834281 207865773 9203230 929789356 383894682 294982614 191054857 909024851 283898260 722148026 741387760 557326653 414295433 44403951 874612266 298690611 429241689 402720930 799154852 985181107 822243208 252742825 958004220 89906992 476172742 166330778 19087536 266739478 917876804 774275682 572815825 951062082 753100534 293718202 998340445 260170388 614034755 28008450 382273596 155259164 461216693 214537491 30616153 771310070 142790937 791283178 741985140 929209804 745745859 986185261 808478480 401560854 170075786 170520369 30114662 868074847 194133831 200900047 676181968 27177215 276201233 563672324 961876619 88183079 694285829 263242510 745565574 541557298 926648470 393866869 806604652 972213972 654489634 172306306 346332124 547028106 606552294 96986526 772978577 802452659 686367319 574967058 741543813 355263682 342973399 460812418 721004643 457778393 839346104 8540195 651392547 663442192 133706446 796478370 313909024 403590132 128784539 770940069 510608113 698890639 241643008 878682754 59951363 996068315 293215009 895118842 516964999 925997582 218397093 823519182 757851545 414308356 182912098 502272753 590138567 484317858 630960197 766619900 825862619 455887972 483704511 916690315 142821452 424429389 231618737 342702564 90912922 10507905 338577665 899049929 469739582 444750350 445741612 617550150 889014870 924204204 938000846 733768019 393288938 583216692 163336889 559574354 269811498 113933873 280384893 754747186 45064992 697127046 639598227 257298585 712267223 967129573 358241026 916784166 239667370 787786316 331708919 441312176 307979585 435483968 317198555 279303306 834464005 427949367 762744852 668582590 749831333 475207802 997123890 867189388 841594316 418044385 474074843 636543152 804196724 872745949 503748263 63141748 386235480 799292401 80195545 33775234 482412782 889305855 892431529 955608890 212535402 611622887 774609192 763149044 23422382 70136136 627634116 778907813 958454926 629918795 148936576 468483858 854475743 64080796 384177964 678662951 942812546 257010485 89296236 225108954 290076241 730932123 612761950 458563503 264824551 750976388 107043869 221793773 76152393 881844644 950722917 719643814 357928981 495454031 775974089 177033520 202135737 883292758 188570064 386314090 606746786 311920429 561178255 237372793 757846147 247674257 416624951 890177783 867620232 961180435 204905460 129679163 235130436 598300966 847482098 66012923 247267668 31928270 494237821 989275037 931535482 752046550 770152864 333668786 12385558 127044205 303877506 360981249 279206714 498990214 258960188 76840838 411416546 937605404 561318691 424244259 16533184 281925289 128572867 358726186 784587434 897456749 960632513 958096217 421287289 200183653 461749172 62286405 546873808 555549991 980933305 609551981 206937200 280801098 903949583 419870775 635532206 152072579 918237299 176337358 428750940 746618998 591955733 678059645 472020554 576072121 157354683 311052950 607393445 61324147 878103179 269375913 866700721 954681585 19976511 803200269 435986654 231152742 724052965 881346480 309209832 642174175 909389306 759110977 130234786 748342553 494957919 728295154 348626858 504201947 866811184 201035627 23518925 579289444 807019447 925505442 402588958 278387388 166217217 147040638 759231689 596772986 482730656 815075804 704510991 805066341 419239706 498418580 836073344 538480951 227469146 816080180 646875681 40679387 463641137 164793341 387482207 474510467 578290141 59577132 235221619 920790212 777402125 264531937 805784868 558051073 7998118 460438903 279805406 215148120 799895422 547110572 462184102 820962276 503122663 589176037 734185098 938346295 192652233 373435399 173469296 753141042 602093011 62313374 292254193 976200637 388924122 890503300 7852419 98959746 356249254 293413201 371246601 239318304 792967850 54725353 146702877 267507771 62731926 438927225 40959402 503286187 450851285 43017899 177376277 195427116 666492614 700547590 817951031 352385705 799737156 385064857 606409314 928303130 648240886 873000112 929213547 107818824 80935187 589813295 141068431 1170553 223498632 901430472 795774004 197301632 193725726 53354950 818334343 920539607 691724874 176528721 428822365 136744716 57592355 443861189 195293840 151187597 285402237 323444265 297354726 352126562 392575965 771302006 597774680 644683012 349474513 139952562 16515292 239720273 832281885 80576731 303759509 519181270 994473277 544520374 260470676 679765641 464116883 310194819 307925568 276446314 612635497 815104564 984807971 943074790 264527678 652669335 895965775 761347099 416326542 322321692 278408088 203139414 381470059 915096033 31259933 720193229 713420054 165686604 644718405 582140519 583398630 175197341 697975046 359350745 479187494 242505132 85417439 659680434 621837315 801670865 356110754 35869031 508676641 288528882 153816434 828118771 240652033 424255379 917496472 65769407 688874658 595177690 711111762 937678920 393634641 979836394 766594222 201718466 678897086 6231132 677012396 524107732 985472069 877278032 696272022 876663090 101985627 954869067 514309504 459304103 704686085 624459213 130615629 860000550 36431070 332563824 572797509 620851530 362259160 197359818 922341760 775975534 254530011 404611940 131357506 202904483 879879173 512481707 702575967 15511633 616344783 476311952 485917658 101265971 114360351 442561850 399973649 388557255 98656368 947736720 565225826 656581252 138995067 602585040 11498929 932268347 857059976 210455159 158225379 674899362 247556735 876803246 564833982 515678485 157637683 814798090 93058674 881363360 559640117 785027150 397674376 108134635 474184333 991877589 608573838 823638263 789095380 608419069 947577687 753664763 932918731 459352952 355252193 258925974 120766951 705147872 716949664 535558641 294950927 62398853 313635616 887881821 939731792 472832289 163584824 863586611 421699770 596157662 847460831 718175183 791585452 695848570 518430938 545753619 299054940 531920660 861770371 957960385 539990874 853201954 952553402 598298198 635061 763259937 750430648 499217494 37063284 83346635 610285177 126463788 360354932 906448584 207157386 987307719 334217399 351620235 976180988 904716751 592038386 989676640 65064758 691328024 328710144 933939999 497152246 934045807 214348621 790018703 530497003 15745590 48151041 591578325 779269717 910934225 807082590 790391014 289430989 128017205 884722729 491932597 943144298 307977076 809418901 848075548 58175224 247890064 722635706 442983988 894364723 239850679 369870688 841572611 669922250 165896704 78781270 690956110 418894238 485068082 361466137 774278058 907925152 963166686 499889631 841441717 567934396 368920433 87807252 793158579 614396984 404159788 232266630 409041723 441698859 389597100 925253103 606317329 423279958 646622732 700649964 674849017 685083882 827471238 224636088 895164235 410225525 30567873 225120469 640514248 540372973 824288283 998051079 149743082 451865713 783908455 113274974 666407790 977479501 117282277 663617565 48197635 271413459 551909547 889532643 262885797 498898438 335824278 233017002 983805225 419603392 689561498 10319635 469255336 51958905 699162346 833386984 740098691 460495451 279639882 936461350 892672827 769640402 638206709 112263486 450277197 892003954 89831787 597197434 437485660 389505331 938457735 926046030 763722627 152728350 889386316 356398202 875229275 693479737 869889448 523220510 494059598 812872216 629286620 643654851 922250812 267122056 138071546 801001787 832550400 7810383 688460425 109419691 342434977 101726367 962573722 591464762 246208229 722706278 996017818 41700231 439701610 312671159 395891276 862363712 196347343 920389198 673622596 685938832 223707608 109236043 665332935 291042070 359316126 123776056 764652522 213914414 531680974 643424507 80775096 954318078 395263476 643078843 325662708 591876428 60148548 537014856 521050604 203518182 140334448 603036914 239020933 789498576 7101192 584799262 848851106 817088395 918136681 439507647 765849368 670960817 507838992 466073671 857479683 255544443 274909146 625540005 691386590 628078916 473028523 181635671 63465718 358659653 10748313 481674122 586667706 919328231 412968885 641382919 892008837 792634574 9953296 347059622 634250417 317824173 450035193 445357851 102681697 110050877 310130710 390080667 277360933 498054905 618825611 310600694 808102083 220112945 669404663 669808714 643844082 383526804 803986316 95400034 965996727 534161746 614942280 750629313 571364633 300201424 947857188 467385197 958980949 310163795 715130422 950879131 105102160 550082497 231788883 761550490 697125184 338616816 725690415 437822036 73400344 314367615 133712202 454594921 40152704 450358474 938308124 986861005 447627351 68372663 284883621 405201757 596867717 883136696 406398512 53122439 211709233 670934556 440390376 967806398 761081057 122189936 830024663 62763120 802911565 548505686 212769699 482848913 844429911 390729567 312760962 305363191 149926975 216362029 493982423 970140947 103769368 987333824 178830453 909344753 466303690 921322502 855167647 4709067 556456842 447729686 676261976 147186847 149802889 126436300 714161796 779731705 724521967 624218730 59156847 939585160 667439743 837987443 188005873 293007442 942757789 60918126 349126918 833504075 471790306 20366353 445766390 602816936 809086777 626764440 758348693 452068592 842089460 264016690 316797232 316592752 356332064 301828573 83661072 943938133 474418266 877357190 543376623 645580389 847072378 627816048 92202876 300931568 989822269 748534585 450949975 682437750 984485534 139536067 873899578 743629112 977498991 510305216 446130313 714327885 372096203 812574233 917191607 89768020 466346914 605802474 113276189 27055240 475331690 693769802 392441954 195279938 307988261 716095571 497671408 614182572 21247135 712211202 867439644 354881595 236590865 3363899 826293009 653426393 42826644 276536617 766381540 785108054 362720943 126359869 47236086 769022442 813089556 75114493 586802350 41760993 589979545 576629264 689653801 811327177 517794758 841853199 358285767 16800772 924553815 287233128 999512806 833818594 438631518 281055090 116617937 457680806 838468517 83272816 943703460 303419263 478296929 312907029 850302326 382619823 230588422 857434547 889306347 938143940 569578116 446364942 580484792 370602558 313163321 910973644 8789405 506222307 709935968 681383912 970678021 621514425 195138004 560406849 577696599 59059320 443199520 697269336 983592500 630132763 658365924 529813022 56342954 295203550 116915320 111382557 268826799 660041351 31138306 893004001 572471954 554030872 652814382 657635346 903171830 970822694 791746970 261434450 882950783 699208412 748957389 513496189 952989076 837018088 620992510 754628784 306163512 525962527 434441799 236652120 776453219 495733455 170789605 760136572 301572899 826707207 538545476 375600581 416408361 382402089 130106182 343214650 133273643 263394821 223632176 737588307 834989937 844592759 59134051 452184646 388746189 631702716 916883867 999369704 698007438 323322778 58683081 496632710 588779373 157933987 707541471 59449608 746345812 335243972 117748371 560762524 90749985 372539611 417352047 406446430 650851413 859000723 733198152 637686933 440937162 497436851 502129757 987900180 350620914 204459494 83528426 337360624 244368576 303383217 306697636 382068673 733569712 26847239 122389283 455116336 350787068 467151960 381425671 991702521 405300337 756993844 743732644 482283457 7917627 396881989 770206220 595456481 926157991 981198609 666063233 39292258 64605515 884605791 747337382 531754531 216343568 528360384 371864440 324023910 773491481 396784824 810347239 90052215 860826793 707582649 628886625 871435299 359223159 943675427 685013455 474839575 94305550 186307333 453672552 374537970 211379475 722467674 925891479 787403044 297092275 632173335 322487070 552326772 579177829 676239225 817733868 885942387 385925827 606735012 146016890 917933153 503198252 700261037 496137081 177530759 681891389 964376543 449029556 421985657 74434262 735169524 561157345 806535770 924885710 906628224 68804077 55410688 461823125 54975540 104754122 651293075 207667035 896920631 519630514 490303484 163298106 181979941 957736131 747861562 272774221 6197249 264955880 122065310 148395254 116885718 964204491 957330078 61653990 96850158 166489957 813554025 516852454 114811439 69863318 780415665 379615855 695001073 46204092 326098419 670858955 25499380 882573958 903441306 324579958 14654332 122687138 131409284 818918798 915652103 309031943 346658312 854857938 494477299 998840023 570890492 14029257 205295123 120529192 48497433 41649616 197588672 630267116 232710778 113989852 668485755 898710318 739906626 942697430 503693643 681085077 555836530 63655095 188906890 40274136 862048256 182268059 720258780 392819058 49351091 648567209 742135931 917317672 935433237 93783108 462931931 897735241 149101003 167012357 2997441 290613989 473904631 228998485 45018516 42824160 79520655 767888170 861505267 277951490 741784468 494486978 567011217 630130547 988842779 145494427 224977485 543320064 779025384 305530090 998249390 320498399 547637980 332030252 314261856 297376081 791775750 403226426 369482390 461213129 12425932 996951918 723290241 449426783 415168699 204727574 761771154 89462819 671855738 960411979 174883128 878053399 778033691 904740921 748633315 15273899 390826459 530872089 480632983 755625001 584035215 258741722 720327003 631488187 129672494 568112453 771614151 737131991 325628026 814778047 106851554 760423913 256237437 24345538 287088671 847232533 864623749 561374819 530813844 331660259 376731752 79004835 511629209 852244839 926242535 183948026 679819730 903700371 758348408 110748979 457922161 705656097 79416172 763689991 411643010 671244689 762075021 358120829 208553730 825046897 135363834 629942348 428333894 701885499 669330099 125846900 384161532 418011444 802453427 964640521 565567477 718483574 520491384 331734588 549158576 571552040 215284025 810850897 824583441 802023373 311620062 195864998 693480268 665865940 956320065 238323377 705148380 927848326 682832844 690416756 209817873 236244947 985660100 845902292 197691934 880959965 103366231 155960495 101885984 754488972 669918037 569331055 947359539 423483082 639403158 634722754 475804975 536967123 67112534 872737522 1524372 111142179 224118213 488553063 225903729 865182747 601613115 872640704 357751629 313876009 280972093 27821114 545658480 87587624 470839342 656497671 955450971 473376920 392085046 139144757 854999638 681009853 438850622 86220776 109767528 381704806 83161982 948045318 434903176 946312236 889131689 20805822 268339500 966458713 60023422 387305180 804029449 946647272 451877794 803647416 954617896 553352222 48842834 775531996 906191625 178321437 66342100 998700894 569000654 951952355 696010333 13856124 112845838 492472673 845285915 487632635 267026725 709406547 539042144 246144706 429180134 584049226 526089699 455128179 404428964 457462669 621501882 886526186 676605281 933707969 806486802 128638969 507223246 288291013 571199599 440460207 548094113 289706335 391641256 738558295 224950829 381371997 554276165 109297474 528244590 884832454 831704062 527313560 510806026 946098117 219223473 88030561 137380033 907304324 390470567 812631064 653492387 514273976 705633139 783789299 910386564 902943793 389233248 835371719 461209451 932568333 735233786 184490955 904314228 280633908 130809029 8630777 74678136 933260112 700349316 504290913 742721321 154663458 248157977 934574474 815762875 17912154 170385071 396407319 565600001 101411177 237585521 472461266 886040537 942643972 414899312 589438751 974828107 691158793 387212981 304892541 825679402 484634698 975701912 427310769 522852098 189624903 417338560 833310965 252860750 573969028 300962930 50445186 471608346 1641185 252214203 232262090 621147648 29295519 89863 810190180 246786884 65430741 767526473 197206551 756699794 708876207 582633883 182179472 884874457 974191926 717957913 736251795 9351241 702103314 612402621 261099240 142436907 904841786 592928922 93148170 984255175 337076020 836313834 470332419 969053055 766230009 88450773 764823592 68215658 465521677 350161245 451119342 672271865 205825423 969204205 490362953 377611295 118308126 847103708 990230559 41241715 698912427 902082181 856675238 291775952 499176618 603695818 503640624 778860793 340764367 891086869 212701160 78767248 161806424 763535227 512266843 782040051 692322550 861643765 409506474 427101652 633862850 460129790 439451884 484233829 47488533 425076569 172245226 131007560 293523558 932871106 841504838 758338371 88856598 345503601 624276628 504517295 215056545 870846095 994380645 45780443 755254934 408092894 533589017 963813544 778805721 555547463 790581646 130224068 267293638 988911025 602544543 295043210 59543657 44491201 248630167 340372858 861278169 216806385 470589095 887242349 225145293 497304558 466903798 444813501 804477633 429640405 565823238 762380423 335565317 416670101 755437326 772520763 447049682 597648133 449991649 867496222 912517690 745784044 675343261 830930214 66593223 935729057 522985305 967782707 549403503 402571326 23179915 335540060 760772823 527193369 655979458 94325603 205687057 60200207 275968261 427428608 704170058 592782842 297957787 206057730 669424981 514891536 839121351 885701712 620064929 988830836 244371935 56551340 106754814 434116098 561899098 891747757 807538660 255145652 954619883 725018279 707243298 679840401 555304990 980364381 823160440 653444003 789068767 564102766 166945091 772211658 840473009 52999499 508490996 835344076 537101225 280886463 706149107 931140440 3343579 781821337 400558485 129263732 609249565 478622173 848568185 807549117 145831405 449880568 338516383 960587748 103340100 773545824 208112425 663801925 912051336 590587628 161663951 876675960 19407330 113649328 611690321 89404653 460297604 325301894 238033623 186591773 445957039 618979986 256831674 296239210 224920692 508307097 874382328 87876229 710506487 584147106 791269651 780210661 284310883 393518246 896892273 660171095 688240874 954794003 547012587 873868910 403973753 582637266 834791453 848735189 936876797 323023871 155784474 774011135 694117182 846855926 743409752 639999229 250220241 701527501 254191345 981141417 992000637 767732983 137281258 846581668 394945524 708753090 983683098 845771802 766701992 39890212 440220183 849319957 928840234 649841040 499257055 428685697 809332664 593225742 330606633 691792731 133086321 636286294 289580375 510011545 452191651 130539387 921285136 41865890 72282308 918144332 175374227 865794415 407201736 129695490 672431869 247267195 431776362 759823222 346621431 152133545 222584473 38994231 860450724 72405893 416663763 325994378 423148350 743874992 919498350 606556868 39257617 571534508 4454431 291015524 656649828 885531117 572188714 672616416 692176479 497144419 63872792 546918969 708142515 927112864 951961835 19012670 394617731 342701936 526676685 822476475 648888763 858463039 961420263 205475586 756456548 926742746 562858898 819865191 536938046 629338008 976411297 198110039 53656366 848675863 568963017 83283254 561879628 251980524 331049530 286411194 715964662 758232005 634331196 49072655 830508374 750392212 19017617 271586574 835325713 87904073 280260701 392079714 207728952 713856005 653735578 531898245 639149517 831158520 990684 723691848 730216525 891800815 39016794 586277397 83618222 882854309 51145053 890920162 841361864 21744946 630213677 516766181 453522091 110911798 910597139 694140603 141089946 545190600 461129047 945724695 697293948 715260567 220116597 244123431 536669786 135163649 656855991 331769975 458614298 801106546 372819770 812207979 186425951 452364845 884305917 829308385 201742008 813466543 401355534 118059966 322296468 271192481 680979372 614193618 383775446 961814628 347756123 139155964 45058696 238221295 275382906 300521501 632007016 491183781 764607013 707479719 689785638 951298198 20529588 549045388 563639903 221629912 441610110 287030048 195359134 275759247 422097691 109466784 589151103 652872042 134332827 4093159 379682731 915827311 35461501 840258300 167033104 87358218 110108060 745247721 763521613 210327860 506664963 97353410 239478285 96245207 957300925 901704850 349798865 162273636 389613417 491794371 180503320 463974737 360099953 814609445 179722134 889343575 38370559 269548324 646106987 802747811 181746749 427191926 543555406 887202264 678686820 708253567 412987956 467540839 773266323 261982807 103880215 873708696 983656814 903695211 978985847 191297649 242480975 599711659 959304448 459968593 693257211 779828792 635415851 659470111 147378640 154134383 888591142 738984983 304241660 485564358 348525252 277458715 773698684 225691247 325828129 178616918 117181875 774856850 317347823 610386599 809245691 824947809 413542781 454995017 396214403 486848996 367922563 693972756 964819365 210269004 928255558 177064620 435985772 757868423 972145633 991048829 301262651 557865167 201539500 967988994 738416959 101779093 555873195 335776678 484742060 880848066 91891995 489656461 905854064 646427144 913225889 116082670 762576466 298734973 587842962 707467466 836048295 16506317 826640586 43650247 971122520 95361747 9846312 721769161 675294965 611805372 855268134 317739147 649203060 791807438 574175768 557833384 756671437 234250775 709186740 350065599 958896590 930420731 574051988 790317718 709750739 368386211 423873521 147850678 362116827 939458156 170587973 754450120 130713603 829236565 286998612 167764474 232363425 700677310 714943393 480862761 466884331 231191158 760002608 388906496 617135827 258688427 911377682 235279701 96183802 118071838 825160878 212962201 45224710 196253146 146386452 795508715 249354338 391913718 886709980 943639803 777316589 361278376 670314752 944955036 251253483 761152051 292238374 125152211 664506913 885931405 505505832 240570608 449042176 364263462 894377256 667712234 609004795 262836672 477186582 351852483 487189548 861326168 854210814 378263292 244026670 73851143 236077297 384744348 394060468 181123780 179067513 20334126 710272941 802702232 358451907 908540172 783225673 957137898 8181811 806285585 845983897 738817728 619605042 448358054 519894794 265882816 181534500 379278308 98958424 163533211 441269724 936541503 798999248 246142688 551189095 52916410 880764125 223058971 108639987 174292921 585892533 30071540 838361104 95961286 753915499 617284506 136661054 566262096 532143109 247537467 240298700 599845599 191717734 153424681 672753913 784494162 260175636 575933011 155271106 276737780 357838635 4731886 618181406 343237287 426713173 678795705 684965793 755751961 821860778 129762830 582066686 68420917 981810942 29560965 482473490 24695900 987213441 726972163 35547293 898323375 737115300 660337559 927314438 444641747 546935737 967944334 610745933 667812160 309660053 48711047 212395606 622039827 106765128 531510579 750232922 843949725 499890193 830053865 489469096 674892426 992214382 376494545 313856531 519943069 777237692 226015351 693071655 850806243 680326792 170914927 623875837 295776393 793048687 345329723 319197027 699184384 577386314 630451818 371763464 367631078 195975810 677954965 176150724 278455248 209529526 208444068 780593126 279529835 661323090 673423545 658228408 888261022 513189155 701767225 557914049 721812440 232113073 140172491 553949822 225465533 587224487 701360477 917034630 385726393 672475378 222065174 978311744 280490258 711245446 154942180 692412525 330442588 947597672 520782499 231368313 376948768 202454006 948588574 874568587 530980304 686081015 638297450 505735141 241111364 640762575 184757813 833500025 237808679 273227469 460884638 977608934 711024120 853863997 738739185 301876484 422321737 106828110 262148461 170822961 862820372 914491257 750342857 100432101 441382039 193366012 713034220 268704278 82829617 289481983 93695960 927127259 621200027 480859214 382808745 811994786 594880279 83425172 720621936 960075154 939554016 762570490 145629350 163336669 990468241 262057251 816742810 199735955 983731277 205255152 673867367 831086410 65161937 771447085 648464157 808896739 468720751 22837508 2212299 793975640 635926341 789891122 179610799 597714299 66204352 626606450 936986016 305940313 879600782 486641863 643332155 564857541 103212556 896400887 208934961 97363887 578507096 448358016 929686635 165146516 34398922 682550516 8433142 119367868 724045551 448258280 139954602 80820762 155652354 557633080 547686676 174359684 923360284 804960534 793643473 504305894 138535630 111706669 928285681 793473884 706480532 556562915 58649253 849184772 192308277 760070890 401847045 804551088 321514353 340061821 660568540 601506680 838899654 905804234 860182869 51194934 48937045 807688612 219358569 263335890 965473860 913205923 305276071 184806677 780855090 102209385 122415703 614038245 728192549 508248918 85275828 719515143 502011587 787486127 729911420 724512289 841367141 527797599 216150026 512669320 947462356 368943430 384821089 505857698 639249704 935696391 512557168 255754872 81155912 428154473 710160191 622089715 103240675 259093200 779543047 864263284 880888753 901572096 498229527 696308865 853938741 527609153 238381438 122106338 138758515 342199071 852399493 973639405 814903748 35987364 740953050 404691245 978191717 57109640 842762141 946830736 298865389 32201177 469019270 270815201 708781851 597450193 816918291 998272268 656257060 890044988 736818703 973433643 655457350 155232101 752021151 786453581 887847536 663040857 604662609 397452989 169013351 25877489 981610040 40983751 578471468 187487022 141989852 264150580 600117686 261747719 359498497 986633393 921884873 189627233 328562466 183638195 3524376 45236905 852283667 772149957 497075100 782360902 141409733 545956342 931429340 442234659 166282019 689645627 46885253 503294176 142540995 180527412 702434525 756531553 891681160 287205841 846651812 299473632 963151972 400221515 2600642 349274424 466585254 626211160 674877733 283285433 495839595 408758127 830191186 640732156 463620356 858951245 761890869 493722828 393468521 240079297 921613215 839503336 127126383 279520616 763214092 23790191 506557986 761707931 381876760 925847797 713110649 229637722 750264614 316821655 78782129 633664641 633597680 239732431 915004868 628920637 946422810 757348952 170000137 249106357 705929245 853096048 503800756 100031962 299742194 340097857 1187403 633994818 12072992 648047910 456059126 940004624 964895758 935029293 719556430 653640800 94309833 955307059 860988244 691786147 820368343 894568459 562053913 690697027 507025075 634779513 46316304 450632152 376657608 766274222 519027343 248996226 260266485 993428657 326029910 753707932 848642208 239666547 601733128 686987292 135343447 461478524 657959 771355118 957323918 620307144 861643534 742503371 980690301 972474464 988168824 928180794 857708384 208355566 49922641 285170912 470792529 438559037 729076935 43971886 428451570 587372612 662249454 956856849 392810838 448025181 440213002 551982285 962606525 397830747 748893598 482247132 860176346 317660157 741940260 26154379 664757148 357546770 968368712 394604025 822158338 737315627 929653027 570354188 685312931 937373885 429688236 218749687 331654630 767327699 397786967 211922266 358273228 962380389 269564698 397876939 213018184 390755383 467015980 651016025 511273181 479044788 163512773 274289797 86263001 298907584 525840303 711936967 744538741 916929319 331275333 510292553 211389842 859609064 530955751 886354104 229781670 532450012 719679154 651071675 865025757 400975036 519086294 744909092 322608167 224487995 145271665 496319453 785297901 314164586 350547364 592836550 547133377 307434827 747707699 444730725 793966875 813181289 67543043 521124407 726739019 413974876 420991734 484319554 56685367 247300000 227351435 29396958 589238457 9858684 294029339 14582224 677687286 228122052 902818075 772077490 779605346 566598423 544906814 807632274 278389870 759853756 401129136 259338561 929694577 66509994 187432195 949594165 751494663 451459737 345393601 968812463 433780216 633706886 965353219 857215989 625974191 533782203 593562221 448338965 674531272 395431323 403553640 287317317 750855265 954042027 891545761 51464090 862336791 206909066 340542530 487429220 623566137 248086480 656731616 698717278 728979791 925420493 118409144 33612797 568735736 868161616 418684646 767910471 773898658 528639610 183905356 505619275 13263041 318992391 156544994 843029815 298977643 927659827 225925907 162788658 575747437 200282342 311077764 979306319 617410441 945211998 220812515 69418383 664678819 191006690 53439951 785259201 960451640 934905710 935907970 967914349 989954281 421893177 58694572 143332353 28596954 577844232 643231287 844600629 747077942 282625284 579618233 565605298 631720047 307184823 745786236 65462531 338892791 823694579 814778539 36937859 608576544 994842489 850665545 404206422 209743906 567142400 919921067 474912743 259640729 670335593 180490335 767901211 481094918 765579922 738865896 628587123 229705151 434609878 479663665 132309458 448265323 587985210 796462976 142737421 966957775 142386477 645719297 671949122 364409210 713216623 193692070 188694522 562939550 750009652 126128427 808652335 446378258 198795186 196995144 921695626 439579355 320298812 941690404 576414153 216858185 603881244 915679539 477726766 866594211 559882992 530798189 330908700 535561511 649326833 314242465 274501474 957133204 969484936 842404707 846951657 643394070 188580886 73216519 89142256 906746613 357305872 285286851 690830638 136421817 153537403 213646642 522007280 658747891 480955323 345481420 297383927 575050940 567648063 619752797 608083380 48851900 205430242 625676611 463772605 114208978 274986698 681215324 461550630 324366119 299754273 536465163 797719190 942064371 63719889 522690051 261468460 38885728 517469744 868151210 273502513 945743378 471767639 322420464 812125683 149189559 170273359 896147756 76338072 988606638 870718196 685827345 234937124 676521333 277364677 605571064 409172763 13245811 57623257 902808181 174595357 317506630 28574782 333325043 50590697 347143937 965648358 763474063 120187434 211586607 990450706 442178859 720820909 8888672 195425123 345844558 367502985 539071139 563904672 945516386 798915818 756318957 833614673 10185859 872256092 724888237 705216437 4996837 40973386 62288735 940248746 531586607 402557308 792011840 326731896 196789816 861788852 713115401 336468989 237977808 177650207 990122927 378921706 389963330 265200979 676359363 328828785 805955416 574543913 355867899 209496884 153952554 912649682 197313278 205364028 757117270 717338186 700082433 907045503 672931705 857460966 442281654 999134845 803570948 353633142 453253534 948948269 530619221 241278878 514224178 227197656 952767276 364505691 538773993 750872098 532773800 245355802 23595337 893503030 576938962 943801086 848642297 815233600 987913129 777640533 743271302 7229354 938274650 593116264 888143569 785100010 215364117 446591888 394415716 740184847 719189143 622298198 758827519 125072864 238159009 42361528 355207130 987490439 305884050 559650502 380530825 544198032 106166458 562122319 762954845 709795468 820971556 692773784 700136189 985517119 219376906 31703050 432849046 756843199 884458616 842166793 36998587 343866273 224697877 47364189 968608237 778124105 655104860 371344341 855250709 272641942 434107414 823866891 211320286 318734873 800217117 199669274 584257826 996666389 376670283 252631201 393138578 917535634 565707589 3080434 60190721 591764916 98116809 190522458 145259530 998522004 852242233 769699529 386224349 696174259 140641535 442127139 267731122 871962190 250909025 537594895 474722086 619548642 168387881 552411858 510479590 777396465 50127551 450769974 638973280 773726216 486988687 995532712 268034262 48895090 167782074 262314615 67304348 87885486 214333177 428898925 800253684 444207491 917111710 500621175 592491720 384197038 800528814 818571550 3355817 163993145 674829198 992421448 764751212 853091411 834016523 283855970 751279206 875300478 908013922 5538677 697476363 706635836 158877058 630656417 383618761 314773045 736482546 228099335 644612715 11966990 767934001 602169514 423775542 133210483 746280039 487340697 966007469 841885723 149110383 196658345 294474940 626082773 389378067 186021954 921300286 329840763 149954150 676090361 285438896 667943857 13017480 996216607 792697274 246148866 460833460 990238902 186050261 718916280 779035944 155408921 424993111 779650737 416096498 404380378 553935892 750189312 409025116 793337602 34172723 361825755 668679034 691686909 583133808 563268469 99421689 341985679 326907416 853151368 180137164 176645438 769171665 445160858 968102067 406310720 405961087 676416020 167901352 592754597 167084758 944940549 276382673 916264614 141165180 448302400 670956060 528009971 999706565 526244167 744053565 450998251 775169587 181729282 246742325 261245042 542995550 394189599 291154111 70341419 786859457 664353194 611097711 798708258 451169617 912335095 612301712 626731964 852739987 559901596 338127105 853559639 927606802 331629394 289133633 581640148 304068117 881121890 333128086 135065203 276398407 469351945 798253700 987137381 652174183 696477401 220124628 178572281 549139413 421310373 79436492 116504189 125313933 457718380 218032454 876639373 506897975 25206252 128957989 304899422 116392412 936164258 241583678 838935723 896423408 892005376 529006800 575478428 755058021 419665806 908316372 461478917 892145671 696202817 477966694 415493938 984143773 616419192 755004328 879964045 191306014 298449753 676384207 177521249 495554397 229446724 84497249 382146397 650682482 543951253 993654112 73376242 894814993 572873835 416352115 419199880 825207118 588834504 658309401 953586140 621494172 362871205 40537670 843194073 931156420 276369518 8132068 972464164 510534677 364848542 639358834 577949224 283101850 23222959 951513690 904052287 182444996 564266506 381490807 407350924 665742934 501764875 602114015 953752423 197945001 262047261 437648882 625379902 741018753 291399568 642567250 217781443 149639970 732039562 779422945 998582391 447173955 495373995 279313554 35776285 407310728 849711737 475765086 890570469 542239063 551386628 716003349 312121636 699271832 212797671 276402337 295070331 960541650 348721758 794306539 931519243 946641349 692903 459373687 841174121 820909481 972858714 584583485 12907759 76945923 596640514 136104924 132587021 827530057 948341210 738991430 149584413 264057379 341930558 388205481 503641784 433845200 590740260 214951173 892345493 64480680 249340088 27816261 789615966 744789417 878799491 7301254 285162642 627275095 201299716 167668423 780774789 909906022 502743839 769822821 42172562 67062171 471074412 975351617 512085068 594722755 615407247 726292557 651371766 120640708 213216857 493140001 793039022 752377114 594811693 828346898 136897783 184094107 137667073 168752193 120766054 823197604 372749526 282536647 505370159 308739982 566228857 536787331 287935678 992581023 518668493 428107960 166821836 544019204 472655665 693740749 594423960 897872708 114075510 753220111 412967306 107483225 417952855 745844147 10400243 499807804 905000442 196184776 810911700 425714294 307546649 822770655 531960661 872009465 702610354 397502074 950457970 587061003 719600917 951348179 726215911 441357318 906732591 910891122 987987465 160038017 862507251 752092244 101288229 684796717 781060366 304432551 90969960 542864737 676848641 911917915 283774184 957395491 56991300 258865798 901104808 39914495 528488058 44861631 714078924 368443000 91237882 672802584 471661578 208133090 503086332 764391307 156396716 562826725 711405235 169235769 596334019 70879730 68779156 504523699 113818396 725855504 789611214 327914745 997660574 835430668 250712596 244676403 976304325 595438169 439153146 823722080 384118284 601748571 198147105 815548374 316979799 696999269 530977655 651865830 940771432 617932505 458507055 369312753 497319549 141131956 76501806 988070332 232441804 939203528 760707942 516013581 104555187 680740952 334423990 684977916 221432034 888338425 669873398 74400879 534384280 256771667 740707356 421118962 17775945 656523948 688522344 254293914 328504284 687956550 104231001 767701418 132149291 979544082 183144778 329703782 862453964 278365357 668150766 264954775 794491127 999879638 35891901 215505947 921244669 501284133 351955316 210298781 91556674 946607677 600251098 69170919 681961978 866073221 241472773 548241366 891250315 980746950 544302212 520152760 452575010 156708465 137933050 336814353 479380595 886591367 249912932 830754181 403725484 686486406 67409671 985195917 505881213 711409694 385623227 962516234 113494510 552064655 720130721 667133622 247406894 627864926 153564489 204462455 236029091 195377089 63988310 91613787 227957777 284618148 560345174 531187757 693628028 656006575 844484321 10084723 142767487 617011596 112361727 766843909 527965630 483829738 370932746 485589262 219824701 673928081 603034070 834980956 837691761 983702204 257671433 891587232 96435972 42707095 590012599 577527938 307398669 289158208 324243465 86432647 608782578 125922347 592360106 264032394 106393815 56491159 866069165 181321666 304965851 981907054 561944163 797248610 863313552 16079694 801111157 107874835 976699792 204372135 798700861 681187545 126968183 252889859 386443632 625704772 723586392 900125220 882782743 627619981 265458870 126690061 848023308 995774446 429062707 595516971 787499607 735102962 365925765 449600355 787243247 325184536 667283031 95494405 488573946 568227166 255322745 973807822 963632523 46388924 281151920 911934625 53995398 108843359 277560927 472167381 489839538 53955747 604821779 219337236 787136734 714805659 899438327 605890675 682048133 718028809 382768242 291002867 779337349 715557746 672343319 308570274 414085496 319989478 248491723 476077026 15304401 827205840 371679158 183007182 633039251 202599038 504097194 871679316 991510998 920270853 733783703 380179633 514043807 155153642 984611423 407888479 816459024 854703825 434768510 483650136 199243637 1245674 344828034 780188555 709387055 300525168 351537670 957520962 428701259 412944176 613658427 790769862 930920655 791185827 384533043 190868013 392601776 43807849 547679823 849318641 28074545 229935708 180104562 754567146 126288093 116271661 547276241 368868488 351695718 693722721 569077801 756416430 120075318 360128342 276802872 908764828 122213418 751255162 67411429 475526623 718869762 386243350 737860987 141657764 499005260 839036982 357509804 206975247 495169994 982831673 493246725 889642439 761961861 409058164 747945657 283669762 10690888 793932328 716647020 707549547 823215272 165735954 917542535 25243180 610002577 415963611 163750272 431102246 308024976 499175863 861684626 330230182 888432638 603440198 21006310 587201943 915712241 508226839 800845359 22685779 668013639 464375082 856707725 621139109 691739178 542092629 323692114 933270378 248466323 463534535 305920619 306997679 706804095 564091683 443992745 455330048 206360182 125879351 99438782 736617093 230642326 124840045 620940111 379156785 218874335 787755616 785174940 830604069 799705442 47853573 600594916 450150750 550886222 737752926 385521783 619522683 275439834 403011496 479198218 604495992 530465958 760482782 534890695 880716960 342383222 173097290 169395015 516971193 337696349 589812868 887897651 623564138 938379439 28008084 331452972 42266530 350111909 211283336 767210826 890198948 517693416 28399384 715184590 647920293 392547422 240687267 558018877 838551582 169251848 541306944 764528157 683259887 197030183 717964249 941846094 613639349 666208725 938222393 639827350 876864643 894977056 40741535 550355819 843809168 34818189 741696894 438503599 643505350 192315694 552903621 729641491 733074036 303379222 31705389 793253411 129592937 779749448 242872483 986685376 867871096 128187403 346334657 992928185 713911146 847989598 659925845 515369839 43634597 179588831 696530201 482759003 515717505 886093768 323684972 109338006 955087266 47309768 573660505 396319460 574997107 375045160 291825569 633673735 315514400 473718595 68479854 155709972 476733972 616167265 930769829 412382027 206690620 720440200 61671070 418541126 442877595 673545948 530054025 933388719 712878880 572267304 975923627 385958246 899137963 860345341 739843831 622677258 103317826 266019750 585401361 234837497 299216115 987162484 249907390 318152284 768055904 189826057 750663862 679181679 14345311 637068531 81989006 626605837 722080282 460937326 381947538 459779823 315242372 485886413 422493116 209219982 423244291 593455362 166322728 867017051 529777387 241721264 790484640 307071321 229675791 678604280 986142491 725971944 846726594 245514608 138036988 336474366 701878431 539515450 645089438 126012815 155306348 415752187 267644968 754253351 157193461 345792852 728622797 303684252 563376946 856827011 570384831 816752311 875180909 76980579 495479937 76471949 35367587 101703124 782967964 975986827 940806392 868929997 714159754 934706830 513677738 8816544 26726830 357540776 39116047 362949446 56888371 630645875 159586965 787548088 731499305 106596836 706090466 883734960 602558773 32999522 799705401 888801519 152177689 5743225 902396060 647880189 55375101 31471829 765710450 581071178 469756877 850269237 5138268 765920516 560414050 627673173 515412220 295143092 105413159 348238673 326008163 917257658 778620276 241131321 448517389 254449137 334909755 230308207 329804813 159098847 94371761 465365605 200318503 795442227 384959413 975783970 389364971 388236556 839735349 758002035 747100434 566304703 754744990 548296796 432120993 372220776 24783601 447241344 391916741 728698281 2138802 943818716 566898857 292118837 140014918 515233810 677994349 761571858 404604340 833971637 265993385 468502340 541141392 342679529 273570037 408919757 164247895 251837760 994454298 883858428 142725132 696471963 749191826 490227454 999230250 233817679 23969181 742351189 531018057 973572076 50060440 986108109 812932896 350494793 963734276 937537351 675621865 688371359 558776143 667436627 345163714 643897927 818857950 518815619 25844768 348900350 527875770 546267990 96009858 370066207 875426208 970598258 184637036 740473070 744538710 463600833 867770525 206194303 163557388 699926130 948680471 139521394 510401479 578925392 308802533 859683888 768608830 516933261 351143952 926748194 347328832 356617330 238555428 705370541 650711621 606151846 839488324 799388484 128068005 380239250 717390544 555271674 837168239 110699154 577108828 794925425 720536710 839045431 177399646 529275831 986226510 919113410 906199920 428986329 110376817 811876423 857059163 393874330 12857119 115254437 238840295 471317755 826952059 389650364 126869225 207444925 891140430 233609272 675903843 606409215 445949628 498579057 874958549 634151268 456562771 25897529 824675166 689458678 967478029 657225371 480593135 510515636 884769924 812359224 859641677 333304261 967178222 89824563 471443054 174017000 390478372 506213467 465690443 171738556 644072892 716929939 853811054 591872438 375879059 601938245 247988257 856758672 854652411 122782330 886818475 124975647 817823160 682265512 107086839 941788696 754531656 914967451 102801088 781401836 47820296 874231506 653551065 608522562 713691666 480074076 477874358 500962983 328806903 896532153 296624725 460268524 848348807 805545429 625227309 846572360 111092632 9636150 57886426 17590298 22602423 216414865 161580830 815475261 617429443 593105045 74134605 226976675 486501360 371297995 967541651 480581670 338144200 481419433 584896650 344929696 404982319 975669071 891540188 741270320 730027617 748290339 633920158 137641502 839782780 345623741 203663035 783287799 841565419 438561697 844315043 502780074 507748693 3879852 356536425 147901014 766180449 499002277 769651631 291828667 156292453 517936729 314052115 888192381 47143191 445821535 729063520 301371175 310532178 697844980 465086469 16877531 527197780 790020523 894136178 875643687 310651676 197546734 229343284 67378727 385482661 565339858 355490451 204848519 427672945 346117627 324708305 688022400 765020744 142437152 159912888 146425709 701249006 594807891 146976071 349597843 283393852 441894128 340724387 646614671 48826717 86545641 251818753 799669493 132681816 344537862 418474812 571611289 538024769 31961803 586893163 953347157 778268506 264340465 750051762 492799447 307257000 661031825 65001002 47458810 721325892 318074152 322179775 737457977 245728271 332991635 515243668 22740293 693416844 999479538 318950560 69541114 245800517 835882961 501129638 374383198 892487957 402069309 655079085 240352203 118053004 183297319 651704848 778214095 827505607 594630927 615536306 476831352 640596715 148910856 323911198 433146524 49077827 569386357 423215845 735092201 265623159 102615484 998448738 513413527 474210788 996514795 839074342 709553936 480420808 268875901 799760047 190859796 175972884 524229309 315667577 791351539 779030868 30414224 477599517 567208564 127747987 418090066 269179951 933143365 752247369 396857297 422469899 772944294 385181315 883125041 784506373 791653316 562846972 876094961 792047064 258740013 255394958 907565256 637624229 535230520 615921605 846839517 647544401 72633713 751601369 54419319 367559048 934976819 538379614 834412788 747918646 630919178 759118228 507589790 616998543 11095149 36377140 243231319 407838426 527980110 539543069 718569813 810075749 842341289 363192817 339693594 47878839 246086483 477507781 45685116 839490268 145313294 51649718 951862699 130410047 147886234 952987238 697346780 105283895 701342066 32909916 778607434 203969372 205102467 457075955 121868601 520967998 519867564 227594711 769664044 240184781 498968209 535777161 727469637 539460289 137061557 204064393 236324359 425894532 811550673 98332055 577237863 6669876 44960187 178569785 498737322 764413843 855355954 788653088 235943615 964017951 829779527 828310993 919793091 352385100 841221267 140068601 778251732 559375456 763652308 236325082 554652482 405396068 347218764 553571602 347825918 57873843 336074559 545532058 667274048 39660187 306689151 169667415 799456854 962365367 343745707 66051719 525733237 993080962 539767820 554815163 52055198 770374484 936954994 33100800 392605289 671910937 782799817 597202950 606829959 115504811 157803664 975107265 645352803 185232625 415316254 827725183 893513915 464222345 750807492 407949793 835975331 117305546 68415036 713395530 729184068 883602895 32283749 407719659 909325750 510227501 319369147 923124557 166176188 786523801 836705904 243008753 193382609 192065634 541949204 978196000 259860642 543819642 476209955 524552536 560098775 200333615 344095126 903972394 259353039 30539845 498732491 604371599 505790270 841056888 19895330 329051490 162014120 442287261 292071753 966842335 401855581 110888040 212920815 867518534 722440602 329720043 641319289 780097179 915126148 511250424 690936168 356800879 812978064 97153607 187110488 358176795 246250409 364741860 830305108 622345658 119459896 818005696 29638448 400686461 921861923 28774674 81858390 737547596 9196663 117907551 500062814 994793951 775157879 548539205 993242327 166713724 362685565 899912036 496885306 436576723 285686747 517598398 758710836 429421371 890321003 46200889 671071131 486685722 958818207 779830759 337205080 136422639 748649792 572657412 29272467 800207761 964437932 850024739 776630889 951829351 962017622 442223790 2636364 146717479 851858828 195178448 482003000 271956646 209329982 604761909 967354876 258683900 41958813 864602076 864067039 280398933 98345192 48598299 451477951 134286033 382611227 356607174 249986876 786970325 947626934 72820477 793878012 760626763 944364577 50219973 701109239 113243746 343926961 870470458 332608806 292263132 503030603 774448358 444580986 689153218 313998094 259565596 8228175 881099267 899519464 965742601 534880468 260302196 64867072 26225283 43264576 175802913 44428364 320619455 20344654 594288128 848748930 784680635 651882711 300566141 500455313 907592196 125598215 761114076 657376199 918804836 119938948 35408615 875022845 217711179 419919563 157734627 542182584 959697631 922828355 541875415 761458005 849772179 73301221 337404072 921588014 472381012 329399436 832518196 520582915 127427392 722189677 822670997 116983580 506827253 373589616 849745164 575778039 185155814 286653510 389737638 596291198 166311346 401954557 643302226 666635244 45366071 443722013 237489252 96007670 18171434 817075491 902010296 398981556 41498246 903327719 43440280 845745858 647372983 971244765 214625834 657288645 17092276 265739234 796188122 326122178 89654616 222665612 339543665 458449494 947810402 663423408 335946538 197707752 718151711 437055898 695882648 787037151 12650926 983007330 980478728 817918067 148933451 813087187 38701727 288903420 344531981 122341053 593170844 748069225 539082794 563139182 623871871 542375382 570891087 931569051 498347146 140480352 29841512 166952683 810306393 787946989 783609711 494531849 345111193 385602554 787537140 903122701 137085715 518949361 605673745 590299320 514679999 832488644 485794506 29426608 407373427 705033507 539975249 102560297 189517691 647430365 908156364 613546628 80051982 159903868 510077660 532317296 464529769 628213103 215178756 894193557 179745487 804539243 504399915 673404543 465054339 256009163 729514814 517980824 713466386 172912657 357563833 307597346 889620975 333253748 605969786 855425713 448629634 841996263 698775382 758702253 28675595 452744710 270336473 495871600 219372982 122273108 774432577 647659490 68379930 340352954 508354122 10189126 215372418 421874235 346303847 989431027 388810160 541741548 453027417 394106754 969893325 433018198 848108312 140855 574902410 691460935 90469590 730464274 354874720 114270205 568219862 840417714 894298667 929295172 991352108 108538717 426345081 784597484 240662136 985562014 147223398 62899358 223563822 163571478 441144863 483731616 593543966 849313612 901013374 464519349 801359491 568324502 240960687 709793714 876288283 781135891 548820639 101186947 552140800 442021794 486874514 337326433 437518705 248305821 494274340 30478165 186042105 986048392 816016581 994637171 550145909 891024263 252610970 793463199 961113698 579611970 879519299 687704903 370238697 754284514 620971366 146184832 558396214 583246245 111847503 641028332 680455221 954057796 26500913 972224950 651201119 200702470 358730723 278508279 105197502 970724406 893401410 890994859 796046114 48579111 102530950 521097777 198436818 418885763 219516140 155517491 506469014 648053953 535733436 819221317 127925994 890565170 266175108 185138190 524956408 152175802 45351515 749131244 241034367 827413221 864505717 562918600 584371812 395072637 348477886 250616751 993887658 710267484 940670016 750721338 62045085 869375094 770094050 882523983 828645866 59266348 321369194 101975616 812055176 325233292 671970695 542632419 532721544 366639185 992907183 876049655 916178243 847251524 748115489 417431893 781013062 187033859 317381980 591021741 408110694 455022843 197250357 401611102 286919121 200189465 999847882 260394667 505406397 635569174 831967364 176859427 760962760 738721655 709294448 788696617 581939310 486807947 894567988 535777371 750228486 334949219 203581553 625453353 777357897 323775660 441975311 378439694 163114607 889068208 4368152 119783031 38593731 447319465 413898197 841859570 656981622 792989478 198003506 842672872 567461768 795207470 274910064 633389650 670352008 777084495 173483660 259498989 583875001 557678485 175711880 571387669 41624224 409999585 109802969 869389259 121698382 720567754 82346572 296883781 158986199 200988739 684270824 45881358 618264151 303747533 121205722 411685263 603418573 376734721 277689795 743536807 33960981 159207047 237827540 283584153 592867468 537328712 637508215 190584871 602884263 717997015 413062131 721400965 717268644 44494908 769991556 889009275 981516383 419438403 64971451 124923974 518704808 748062501 588070906 346988908 759660917 517281521 782010074 71941367 802468977 376155776 291187597 566031785 738508201 720049171 107489237 588983624 981540441 700416562 303052726 443628789 911681816 139308564 72231392 588270958 787848169 640764631 354522725 46300830 242077839 887195729 285172334 665249311 160406271 630261714 753924362 946489565 605603216 70422950 273149880 935687696 251145841 742196797 773016222 494454646 6933891 202668517 827462558 480096663 846584783 97257134 652071284 948161535 12747624 151127082 690442442 525467015 356504061 632653403 156120671 443953361 310953098 727825257 944233336 396160920 291899366 926913367 352258252 815066295 974368664 394322244 869648821 126608546 684416897 966846470 458680124 80360030 976266276 270979727 953286221 100061669 549205022 740588815 951100156 702038916 23342451 179381913 846880378 714039488 742274009 239959482 887058928 939092850 136366222 653271178 507566693 141724370 622608737 740766585 482615973 626211729 215877644 81816572 430773329 992839765 329674451 147540701 104461608 812140711 200612296 621400608 91154289 552776688 911693074 604318799 935538975 769141648 187532533 444006820 333677930 521253989 262682168 828108111 211805841 727538608 524060631 286254873 405904293 892382952 245719579 896562877 927759380 109510834 409038143 462477448 830551421 828755871 149754820 399820975 591584656 199579962 958658891 165295347 743369728 652307260 409141304 834638960 197095323 314160894 978492090 908194656 283146956 153709453 81374064 480203247 243251360 165530417 429025818 172110297 833813268 93600349 522442432 220681083 23319612 350657925 757516119 979970090 622934680 421987035 120610612 257075816 23244531 928603389 810878414 730162927 323032702 531288243 284233500 128951448 200014521 709984415 691433411 188775396 415960925 4434933 422647524 929304609 970570369 422632834 629859690 311087425 917665722 255344360 93921237 778289007 216665681 104494718 573318964 458217182 205890107 183609574 154602437 581259542 444123396 393298780 960926324 268773688 842160682 558243589 947820551 879507160 76860829 880386132 761835871 607907967 521836919 657389880 436580281 531224917 749603223 860554648 584718386 737579891 403096569 211512677 454417703 475876761 444561407 54607620 196287096 287201860 132626866 248684678 624297584 857785444 194812931 358271297 77430745 124036475 515390514 889856842 507956036 464581033 10421872 784794650 844185605 3190544 722117998 528172077 33887368 66329932 305400076 105512320 902890675 481093752 800373141 243443504 374619650 430328805 486611345 577626310 935936340 137399103 887308145 885348073 695008035 29717528 918802596 496016951 14941686 351223533 651524313 646941555 188045032 787759913 939018471 760578549 329534119 15186309 789216767 319173634 697918769 289275953 997855944 61648476 351343065 746185713 735044051 856162181 277669310 872938816 923135681 893925120 649515004 816551096 5505677 746871020 670028755 418279337 132293222 185223611 578885283 357427311 284801577 764628211 122045660 492055568 437573415 61241444 481676410 320160252 1672499 832053864 946658441 668628351 379841226 856514236 366304138 601425459 890462365 948649806 340863330 354090135 633274022 449556170 845148849 516118621 861566418 103074228 131416370 20558379 535067982 749157814 731269377 899585604 167803472 783505188 451299010 116787328 398135176 289927583 310322759 69482145 360685581 492351135 355591635 220735348 378826042 874310190 36525056 31803917 170238329 274813470 763607248 321445912 946131262 205345808 815939602 524905702 161786371 338138345 17762453 918844198 886456835 603561520 882497217 265528946 738068265 164256043 300530676 266582707 753089705 8174403 478657858 968112168 534562284 301458760 832855628 824701561 448612295 710386221 421207188 939378658 873089115 641358383 388572277 827174006 566447099 578211352 704539775 576958536 636016889 278147568 312217352 722188418 363125684 79961943 773643281 174570983 335771443 792265906 424159058 812486482 904842928 104734621 605450937 160858578 316291885 950166468 905697715 711163954 942512550 551076154 39124896 718537910 437482343 90949404 416928116 959392836 558137580 985983851 571911930 568479420 148505060 564549742 837746727 25430940 194958875 47088404 498886671 816688918 60164155 45491176 267401650 301636349 430710443 391492789 61354826 206792896 710792592 695811719 263154252 246933686 309447700 213196469 352766777 282491328 98910279 412051820 84051594 791596378 785169790 909870057 755900505 720698230 968688441 498919775 386953106 236750939 60028313 355304840 73585026 275912306 715545188 491721898 555550291 83687373 447082997 605074191 98878469 902385661 369267751 217121301 267889617 419960702 504738776 271804943 607232265 873925688 138657223 646424203 425298997 656530540 466545862 314026195 316517384 736340978 57247212 335914102 18376514 716102159 645240443 789802961 582299923 778325599 439808333 660142650 926078711 304438857 72386775 265336627 993496058 549642452 202524198 841249857 118048057 787596190 134564652 152470200 807235966 326850823 431310848 227926539 272258661 861208809 951983088 644038255 395549911 31889632 875240642 40424074 57332465 651416526 181640328 622432827 385921821 862887927 797914609 718645524 352883330 355027229 374199671 930081573 518696849 220849374 579228541 889171696 996896925 919696061 748169694 183452695 745412750 920302342 921262751 704259559 315505907 957721413 363564106 82908045 39815688 401482590 308263292 52250820 194098452 575039049 869423471 231439657 878353892 550554447 311916980 111670636 303715973 357828801 959768730 333082758 69716590 355991871 600822263 276547193 451056381 670994311 738892628 974017541 475382839 717958879 361926581 609743522 990187346 337546176 136027968 40910931 157897959 212424953 172115251 537001662 41050716 863041345 340169924 612528669 399236619 680705974 112059806 17949100 137085785 195880196 925276604 669161278 120331614 529460722 400901995 797111882 251157258 878859360 220419353 433315736 37276956 431607501 289031843 649012796 796390411 171102157 2427742 287701444 156089990 778880850 310032619 658999137 449868654 647079267 969281152 771268214 568353803 736048087 365658016 209183072 953236852 530569561 238276795 644270591 525966573 657597818 328906444 839797934 410893848 935548205 886314552 513477093 387124380 596718718 446348186 149929582 999307733 667276326 612154946 274056024 885399605 121645630 148989714 448419825 606978079 46937586 348147818 490097121 471474307 181414574 415810688 487631087 316179939 449485724 540718804 439845522 710404635 74336268 848124053 141979635 45890504 336722667 498401850 193355578 920511704 622563003 85629786 200997254 21423138 982865983 758353074 198833404 805444235 635649053 426512496 20755148 499177127 955102031 220075074 493371768 962583280 174903093 883288805 896308366 749963030 988602885 524775968 418279510 801534087 837267361 668111440 82957820 824408379 29083290 449931171 303926537 851853344 219313371 959245801 568056722 749480930 927031233 254918354 18446947 417975701 740336930 381546989 947042287 235540345 691638309 718326846 247588069 642648642 881364762 653618508 80298929 295288098 708839827 735086439 3343392 581430118 159731513 901290501 58816746 564752869 320159628 191569448 96515000 561176118 530634734 345712373 661841758 729905892 635340252 622980795 847041196 540666600 583592949 5225951 532592945 794572946 411011218 527038360 163633798 924888056 11768581 979446365 613367947 141558195 643169271 517717396 507692170 254470947 665560748 455657028 389738555 222633511 842398129 77328769 988092226 638550339 604591454 818912899 998623682 299336722 373033336 857771497 401030690 679561070 258017265 290796404 315212209 551221258 852861870 757096806 737023990 2985419 540037765 935737077 920143313 805725016 690516219 146889412 300857104 241127529 39505584 570382024 333790312 512207822 474521203 590848746 222459429 92415781 778498762 218037918 263466634 870523200 880724178 405612589 995013789 33024828 377358778 318657718 449956160 22618149 64342345 824348595 733709909 200638226 42278320 639919624 383598691 689141820 400014275 25245788 228319582 107604542 928924624 299783639 945738581 804523196 564421741 539291737 39753909 546228081 519662046 897849547 162186164 346369956 535449916 768060580 973489892 277666347 154156629 138980426 320802413 186883501 213430270 131764184 186367040 151878684 415226965 422146357 154600370 349375718 281763213 349907647 515698797 974594160 755610722 366016617 652213356 902609518 996413822 594084563 792345800 658852566 800542348 140354173 235132023 209308921 242768478 346106176 650377587 80534507 380770116 153708149 385202370 528468125 881684325 564280393 115992163 930089689 946612817 466602054 208043377 711776175 869768079 391988227 676760841 163205999 500912632 166198686 955558347 460083405 256600304 998322183 54725008 49181851 707534172 459250163 961569917 79759621 516844065 426329753 203142885 674323629 449209480 923063870 75466850 52517268 836921653 497376304 565559777 224972273 657409724 552779911 228572919 833851651 448342496 385312725 90404803 830350085 93276065 546474624 478964991 468806347 598404425 556362939 392773016 991444901 818160019 838253653 983057825 270219939 719065441 894588619 267183769 916226723 834687758 128604158 280989685 274597831 270787804 524633220 524094823 780259987 966000781 496407089 797058564 156628001 323813440 135023270 848703090 703750934 297800702 32519146 25531586 315519632 926797965 645379918 740920519 829808540 549947568 165382598 561007181 410281709 428868597 596314836 226768841 359048157 707458866 313116451 43081557 15479613 521332757 362077451 185049532 469868460 159921628 919005646 699385689 950224354 613032341 354322509 925651443 798031064 646815037 427128437 511569048 450389032 608746481 427545975 628639382 407032275 816057821 604935458 121392370 971101677 188998879 908447511 624700131 329073611 680163941 385759317 656263943 565999821 150356108 555914900 614909958 217137045 138285006 934755658 516361000 7545472 364929043 684507436 829310096 119275564 353505038 934011730 192618641 934283042 542388380 378056497 199413632 820706796 786708386 773790176 938412385 257438457 521507843 239118099 787224369 313149099 831072111 764166038 886678213 326490514 416895894 445307753 370055215 958611708 873497854 256356594 269385734 410106397 719820649 474368382 264078753 994880854 934980130 314150693 31832917 252014094 150518008 565827758 934633937 370148609 186055557 142837086 708648926 864126700 537581300 920095162 11427014 614701930 948215509 448988618 728193636 138356221 397777847 699851110 342957632 567821610 159903380 496056281 815062984 65737587 514921394 193376547 21640941 825522215 152436616 86411461 322300679 874133746 876313638 957165093 412650731 91445555 970266117 564451765 582504519 388379506 216927398 821665203 909735544 913852746 743635124 741882543 889962101 543568644 553633693 56260701 761029640 663931258 209988159 318284507 519284298 365515695 244099659 371119279 357713543 990751992 396939972 663268659 535342740 775015760 663434117 859337817 399927122 460648550 877556808 165919145 174232611 883602101 544655743 22177827 166506018 736347936 968768369 620359007 818695789 693143853 531540391 832360919 678976928 572581086 966903598 385164511 984418064 758158183 829103425 17323319 303164430 663982961 801111089 671934128 922868003 715462162 159632201 92635069 887376420 557298436 929304608 280507587 172843422 465504456 483176862 375513520 718123591 352185031 762922560 385208394 878577258 159418527 166641011 563953386 195834070 729568423 767503152 105106931 41532659 917197367 644240013 206748778 592242270 693753878 141484007 978474169 479837880 411557860 308348193 100874649 102976464 678594054 897380459 18685186 619494251 195949116 704807721 995006522 566695599 829714370 980053202 35293127 234384346 763009516 147868686 124934506 310625499 148627567 424323291 316810167 935318994 836040119 503047801 817913253 683210795 201224445 411433791 725390516 854578308 366661019 117388122 198993235 836834805 470443133 126265161 640553524 97056457 856190480 611591824 657018932 750342934 538991824 70728129 470824169 532022439 282320526 617215674 455905477 804758113 589962533 382903260 13171011 37413372 227599719 591721610 671589961 356110263 387940615 872463667 259042151 178043889 178526074 446372061 491622344 123016950 907459944 786021359 289386728 879608758 56245228 316832724 548023084 432483187 696234699 424225827 425475681 313668905 575346232 545899232 988120129 307029170 378402237 239664982 197203115 428106902 731872142 193611656 799966679 442600364 19741515 964678668 693670546 950263733 77537423 350148972 627371621 511610358 759339448 257301508 583383432 412517432 587615273 550546406 916927689 100160680 224385490 880417336 86854914 436263063 335673346 309618255 327193539 371988336 377799686 432722314 107278685 285554477 428445151 370358315 793540132 571511581 732585107 184453321 637943103 393921205 963843130 593602162 973467481 996941977 64196152 109545291 92570094 644954314 249073285 33688714 174508109 716187219 785318481 39334400 497097763 209550190 946294607 589094272 650047582 251759156 333578266 325535976 353137435 346226211 672641535 982164353 844256294 872459968 171065752 791059201 69235816 510615409 806410677 951126797 957317701 780197187 730935741 206026094 296777974 948408131 850156435 560283788 687342270 531458035 318832386 832077790 292415302 213276730 572910177 121548242 436633268 718170114 467551291 494995101 29402960 610668837 547003710 191910772 549676346 472195281 995353454 586336796 992824691 288211604 295461623 15631700 223379248 236299307 96437277 867671450 58957183 710306201 789133710 912885375 559863375 112922636 141455450 957100901 942796698 601533092 872532923 671895736 463038696 151253783 469329846 506715660 470122942 248779569 619536147 318668853 7406089 712884199 53863683 848147936 678719888 882901404 131128750 196838783 781750656 613251178 215315378 977878129 760323926 470068468 680652931 943619657 183362308 407279031 413365486 639871028 141186236 390045275 767910607 593515273 424675593 587693959 108925793 924584078 248012426 403245067 267921861 89422473 821793510 158599347 269879777 15687748 862440140 196357091 9765288 356274493 829765468 723747745 263888605 774077430 877904559 918087324 705468985 476802987 789279658 217530399 743772437 563903538 755077448 372332576 892249353 589120551 891587546 963114178 494841400 445456872 441250906 96345612 423016487 435540468 323123869 311976889 792911650 930078830 307708431 765120532 941601175 475920083 377783912 176331067 805223788 614573749 594868840 488649202 714014589 735161573 871652113 362541485 271676828 59039923 381297059 953102236 302553789 536354211 698641247 289482259 159622697 158387683 376042215 44253727 575184509 465568131 190727705 752245391 948588590 878508745 640460465 846322643 755587205 347670338 950855633 269488702 175750117 396309320 271212102 761351116 543563254 614753038 788418053 613448801 48630154 634928644 665355214 728382629 373564317 863342199 801565047 157875137 787583717 794982007 106201310 668461075 904562422 640087308 629681393 133016286 433085655 225461918 263827728 789031766 22994685 276817368 842026967 650226682 845583622 56184110 214061943 214234548 13788616 976642224 118326765 173831366 856746616 618097753 516321147 554680715 354908474 907295812 766886388 881828071 66158210 123717025 512447003 30639007 580993320 83270863 749546386 897245436 806392939 815714544 679469439 47608577 985706971 219315473 31907239 792738692 913277851 623022483 153460445 194638777 178439629 936960907 194994540 721490005 891823121 678485091 962525372 764812227 903095961 811442066 907580046 740072761 733643456 164787385 375671008 657360255 498428625 173669275 778507532 573968472 622772524 692935041 581733296 277418911 142519185 942072521 230134721 670555480 878397293 592772054 123808815 702912948 358368500 285390244 999251973 224796580 852287289 185784464 131505191 915084941 320835932 630536604 968900030 68985456 168641415 696099810 105639658 749893956 945921633 687462422 867620456 444466693 531006336 879513036 426935636 630471504 380721959 208786248 586130773 622808144 151813409 126173635 172337692 277665769 700091185 112432024 528495480 42337869 331523986 972050360 651221902 394136104 384225018 284737156 912076715 228324676 191242119 881202947 334865639 743758955 528978033 831749248 1204398 566972848 945264271 442810049 92921528 375015930 156772518 986870222 391894824 62099841 219793131 643375341 277507647 404418734 731621952 565217130 488079238 930572546 226875837 430418855 215911596 992761 557521461 718221315 725700887 526555262 877667545 372417716 752379970 785523291 705278224 841732737 246757223 962311125 274045279 368884107 616105082 856027438 615449506 200174478 916563193 811204019 455353919 701896639 2580446 730293548 919077595 597907612 343279053 520893898 664428472 280702329 40245272 464011731 437514121 2795318 199956328 236925063 479606414 309912749 96415149 640271083 403795508 913756923 576039179 237558747 904462271 525061509 562030689 814092567 647305130 897864164 892655294 43525914 773580595 852555511 663630381 967228811 813824535 732225754 915139934 805518956 517300296 656441879 431510464 925314390 471099082 102579421 758866985 442037329 369904803 849352019 918901814 872159317 991292582 810904045 876044023 856576218 422425384 40706165 812575477 74716914 347383564 710104140 309598253 657372095 892221371 368092064 373789730 886444380 64971269 968241 147233238 741624883 838284358 946623636 791677875 462398627 212541541 683589396 917643923 169544488 41495902 226680935 727167945 582174115 63896187 819083298 598098870 889397834 195220010 598262461 283303163 271306731 174375184 39925063 590745572 524344576 24987731 842506994 467064484 676852706 564282406 578225572 514083300 192356127 261986975 477030233 527696900 720089266 913294105 755401765 295943216 633605163 371612261 91408408 677026900 418313000 792847907 801554338 278574502 53119765 884565341 741365571 750181043 873579102 489860659 579305602 290640322 955440397 812122653 941746074 66421992 598562638 40246959 206617535 138884546 915635095 773935079 495620720 519681480 920881140 122747033 580832367 671306440 896704931 541484995 511104326 129781236 167815778 135103589 838694668 764251765 202879594 777751369 135851875 821432485 742503670 361035578 358314917 202059929 34312592 489538914 336458016 626696545 621177314 19082804 617558980 746701788 709142994 820640779 175873579 854401762 671866753 418119066 731225788 940853278 272860624 595510167 393424704 529425800 386275971 991398922 766899746 617300906 649437918 618406335 938942871 910918643 159595752 209445452 656069429 677575558 449769886 318626813 900313848 556780109 2214352 462564620 259007184 254595794 19822663 515920474 285306953 858197932 357617968 813274411 439785282 954237806 804988430 210432147 976864995 223536895 667211150 568645740 324470117 509347602 458890675 236679261 463983955 46354113 792702719 522145945 287765251 696858325 906212421 345303600 212988033 631709060 262224791 827788654 379348890 647291268 260351836 574979435 668651682 888107721 587409676 489434634 945839585 846646497 353812988 756218404 137448696 627479795 303468296 460573324 823320795 900968305 170983215 602201181 805083940 470051467 195375966 33070905 653223025 765444722 7171962 969830535 26726232 72650405 294734693 315175166 225536459 985309786 843957196 129824242 800882897 5343361 689232147 331471087 307703908 969417150 59527449 226463000 238073428 291520730 766418017 140041636 311260610 146385928 232239076 920045267 952046070 41729833 52057889 133409071 973798137 125525895 407955357 614672201 31658100 984424482 67539299 617594651 86714301 394777963 388969726 223489864 861679465 620691333 117110874 702277205 846974806 775497235 786612885 381803906 728751038 963950237 155488336 938305817 536845575 408277175 129788746 952119732 980456609 560564465 472711144 741877139 678286358 291398113 74256674 954525856 700385099 385493319 694393538 51535508 359421667 854845847 905958277 493315281 324714856 238255167 102311634 293699832 86884098 249394381 964245115 985901752 497479086 427378594 907755029 50456404 396886388 485906332 702420021 847366796 261465861 797597357 959084681 687563568 151211364 614084298 473180386 308259329 49110339 458783450 779270476 740176566 737158165 139531826 650563552 200817016 915222411 612597590 875825665 359892294 702949449 372602558 897010844 600949968 98304829 164493118 487905196 632896503 569718477 375736454 128217109 349788447 709818560 182530131 651210073 855259697 747590032 625176225 605763177 912561198 528739290 849193924 221034614 27373906 333622348 956995241 48334209 958832093 877785032 469694493 157429441 629974901 244214728 373182597 134924937 305346879 356646874 276965283 759723461 830040309 948981039 103043417 60855385 484202732 384260106 447790152 209265180 734205704 201466016 964480475 265517796 169593278 529752878 670068326 555024314 946087378 532509770 928622127 450137873 525012015 490147685 519032538 253196629 494313203 694300956 509301820 799843990 535046044 545504802 317929623 107004598 984194941 999172332 261683661 309979421 671216063 130821114 511250953 434931436 312972489 541543351 184711653 242957826 657832116 489586947 976320248 681179409 927259630 918891774 358505009 390960159 787347751 505729630 901193068 245964583 756802047 602965135 829202114 218924680 23315055 690302845 887778061 232714216 28525531 44506645 749146852 551648585 109035932 241393576 371907493 662803450 436039193 329781944 941175257 941464259 394004229 164289507 597574486 324238521 702410672 344878493 338099716 8077731 863204999 303680456 981257089 169844241 864030233 956688856 195669529 922639519 404741198 760749892 668557365 394487534 117716359 138812965 486270110 522083202 118630313 330657659 573287764 797738669 174742647 969118472 473482260 298580718 190527562 28187433 888842846 313086830 627476122 107499175 657959259 999231183 907004237 825103047 343122619 469968052 257941984 354488893 781368022 487194128 899514178 701240315 581045547 276475775 694951444 115313815 111822924 814013511 109410421 584348694 558462726 328612965 756117949 666716874 374120933 974888343 285305049 526396430 849819453 712533053 839942984 910646892 992510620 300578935 339339067 2921752 744332992 417615449 846950103 586398804 575908401 990567473 186257211 527226860 305690595 85912328 894311584 320421014 791748793 327286593 751060895 567698597 390313116 297781928 305236188 246770869 987345065 552149272 319499447 42595110 817291452 955310675 564035965 566479636 606641286 431602893 189569193 627534367 275305861 352791222 820018916 634507687 55990136 570748727 440423261 454971357 269745284 363480185 397508810 177278148 620563650 648782546 443302535 544312382 108125204 357265941 134089791 927360733 353976117 456819815 84069633 799019248 856976584 573025350 968733625 878323813 300938187 910033182 367510961 842391418 374529849 958032573 860877850 190683911 248685734 61051228 162397847 135126701 333340746 918487709 353627399 507111603 879467472 882657007 200312291 935623461 677819099 898268174 502599748 139269408 328132983 904012373 872956486 624073393 11366622 952721388 420014229 277585249 597930946 119453882 925164401 287989130 295473596 617679367 113807932 432009630 656194303 181744569 201009639 972059679 879673019 828478716 425199266 802844015 183157894 380860260 880952490 874678458 484020899 798292944 347149708 755537978 531677030 427863271 977339572 561631579 343622081 142399540 196815340 447733603 216221563 265342988 355839978 536071354 328539218 504933187 521597501 578202293 476326930 574688911 974668727 640675464 24233736 499315438 46185855 179643762 948943183 552670194 597427622 703185429 551823428 868529690 116794924 717773183 440168863 327770733 258902145 106775764 949256452 812198032 392805114 751239057 846096015 528278667 688404394 533531665 247817219 144126658 931296122 548416051 563622058 725391639 795163270 809586927 369856633 927219142 18575025 697617860 258370690 875970978 449915816 782033230 545487066 300327944 223820813 939537465 298353187 936361924 689273664 925330573 388790328 113207550 665161300 50265378 788892692 635695551 251182243 796913340 198695297 331440444 81884119 879198129 56654052 926082395 885059161 189747428 718295118 77328939 780608412 442219207 998335654 524065278 123297397 709239217 39903348 390328456 63916461 149961582 792899664 840285434 680128643 488637435 165195057 454939504 553846119 164462614 526429859 445613832 904276207 47593388 758454963 207785345 585765704 265535182 725261701 577481965 527011514 366278211 857197131 755047687 740233282 241724006 566057498 724410469 92677100 477391658 187300073 838318154 55728543 535570852 109288842 40235154 569103461 32779403 804097232 863781656 799021235 902736747 381727529 496358895 958405865 646744481 793844999 379304891 918387698 813471232 678726613 978323947 162098229 611787086 234839508 659167786 248938977 299004207 306657099 365035918 683022618 577764042 704485334 68190473 259179766 927932262 917815293 157914650 453955925 407191218 993340597 592543148 590274371 477105805 960113263 59135943 938060499 520426217 23988280 470831654 332150111 671402871 383262777 559233369 428832615 865443469 339814506 731427221 908257068 830845494 937509268 319978385 860091198 358395816 613593302 739759498 353027025 100826684 349070522 558438954 596860155 759555105 723200135 221419967 451872527 105563703 719355539 381753667 371945970 874154992 924368985 956548079 237898933 293998658 306622101 31716824 329537106 359561465 264874946 613955097 838998116 30189578 843921149 330115010 18656797 782864411 629375164 518684507 304249921 468364817 569902516 934341387 726671886 928472312 389087697 962167362 437328615 823691063 39258572 378813647 414199876 786808345 874595356 574644997 381791136 44305638 588157004 848217792 449372074 244225414 46408342 330403648 526777891 436265172 706467723 598657243 219577593 549984652 567727116 69693593 286132268 900321735 778479395 898734567 382206661 654987606 114355973 20699118 453040939 202248050 375622370 759722905 535236076 665606915 910564502 674447963 532843892 765920436 416250493 269902009 188782129 413909307 599641653 7810654 976397130 470841971 956710640 902091676 904453665 252419232 412848294 150104662 886169383 724800740 106089623 309592539 583319207 143787257 552393754 974205506 21051803 942159478 316000323 181452766 927592862 560569086 807523684 128402311 513915860 855576318 910584099 850415814 545866452 390710439 867249459 671464439 74389411 265123178 681662022 266650435 140525680 129429333 614098182 126007759 708548794 955982969 398267170 302065415 460000552 33548487 183217686 113735468 53462568 833088166 623283815 472403201 776132300 991379565 988311816 777289660 87261503 505114608 153771599 867044647 863869481 212791563 455302887 960353881 867694941 278531852 432311451 898723965 268725440 658082780 272462871 259244846 287835023 872823920 224424295 233169487 590018940 485095061 633408624 560588459 549325415 682022213 627279140 84734726 161914386 390977645 201905678 618804039 310590679 418266368 791718164 667986372 582816342 557553587 145542893 477166249 155215683 371173256 26822179 579108045 212478467 490319190 80584695 319223545 538263301 732016387 450327882 804770673 583150230 383911619 1549894 797856892 141503858 67974968 891485010 697999225 702408087 409804013 659582160 10526812 443231416 239589087 76543035 503419186 719687843 223986090 553603051 417323603 543182957 363174570 377464682 316529291 622185911 170720494 834195458 12314777 904832332 303220559 804691258 465254827 37618230 682528603 415630646 262749649 466171420 547275641 867532203 223438602 10691918 224000610 673157857 792423844 159307331 873534739 5977062 23031537 304232664 869978979 418627989 599188149 710743346 65822035 874599430 593968759 684358363 77341056 827820003 455618781 457219776 902070598 406553152 849527810 180037064 972674969 424975439 291886067 237629577 424295919 535767281 764783736 627453117 510676838 685122056 830543837 181661665 125476148 227181061 640752254 816231734 115252259 302995491 834647316 634562221 101258342 779108097 965934433 505807066 24201613 906559881 440208368 178019027 149770944 882966600 705951310 728629886 548127376 212788320 921139579 783861040 219771706 496932364 410458595 507757501 777313087 43137850 918559889 269364794 776058495 345956787 20772735 866627911 752399605 140915726 918437883 703076766 168731678 875174280 140282012 48714951 1735085 622301784 557767140 949354557 676314295 688572493 302748849 906707303 562585790 712707886 283132933 362226459 746155184 717015446 191973542 840181219 115137735 454840746 933933266 538052402 584487222 146689820 827993833 737983037 814155291 668131159 47957037 520255582 937808397 672113404 524042137 464393747 65457676 967865819 899466434 795755524 135380745 949774509 895976358 702965783 199117181 499561790 458124605 638776629 23689532 208589044 605372847 333415974 739670729 760754434 31225207 357061266 575797078 247285218 321187065 101295901 695601422 436251324 520765271 242829371 959602879 983286989 138572824 745071630 13518226 100879598 544132632 140938621 575337395 576630496 501996024 363467658 927618097 557773595 525666605 161023249 390056829 468090704 577283415 547390227 420175529 409217232 722476845 787155156 349128226 755570299 524615747 336015778 289188970 779554581 460697312 152496607 452159873 986346174 514496324 479380749 546924668 744389949 106984963 316288269 263496212 442434422 964565810 339068106 104784792 692470237 626063664 402306734 405853674 179600557 589373855 784993375 249151065 81594137 86263533 819828444 409572920 953400322 299964134 758919944 736306295 868183485 453596877 552506923 37958254 415133110 826483378 618981741 923844163 914213982 348441441 306657840 202616077 388379292 423842770 578225073 466520676 592268044 98692754 52547770 6702925 117670461 678060171 472012955 171703219 993659221 241562464 405886502 355126155 87100693 574538853 434067586 211622963 393239040 540126731 190781896 682881002 853558022 266080198 717411675 9435005 719532448 171982826 38680249 589772456 42358911 570023504 61540548 750172641 28697097 431608784 982920194 981963632 792193835 188658130 358013019 273708976 922131906 994516442 415531612 220935306 588656033 490308161 133564667 238311757 261256950 488116978 748291478 571112683 645165185 176660879 758644705 452946747 797240237 926352323 394339986 707501669 944958142 28133773 626646442 572886910 462428193 673201508 492472815 904293601 96768904 878362982 72006682 723695934 830079380 753013079 785313870 283337058 54232561 967255590 84504111 82557616 485351791 129541641 904367705 725446929 128865168 968687997 552073238 697574862 879636185 804793105 899917285 133987827 752497313 825201460 363166293 610741674 68565291 447268626 462230856 461739692 964873113 323940043 561464474 140528772 465558119 413067054 273370051 285691477 302368494 195815907 458676126 779685825 425994779 956906119 830229934 77646239 516627360 800537791 151392556 519364478 519812367 254399061 238302882 239104488 499771981 787469740 250226076 257630034 748547208 20309216 501538199 132129249 788352722 490522883 945194348 957557265 478876179 220849962 11452763 196928981 323070791 895463095 853361105 43548780 218352410 796130145 203300828 486093540 103925170 675803962 642284723 81460197 590322802 6130657 642402066 681176818 402708476 700214745 725615060 660648373 4870240 851007892 778943894 107324944 849170762 153296906 644897590 218067161 460023339 550979666 860504797 733740380 648140517 438675169 246639935 731087234 129295704 98226686 600597980 450499575 857630859 498636111 526927914 668155780 95645363 959175846 584405491 594067971 39318180 985252100 818650591 339498936 952415357 501487213 491036832 513973166 487505136 977720522 507634335 385764723 399360848 618631203 347275265 92686166 580230241 849537372 61258441 958251731 892584659 694808756 809096363 599665040 857184204 215287839 630483375 579423870 533359504 430856745 877199590 900158916 391027538 617675993 131665643 520917070 880108031 979342101 517732766 990083840 853503687 361913751 95351286 800720943 875537760 533166554 309217064 104468787 612147307 698497454 289347203 627932425 760507842 637685211 509800349 226339669 40124623 459961671 774662426 236551968 522728433 995912974 152413306 77805409 817532919 625192049 303101816 148837804 895308502 324544669 436824691 304779805 181143047 177401668 535244889 407688024 63993740 155412749 640690696 808155075 391507630 789298010 955963358 942196535 211556195 911303225 840952259 717471691 858851156 48856429 787803608 800519314 28934991 391171540 834575154 716507729 827251297 775283805 836539876 458104154 325810284 332757440 817983122 475686594 390824411 516032000 263922715 844724994 41623416 310839052 783663027 885685251 821405317 875544223 712594086 517364014 747548801 577115001 543557469 468412094 763209215 52253933 541348993 763700343 878432491 17816179 172926900 733695777 359443568 840528303 899805597 632108564 601962542 682252408 874792289 364766645 217674903 875367702 946867480 551569193 595429787 329572869 23083744 17643529 298609583 278917273 656898736 150174220 478353940 144431622 901991153 791921708 870392399 312382802 863849307 31058991 373198212 967887161 456918855 451268912 537946466 577082065 96894472 494395909 517325892 720321030 451435907 819169874 175207126 587290831 444899057 864093905 529920538 982340189 858162238 151994646 882075965 888521167 263115175 899588830 408090953 781281387 162542907 928080096 816546026 908757856 165665680 491191592 499270507 396438542 692385430 460703091 914628435 903920876 189919455 123511333 306176212 320954750 272230330 982447433 32624792 829124825 410977056 507924659 713867550 845691750 961483089 154826528 303733073 514226276 539618318 509811654 686058117 50404969 37886730 685333863 343372757 876957214 151134892 982958848 345378059 579724386 270645077 684526663 629154727 649598775 729567734 886635153 78239711 852339697 422514988 366565657 304033681 302110369 242077687 911456249 769599424 50831221 113854237 126745411 672562210 969903101 33872071 371840452 5201899 424406967 67062049 430963373 615451194 82566277 426775948 855611456 139613881 206629839 252202029 458477276 590179424 274322151 867917052 461248997 881593985 254564287 892874318 104000363 465485687 647617450 523387976 789738197 303462817 560840358 878396511 944264810 47050558 713422375 766942299 419497487 132439805 511998420 324604450 633604196 693339018 168704320 230718844 499868457 79605368 856286799 56042920 180593945 104555919 622521456 745466231 299728077 908368744 957419603 657267232 566625010 284220492 356693176 436876324 690064144 759050627 50202805 843248695 815157590 526837673 728445825 143817819 836814292 303922183 794091289 811253357 356186118 410162339 808788934 753255535 920187741 38336889 313913066 454961276 826731746 440214494 129359520 301451956 833399650 828682765 311050358 200667999 622283957 87138602 153320508 153505475 221266262 535878531 895268833 880597102 821171309 224315507 110526031 533732381 763827835 243829254 314550074 134877138 882132082 225220979 452248113 785072448 495283793 302386246 831048819 207456024 349184551 954305773 141503447 356264087 294184520 445739624 183811679 632383616 249732790 265554635 686414965 741796813 123888225 755397415 489733159 368251839 742720850 260844794 925136742 928644728 388423425 773054504 146784496 618708889 821705823 845248393 472033176 26879669 868554907 472035565 453343332 402478218 847040704 387434220 959506683 941475797 610394630 203657579 320929896 548675334 466466604 172007326 547348190 382912650 897806382 859724847 382859713 379691629 149059824 49791647 359505417 884755262 245585218 701652553 714334465 596771292 936934507 934091486 71012905 796559030 784156612 308159767 463082522 99546598 163935884 952369825 481914667 569831564 765870018 407229638 132413299 843003206 841901064 339376386 90452426 510300081 423173390 250640549 526131126 829523273 937331317 948959404 520404196 112187257 415574918 802337782 901976099 945788456 398129601 199514613 191012764 763196905 679742759 603598351 453873090 776167021 604551593 57750010 593382899 311830720 959293223 477006493 530011175 897165563 211066633 626704363 924309112 635241539 18284653 469266570 681073772 284449291 58700781 110789540 753257213 470986331 162859794 513187083 694188199 436131923 521217979 532484480 578293619 768907431 627535317 739665365 942307527 179568381 999745202 145666075 302574262 885822921 528679404 811010432 417700832 658400777 161491939 568493914 172282338 479664968 473605462 213718519 406860893 969276244 905711832 636170068 470447875 337440308 668019314 517952563 321053384 149362717 895854549 673268946 751828859 816746270 853446523 121433702 405067966 626680171 451817054 101321373 596053029 885381521 59594544 554131437 946353582 383111707 464699436 353453585 897224561 338650197 945993203 810179597 212820939 340009339 822947078 326782326 311434452 298712424 722334671 230199499 90962639 629955987 593903349 535652201 237672990 345672017 816486452 836021325 762335278 831865850 97740958 267482006 872647601 524932093 23211547 876537679 509625964 411873624 954421235 583467013 892028403 668342717 557422841 523441635 859344406 752630843 394348785 331075579 946739554 457274076 440452224 603878006 656548208 355856648 333956578 765015126 749427764 2123474 424860751 942291982 971938440 624584354 518252597 908283461 394871846 61439809 928565684 943593067 94282633 135680637 715900427 721140374 590054490 152847167 274872036 740119793 260274399 554128717 825553680 614803844 987727795 557300678 298477527 516745917 501339829 80045985 721525710 577810343 831723019 913451953 255496995 124140203 341451678 212032083 371971366 432060073 575202225 306884330 126039695 698823294 965401448 70164580 806526398 163409830 828862416 193335933 233800745 66963448 67970662 39819810 537004146 695909284 598823327 994718851 782955732 155900821 635662171 882868502 694081432 26482543 894480454 844972319 684906959 60820340 984365183 110005645 921737459 182630837 367151187 579306619 913375704 883674480 760017683 688268558 370845415 220217828 199491063 593869252 845692748 603993300 117157899 476524112 234778318 54721160 899768718 965340609 65379677 964503345 755405897 279003274 393524480 373216242 180713988 528711686 89956864 922311126 702944335 542503549 557777236 15712767 648599629 668958520 627865394 139679931 97173379 10818601 286795648 465750444 631347221 654639662 194724565 262835112 34107136 832497362 476875812 909720206 417594877 103679971 571528747 466671239 966003292 129179192 110859649 249159907 147117226 623065751 49799990 601451406 680000180 753741292 187705389 202051458 276612480 978429899 754522912 253002926 587121577 13344197 678614698 930499023 842543142 372263507 670441345 807458724 104867876 16978361 685096087 677744246 552198742 614249730 543711962 111795449 727301301 601734197 678602384 214928568 15545429 652305490 978148461 865989040 57922426 842946688 30173736 135643949 469700106 906015262 814928621 378319174 246580021 312014809 259628693 953286355 603466166 538658785 211062670 147142012 209960460 490025749 624677909 144139863 335168413 203854174 996276689 7790938 367961772 754745270 154855935 232476697 600782968 675079273 683225165 221272688 467329318 85123299 165623161 925625910 428281820 711030554 40732817 8886746 553379358 315244520 731680965 301973731 703278116 109217590 460969411 450414180 451131545 518432600 101748447 320963535 208876289 667024639 732276910 63641916 963706204 211933612 787267464 468871638 244766272 320603735 89119310 834656967 346579435 61338647 387967149 273360542 977274944 941113946 432013951 258779519 483693491 9536943 114149216 428677504 122582632 384263324 771712252 798264820 794609392 466680323 450911782 720071418 398103470 320324936 250690216 906080747 992495608 480709816 272866347 452592623 514224628 81002219 36455116 969085788 581928142 919362433 951385116 638352891 704435413 137848903 213945223 617748323 387663402 497827024 512180376 15831690 709047338 289855501 853465448 115024992 122628997 844527120 312844233 926630850 799756812 570733983 884301956 996239309 319498537 233738251 54766761 492744590 49266040 818097488 670993489 300559699 499015404 178081508 192168367 466492688 933718653 275572817 191334686 474863578 973558787 482899463 161547810 333558534 70202193 438706899 278329544 766786947 990178061 577834341 609446351 431086908 690606492 235871216 81550623 212032140 47031982 846888879 671691547 393856015 702506973 186764788 154023429 193310655 479274980 382197827 124828988 981110006 656592912 981023915 446962207 702256755 756747804 698269959 100206869 985005119 830568060 181291589 89011 993466431 547391645 847799437 907905463 315783549 354575455 324721158 976526110 573358536 626037890 658107499 866769565 327395135 906028265 603482200 801750141 679677733 732391835 204176386 6070695 410686879 883860673 875735025 383237988 934089528 492183161 786220614 157384685 577020868 128797027 768649556 302966745 207499960 531302221 721175275 350600571 992444962 459767958 790394350 224784282 308222659 700842933 220261593 431511049 188583532 58669537 522692236 552724411 865391584 913752590 312368916 486556929 466031745 764717933 328728101 329614415 675177057 836304371 537718156 288761601 144239647 963444655 363395716 931558362 519554552 326568901 328333451 24997362 385157641 599030308 606986249 716548473 48729410 611390853 465889945 867169019 836398375 387891406 946355879 446923740 910861561 383076349 643213471 226168471 873491872 961399682 607300705 111680778 871905774 252123987 254418176 405339332 561591116 579120889 55809155 819362822 675598074 928839393 140488730 579357824 774450193 792321136 524433994 361938490 130540710 176298910 752510194 823553887 793679785 76137859 336161993 780993737 517533523 724749191 142806750 488605458 848157657 993189887 965563010 603637421 94998039 900287305 446959209 120657650 241354586 909414300 234128047 902386603 252774291 138248586 8602448 614110399 383979000 228428166 499224578 521330407 944844599 940924573 42662442 747039512 350092977 118240792 449889118 181357449 268807738 800324642 131406745 195965517 587668288 964486531 834935090 218566188 470728684 463196390 462539722 661861362 922453559 683796552 582202837 769822943 34237029 912187160 211944701 503442260 590552339 819859176 385202523 730044813 832047659 150261514 366122189 729784833 236034 719788133 740004602 819963347 813162141 307052223 87671333 850611716 875316698 818913622 59174248 843214688 472527403 731134964 772394572 184487821 285767396 933323565 426493693 927565270 247607118 498569663 635042096 286830458 122836747 181085494 740770316 766498133 786196372 168459823 425146119 732170590 202633932 17523039 343314488 451061213 334514501 496224978 365851593 919390883 934837654 774051695 819773171 401490546 897420577 989126591 11740438 353577781 254144589 968326692 135425261 224476934 728672439 726093351 873423905 697134439 447415782 589732430 149540370 880521153 882920373 294315133 369519885 831750831 195781551 257512979 804271725 328388183 325551824 182412721 852711066 518549292 470667040 363191671 89880943 35913159 588324096 381860959 878707208 535888430 106916461 621024683 387193184 250403914 161423341 306847368 675026222 3612037 402712359 909088632 529426341 752048573 816757106 36136609 155879605 718048146 621307420 92929452 24091230 599775055 64651667 260417110 478567338 876214958 395446976 956338264 937984445 572371690 318878515 92530199 807259217 44365292 927620358 499828574 508132483 79162759 296870831 813420200 871612704 791740048 841261848 503324339 216005589 195086488 679052270 249809196 644706403 471356999 378140915 155661012 97144333 319195720 171595 370256307 170652501 431529176 755810926 190913387 778975701 641410007 200687053 213594009 513528777 862800480 263657369 808307547 579589940 840231678 732512862 466033639 875720938 457662879 345484972 653758737 640828106 831530475 171654075 879984466 713877765 307089943 319904653 479365266 521543971 838922713 589030306 109237941 277741840 300591034 185373268 524255090 461989027 182734395 548555711 509558517 809092309 79886304 170939839 475966482 202626722 999296252 119545944 151523698 619128876 36182297 871952423 409756669 340096267 837939032 410406058 624023036 754646131 636930162 781921292 297730758 721223282 873469236 702983917 798680738 210856121 230142506 261034047 955022339 459410708 258923351 433909975 620076825 817720578 143306877 772524892 931188886 583008107 300002229 272192722 212644799 546763978 428181611 150991007 870303490 804071744 966028331 495154226 185163594 938649851 454073660 266115571 985711758 451526864 53419714 865170489 39794476 458471588 68186387 920920847 800328343 378758277 916122538 15224643 66883317 743584905 68686642 408369049 484849434 831232826 593842021 821576060 209356263 443929879 398510851 377588955 959485810 859953799 38037922 798146248 829887031 907154928 277871220 248711475 504063266 298494844 324247465 24457070 219593198 914192661 837708918 14878330 134511322 950806084 523454282 560632737 407645618 974688487 188353337 423053508 607613792 535353515 143114701 920289796 811298003 596426728 313607149 262374652 683790275 587556161 461927416 194502625 150971226 852311804 538329181 287148058 765044941 651463867 796071457 21838573 625732626 670771431 199262047 238277260 737605923 460253350 99887312 361877737 713179324 909010173 153902082 782654388 798906838 713448210 945215439 792698744 662343864 98178147 479559136 927279528 314984722 12045663 789461075 268311368 49650874 898287614 427370686 416629813 638395851 576259015 213581537 520989274 691582541 295363419 121446444 364941358 330262308 193423039 124184389 409825245 17377312 479520350 727171467 261324697 860372790 461374956 436981903 458355603 841228943 829503112 835296144 777148371 799971638 585392914 216212705 802601685 702273593 283685677 674851365 805945618 427919258 516091478 914979933 867211711 687124408 22496213 78779588 139208492 100759427 517013716 538940322 509963976 204875089 760225106 569009908 516685225 878588369 955900186 329127779 914147567 509114988 663644494 76334717 666367145 91682340 862735196 701420408 402668592 779968153 407732444 798198764 430859848 740250751 531429334 993547236 318877474 934686150 400325167 694639040 326986490 429084048 896877644 513625843 797139746 976070844 331158448 808066944 343050571 734384850 357210302 351677310 24115313 776475393 353339503 594403593 5697364 733976482 996497203 33798661 705756199 496245014 826713492 18852920 383881483 367166281 868392957 140886717 579769569 459420956 943059458 384518803 787083031 344965694 813044685 474595097 419364052 213458395 462730332 476592218 580152019 61433473 67714452 608731027 370790580 749854261 751387604 878285876 19642101 372727926 459732716 167311873 730415011 87327705 538930172 992264255 589991796 471280374 175199383 849906649 630178335 266378803 862994202 924488215 748856195 639874103 804052389 870650753 722247971 448801508 397334887 212450468 369877410 522899101 761867252 564811577 896109948 84280174 641455800 248250459 603029025 514729813 5255708 600487515 647303747 272437826 180370695 224820739 313182512 834982858 85852624 901902956 398532179 520000582 800684017 211835694 757971196 733734077 961700962 815280739 601156560 695248511 88491893 708633648 656751457 50252371 50937192 494897602 144803907 467608073 465125397 538605419 975177626 625413697 470908572 722229973 743946486 472504587 964842735 578713384 609160884 440357783 83885938 223995213 638822316 902334149 114574183 727096290 356779392 807077897 363533878 233042769 1663035 239856380 256489997 867427749 289689324 291514518 708623802 738513129 35922094 924170005 217419022 802535557 768643057 577098845 717081027 212745133 550561299 800701868 868184168 879649690 759181615 65754233 727236416 483627067 884230162 289954157 107983436 383895325 107885452 315366524 150957641 969905894 955030623 191213517 476087875 784553934 890993706 875935982 107485374 179490111 892971533 681242642 602134405 505137190 986566573 814222879 128476551 364821561 707539085 127370846 148216100 479714800 325472093 64203684 880213935 578542973 104933880 158483303 202064473 115782615 270234258 133311477 932625204 392396440 54282467 680577666 540461690 345973665 747937161 291276950 120579812 272793984 716905367 129958426 815373896 830099471 971328771 232438757 460520922 272817183 581377975 847986910 234355873 293570899 622617372 952860550 769489207 224671638 583156276 639229201 362993853 335929577 904996299 391831120 641169985 365103449 127817050 9474834 523198844 762894052 873950768 702285632 475457416 37922923 384292917 512829518 338434585 328862384 467405544 214322600 534648266 730446115 554863377 310505248 606391143 553625554 584723990 546162025 486693803 580165331 579005347 293649167 138288177 662411297 182105491 593974784 986999109 608831040 389541475 168268669 516453607 442204925 586623638 267816281 724287639 238360073 401087189 684863371 73808105 961222262 486113308 128585477 224361707 140078411 393122023 58814347 400495717 523110791 769245229 249513965 945329833 563521434 279775177 588470516 525882904 599225435 107712070 236113184 685130982 969512007 447384978 49519445 80890181 148501634 895633362 570924666 361238306 510933830 704058743 312185249 23440243 988670699 891940604 410522845 238142373 972509693 991689799 38953108 600014396 628573549 887678150 339019587 385257673 48904725 384882484 121009146 953613024 28604701 891201974 237335318 225604711 75937572 190025396 336467726 451858469 400134506 205065187 582274244 361598172 737369577 806059090 791606361 962288067 125872304 568770381 711093627 791906215 492197438 350044695 520033145 369507651 644305498 560143488 525986649 67027492 660522003 611897685 848975709 883210406 422749253 491922377 602710304 423845180 712978428 816751798 321395431 355838490 477088744 140232712 735623861 538593074 338631330 312065029 373009094 304976129 19633218 686708816 411653765 629194138 696895375 490042460 841597107 916237675 233631965 968329773 467862460 684496504 779586527 150650849 655502958 648977847 407309085 696367982 749672179 425867234 776405027 537318229 80644428 217098916 183973893 98179519 277300486 388237017 87222434 666798363 963491325 542252023 969461257 297062018 371169317 859765854 892229103 875672956 348153891 840264472 303506268 355942681 181207746 17168981 399048113 832568875 867043847 66824002 5155073 35494903 629067182 424320129 249444453 259125902 488091364 322004441 533781031 113475302 377113449 943491458 815743221 223636043 770575898 693444399 940295278 988819784 671679981 866322651 405038965 507933392 307121777 466729166 665468347 470556261 760279877 425067789 616376433 351742821 410821645 219134535 671751508 207911987 267844324 513642743 316022506 700791332 328549492 684725991 392756924 449151006 729007158 854883016 660681835 869938518 193116857 253691024 67416997 571710503 130402747 513020256 733297286 252379156 997781476 14076604 393227831 282496866 708467788 827074935 91005180 423669297 258444582 475607102 817135628 178987871 227838250 559117476 841804460 682086602 409736106 771954936 481392398 926262099 852396711 990026687 65948523 272888100 144737498 897656653 874411143 941831858 935232884 230241275 420832090 293894702 821822375 138405071 151808532 440143086 203290872 203890746 206914195 438325943 990132726 678691640 13505413 124759890 215025795 208482627 14330959 86646831 780421084 897304331 678697425 321329040 247466608 839629200 174326142 785003683 71593210 648608260 81906710 512742696 717074529 341884097 338638399 340567722 877645755 791621473 40895761 713225217 865936294 967871248 63452976 958928603 508285836 254929301 672162105 324559149 485253467 563121914 14548314 112711368 256516916 388123654 658543088 99882143 384985013 695885226 945006925 158343611 469081710 720336146 611664099 219241671 139330819 444347945 372905427 628600329 310256635 495145657 11734909 465068870 924870286 698522865 916347534 442037489 43340000 112731050 167404127 6530457 93798592 867890421 823932815 265796396 51217564 634735266 958272011 717683640 35634290 202595109 810967062 969460558 133597894 883612569 78102988 252648230 918688919 824670608 48291420 897804046 111754702 978924091 875808318 634126234 368810774 133529460 404169445 430042632 528018575 480945258 451784835 109187387 437331082 101997739 274582680 228574419 35060894 105601483 966729999 898736724 753947858 296560384 931584905 303529838 957159272 345364218 671574752 40012309 728187400 97025406 632644 392308390 745297626 919197651 926255639 586323960 279128540 373968831 770410194 146408254 97759835 923567673 900316181 325382893 219390850 594537871 684274352 368871764 555742741 312315338 166994363 353040683 376749596 694932158 867458489 851175842 889153403 821059834 868406960 646549454 901462550 924188808 389220514 157394426 668821612 218738610 143460508 705852020 152768423 915583042 246717201 485217323 465989624 58738192 218668970 828415852 63024134 191998396 404988188 633784072 701440282 979287011 282202636 800552168 745581036 227126291 513990513 830725019 444383808 868350425 180561349 367496646 613385638 703994399 480702998 951135414 407758877 972972993 298857233 742476246 657066511 297270310 713325389 356513134 627192511 433335452 610740629 221137588 608823996 213628724 709661741 488112901 136261306 701018525 641041985 575772055 273574754 608688889 171963363 70071215 350825659 428068459 317650148 351308498 390310388 38459724 941971544 740739154 650251290 540969013 170928013 802387148 598920195 984265086 31366713 38938874 671052978 241508774 384585622 335172040 264940394 597070804 514602416 139054126 386550554 265732943 416603776 875498087 353055424 339456173 373656741 506509288 477801835 216061786 41987989 357359872 26584581 964571622 894610880 70164732 778646718 745280070 291300204 978400186 827816842 569316435 93411440 782367439 729928844 538283043 950619166 757549128 508627514 959282627 616622073 525412619 885069131 210751388 494306150 807588434 440788866 306436384 756050572 649454568 291067802 667364282 98894953 81729104 338325040 479104737 138532078 635351693 25199359 154898826 327259730 391627180 746027365 824022263 815034205 777336445 819314736 570660871 482608200 616704629 354099244 403578939 817404791 885544245 85610332 772167993 162019194 634732711 642604910 324368659 88801706 115237292 775935388 483322339 809825555 549250931 874197107 124997935 460894791 667547123 104126069 822437685 564912474 277585293 327843809 844037211 76442002 719210419 938093457 482306333 1179089 387229996 528704979 58225096 413265172 619384883 311476952 14053601 266342042 186487534 651200625 214904957 660874843 328796709 17513361 573480634 374645340 662857897 697137325 858144736 562007310 12737791 978870178 623491532 315870828 982952797 738792033 602520662 920158211 843507178 291020213 202779496 345732854 246274921 313350664 772618158 582215910 683810603 376788356 922391095 423854240 952466476 629590243 61702763 516405699 115406165 19044111 47109910 298821842 944017605 795802549 724351651 570288576 40995858 580171114 309572528 13665377 446355663 97059376 231035760 782790255 965872610 946569777 20928944 155452706 437984179 896006008 817712031 307152625 849665348 390746964 529277795 247289578 698360513 640310849 248171013 892987286 939053935 602050433 200423173 334917103 762403079 40087016 218696997 123722525 17294777 738415742 196815885 699467739 243992369 88622477 549169241 230290631 547161961 877121476 294663600 827160296 612393815 108345195 83815891 486483619 20082487 415768352 443493872 636531319 302109413 972753116 166600017 747839976 259297106 48759150 628444941 854979980 911695422 913796776 773715214 989513820 542154018 732893555 37400896 648831857 485856907 526294657 646432947 547218379 433638899 816498789 872876829 945838910 3009782 305184746 551146443 956286249 146850957 555087200 230963843 348890650 254414684 529001787 472944062 207786333 874126233 564434578 226888736 135876005 404744374 796768176 240081092 357378461 975326449 6939042 16787214 218922382 427402548 423321809 660420485 601151779 512392831 778611474 39005959 94473161 693954705 487709399 329010815 721111337 8317911 358076627 478419134 19773125 936979902 929620402 645794858 901715846 903908901 250604998 328596498 975846178 497647166 804868764 618567435 483385489 762138635 837324583 550420470 972559325 844810580 335765998 785773277 943147084 293611713 699642668 723098945 184325109 741719194 507240583 335267428 936140838 164780903 378337719 979247078 645883026 947443695 146688926 364424570 495665240 836015113 700030858 130254436 852310633 839287585 936764090 395431860 969232150 133602938 995316118 418161918 455380799 146462765 356710030 13634594 168137284 114263535 850520970 251085602 961118589 195572517 158289962 240815823 127545755 813120488 282386475 357113020 865596737 710386078 421994582 816924542 231500582 610227414 378252315 965602098 726134043 948457440 933283698 128596000 632570740 840294162 609564793 969939596 124883361 607846980 55150809 951229632 151649023 853006280 92563039 911060204 915792840 400685456 322854653 818734137 272744684 23432412 2643820 564988601 323194480 275278363 817460440 317469228 345082626 3549146 203432972 154943128 299132915 515343756 470392013 353925362 408389455 150901262 660458878 544551591 566810158 10371338 769275942 521910562 821276805 306157642 818160914 76524761 152125498 151555277 154346931 970764665 465881924 960368458 582798688 887223320 628980668 330118532 337520168 122543850 93685341 964015713 578881917 683604898 540592236 53445850 738437408 569155039 244676556 841526257 841784321 15917545 487258626 683590825 419757262 291250102 632548227 472524727 512661476 606481677 60429034 601107231 738942987 718161984 816615728 169448440 272061380 851123984 793213580 75442302 793440709 691109979 297238462 695052169 995159319 834616765 18487917 178914859 743093611 928777206 172723997 524437260 844349288 257035406 324114325 846654497 750609165 953741363 785141277 378579859 348251418 304060879 69559286 802032395 591661056 515808727 658839071 257906136 569177927 690437149 436286680 222655425 714629697 294091173 711669242 638725314 672874701 773201325 107188753 129843031 565534968 785984666 636944136 156530799 703552596 936561320 353581627 69570790 878232021 720882784 949298382 957712059 869670647 932358346 242117592 262362160 715272260 99638003 390381830 409666415 413325298 52970340 130101270 327231070 87775218 388859263 911485992 717292166 934101009 289933094 717532985 830859937 453703041 619333793 375335939 849071620 717427948 106527196 357683913 571909934 179331500 147183980 212075633 211035673 849899786 191069485 893542179 503524968 157561546 847134510 426608599 665063545 305361871 869796517 345582514 954614603 55494198 398025372 240377135 997705286 487188954 334712389 866343071 363169671 256769189 499535149 79107420 15004819 151215553 675056974 471142773 95034923 224050104 772649186 65403679 148993959 535519339 147382852 311208986 457454946 214331002 848150509 767978362 923783827 276176115 59185786 816707159 998471516 988765413 875863687 621327360 448427604 183565280 244411197 407250959 822920862 654961910 636630948 394414401 134223820 372652323 377484650 62584991 716694228 633819057 465270997 773247071 903268074 921846745 58817951 206864267 485227741 506728948 880681821 559100281 423751776 601722950 540943017 280567822 652784144 933756982 863796788 384787703 974742571 280130412 114539740 862683896 775239488 621910229 205959161 68258846 853166230 82159552 549386970 983047414 792031321 376435878 404899031 209109032 528357436 347215149 638781779 429459874 939680080 709320375 166627414 748596973 250911826 258775432 488511623 135828455 333939768 670735195 973245097 132720987 836366486 321886834 842728152 229291318 54939900 735095862 854199522 893648238 890402869 764474973 742602817 531786701 465381809 740466379 86807058 605572807 260235898 170388541 645023524 45938412 221764902 694093621 37097850 410146417 814847860 280320185 898889318 927068244 229910478 519842288 920005281 587613514 68016996 68529517 696229934 458339840 976554607 980946561 59177569 727445177 539936689 781864495 897229057 544822579 117598814 149035569 117977458 945819492 200809493 670693335 763108117 848787419 320805921 125699683 539047564 992282410 756892024 626870118 408766585 422640058 859290570 901996646 288595541 171752630 507467792 683191707 390751030 807434840 54251950 148307640 752042551 236547744 101116451 862041959 768546339 214719044 410045938 91595389 260813613 179648406 160449283 15844879 463353701 715682920 465198605 876925957 418556599 749830379 758317963 425059553 226577983 914627407 564025165 420093042 483195791 701228843 191052883 895278772 914037352 657131214 365587215 944361899 622443687 454803026 424699207 323336129 347664574 234587209 288737095 91183756 362554961 153113 201784987 13373968 308918094 553753714 558548819 667656661 731309303 76216425 576219001 767197185 562424092 904892423 261668777 232214138 582994547 836566468 699295262 726342903 103976476 954051021 386746306 290333322 609969837 195131801 642675559 679587980 908244700 166501724 782682885 594091274 252177891 889368794 411549283 941700200 612358165 127817261 18719741 438626191 736744473 881510848 513749623 725066090 851042387 399387378 569410588 257661999 989969440 964708801 880244328 218906975 434521275 601480341 764045746 263630439 395090650 646774723 363639047 717790372 186276311 867852651 34997783 253319019 878178384 511109822 634353143 807058531 296467716 741026096 737516634 784645605 514684209 609268050 47217236 786793920 412371695 299043584 850581907 684916502 954348377 447769400 491769403 76693451 860991667 744601039 516283331 629654855 702028781 496684472 797810877 804915807 685571410 818505986 575327137 859595384 803872012 480432986 231809040 343899789 859558262 256493845 352148864 13338142 896730481 754156374 452194491 908966501 662869775 899558457 709094705 194200219 640498423 978416038 535828841 421012541 24074577 778681014 264752229 437807744 913306986 91748775 584433728 239977930 67796192 645454733 839607859 871465940 757429473 395538098 999042738 89491003 841158813 832873549 151700233 671414022 101043063 823545089 894590097 833006472 652987319 141958113 296982768 431930685 961207581 413483715 819316064 443546729 533912409 698275880 162651460 968423786 938645048 846330752 159325912 402792925 284602493 997584910 93143591 375799529 833006375 925808512 173451325 547108022 868828068 52596139 49200372 604412475 617486977 498377945 134509550 516968135 90432669 751857017 440858741 710661937 753381500 643707997 206478427 931467329 792125740 463367849 120855327 581624642 118645630 865088589 460313671 908799343 785419976 149129678 677780345 482542027 15901637 68103822 54847537 668076442 372359781 861347920 488358784 5411954 972320761 527225618 282224704 678111082 366186265 644798389 675605182 492488912 191709538 851292164 241375672 111678142 842870645 825026569 723616662 801244299 461040376 991287924 77190032 672012045 3419620 473936040 203643541 233845261 52449976 354653796 729657815 336459225 508687925 756945064 240891950 11120812 463465681 431385540 697369527 805977765 975303871 753723133 603385181 549637002 864819895 190444721 414849498 994846362 712425225 761376958 987603769 3933443 665317922 534542263 740709220 322557592 931216738 495895270 155160541 448164010 387134032 552760725 321223675 654193109 782542829 20760474 485926417 671498764 211729084 567285312 473548294 493659614 20911886 975705493 391374675 473374958 865633924 63857748 811827054 347471747 249696539 716487189 667398003 305376214 588220131 787369911 37765051 645971866 83994909 177684801 764561714 564434437 162409355 527079908 359146851 870406146 536839582 416753296 685443344 152702526 692376258 576061659 113466079 670454783 655412343 3194935 638589452 736635510 375262471 783290358 131497357 864373402 709935426 788280710 192855204 355421165 266241776 966883094 392324511 948949011 800517505 586685244 908964335 751048966 726428840 22352531 854428633 18751519 95112279 489259180 341188582 807426513 120964458 881631546 216157321 85772451 881426871 666124375 868828158 879574859 570606612 111860753 323275591 829354303 527830102 765470071 419543310 991671722 568429406 952010837 493109740 297026087 841727081 951481285 187663775 16330251 118685756 498229460 275774675 907157392 740745679 705689574 763938204 345933330 539262450 963309781 182177874 211421002 741470561 53779635 581245573 608198460 592153236 822663183 749643299 866889151 664940214 955389495 398414010 309553689 884951097 485663824 635693975 1878114 152299057 510399213 181642413 313075096 482938654 976349775 868910038 77737367 210625859 324127630 814683406 197237981 257123280 317655152 757821516 344804612 532924970 832317192 428844413 409294063 829141509 142872218 30397075 560972538 740358991 760710502 200010102 93150482 465384812 906776761 550139313 825705079 348746282 945104664 578567722 894910765 194699622 891487999 762799953 788023165 713394585 564259388 992531269 461810599 438084326 750800409 60608659 171682292 796889265 698040548 476599038 29975003 105916363 55768808 471167150 885938102 141643687 679591648 516855451 778554413 953043709 939061146 923985786 348805115 11607844 961600958 175350129 582361101 47902164 640738960 970888242 676932691 704202902 71251659 445795638 679003799 57530867 52480319 521327892 18057680 898400229 462923678 573662323 419744975 513057772 727169525 513062838 667339153 722680848 391558674 245916896 451786244 813638511 635760391 51289799 492047259 357881743 432887005 375422032 831898559 466806763 860254480 482232841 417130658 51650829 943482390 75947748 231289657 426912520 508776172 181014115 440355296 370944138 797258449 528176073 463997200 471020172 276416138 323299596 893661566 366702080 692758634 448205685 105716412 947814970 835874223 110458198 738755181 626921141 705771173 974590998 936768271 759230533 18288174 806369990 105256055 615067508 279400119 541760546 429269389 543217452 115237719 426519683 760124562 526805645 310074371 218915749 70080378 853918357 813507715 921750433 533667740 86353438 261722383 905329485 210512648 203903917 755948002 411585153 189283028 242782713 109507508 146629716 876119540 736058934 638350707 232423821 218385773 484878510 590870305 948615820 832516966 731835319 849818938 584855102 375039537 532160763 101131000 820569696 992471892 738498287 402348494 742691709 287573758 378616462 933965945 359626039 255173826 411375311 300228267 621707163 92878884 578417240 260133507 250440809 368769149 947547954 950713941 963749445 375317988 566655801 450117580 208457942 657396913 617609296 106333285 119989572 495935134 500664309 861879151 707684164 413114151 607960868 911966883 982063866 921659725 35024682 261382584 690012973 680117588 597840428 920257711 436780137 547510059 385657386 412426996 857042123 226584125 258569343 841084064 911927585 422323495 185732723 477784628 724158362 410827025 634136571 545734843 141678429 516318593 214876774 761277461 759514059 489179494 319790586 586327794 409087722 65848692 234343136 24839760 259564312 91417493 957491449 286323618 865644762 964071842 184516701 808929114 966298428 799955526 119300555 171721406 733198521 953226542 65981984 150283559 176655312 678692155 903275036 756484495 95619007 968527400 287051925 394003209 102869166 628260113 418774175 584187255 272494749 662478338 240960611 540900612 412045840 228308453 885543272 712237402 405519591 596001307 727620295 535414983 39470593 169461342 473874472 364352720 721982011 365041982 297910959 534270272 781073288 485234757 867024558 855365017 950722347 573578540 805155069 632360692 756866546 858780460 656227815 275504666 586440655 733117250 522611913 973063380 411059312 769734686 457164852 455465456 413462143 815845877 316622223 211001589 105052794 895330582 359142284 842643888 968975966 791168046 467980780 695443534 403224321 157964556 194548166 267641155 874268617 312931539 807212517 419540055 369802145 425321458 626632392 391681728 851528855 633506840 99361568 53937994 638257254 383506354 376497840 465232282 334272060 735258920 827324251 181092319 534535458 321742754 918476403 657104623 413593131 231299735 903099874 655929533 876665417 648771046 798205942 373640642 817891073 966935556 972811746 226479784 735091279 277645836 403228569 926133319 901219800 538819056 870322229 896615525 704769338 390823386 2802525 649035240 66837021 400568830 362008218 287024729 459282773 757065627 736847179 40912738 220008843 876113559 896131361 507345236 230171021 626570845 979351919 781910681 104889158 981860194 983459567 338248990 205274266 272283932 791886912 312816761 695710011 599126066 622317903 981194819 114839430 707862595 826001147 933273798 454997940 722630947 801743742 661863481 145744026 827067178 327994330 895155626 361758526 997244361 640377978 182696846 205935129 619395174 197015126 859993420 185317119 856202522 359882009 558050830 564969147 600917680 459699906 92877222 923593947 917989218 982762159 147551190 2133048 30702305 573104771 671872183 209376320 310449067 314648288 72349744 818909445 417664065 600555908 612258433 332025333 645329395 340188062 775443677 342841530 111818292 461597548 821110543 71276809 666119516 918426799 20067389 220366504 985067264 149233718 614591231 954493167 8617986 388177442 900005828 315477660 31606229 829335653 321186795 533250462 254057885 625329040 767729807 186956912 256428379 581195513 269559605 741515624 210914540 331219241 785666899 892760409 914799830 18818702 575936741 941250034 816496803 502253494 151851032 955535304 472994395 956580280 672744144 712119124 598697408 803972661 470049064 244155218 107620108 580413499 259739765 331230777 177083125 780107305 514903367 422836562 670591833 75794141 305460655 500289164 34884887 676257856 869016418 753953546 791796516 715812643 310504059 718998620 638508092 713121742 588570661 200889499 418803707 5844027 166318760 396196653 497710697 308652389 595178297 260019143 718083730 944643710 804901149 556680112 320836246 309213806 71547552 530572504 346010637 313030355 421431486 718333555 913679049 791740007 743217461 754085758 99202218 415011763 569418760 768985485 24062672 543012328 772222740 545153843 540242585 763346611 305898129 196586950 257877903 342078169 500115172 736079903 591854672 154239416 379240625 759253471 285391561 437969535 421706355 587088689 448374012 929589388 420909146 386464669 498033518 315787503 938452258 235134710 275925585 6255021 155860812 175556100 337414614 146651519 796904345 418403136 650901287 218801555 298567732 648680771 499127279 760487288 746304548 722937658 85722415 641747101 500005498 441298736 285906501 481141874 804301117 266225088 53139773 10958813 743937516 937772379 842042563 495428645 970648574 798759510 466545092 369940599 490443228 478633655 454055813 994438087 485166863 732933262 268716561 880876961 521947754 680003259 677697679 633502014 342783272 812229920 685214218 994177368 871471553 918010023 428483501 752298949 487366372 659343706 164893952 119671238 830396306 87720489 170572204 151500665 467627210 595576287 387164870 284053192 535162963 211361272 937237297 932260995 932574631 227209872 732318498 859705489 595067236 850900359 116537778 211271914 945698066 980692614 255912350 892730099 717537739 828539927 18144549 437662129 174016690 641902366 177150832 397748327 765506757 354093682 21757575 374244811 863084639 782690593 673196688 785994756 638904648 155035652 574299047 824511299 735538830 802500507 429319459 914815903 478850015 794902664 549416191 667449021 548912196 992426471 71129395 199474876 118717025 832652899 497199600 540336867 293337075 557120507 511947448 809208125 23502342 409768039 202167059 321106193 512393486 146556441 708513034 200206975 123490574 422723257 898901171 370939875 216789897 803164424 713457023 757057659 612467565 608406479 813519856 248823453 570661685 252877410 317050343 284751205 15865443 910034775 893838638 320333458 175993072 69664365 681173680 906413734 335779037 301331103 999705269 435023158 637793406 556025219 604687639 462696407 387949801 627875308 607093321 458829112 158887994 326382531 914727456 976876807 606915256 905183082 439533129 618492910 143572872 493111596 339939942 537706784 709291993 824241256 872947058 632048851 569717849 558364380 882609189 836098377 829300674 548463736 377838831 386124605 429084847 705872762 181782964 897050158 998979745 443021612 145708351 655016079 957222018 248862519 669651985 673348539 753163749 525733115 303950981 427518039 612606447 553897858 243349571 297843307 455607096 434503012 410193634 615706205 401552738 528578652 90237024 242274627 720359295 498960916 125120460 82251398 24770447 119388541 544349310 644252397 534176010 489551649 271152940 828624664 201556970 871936507 807771374 920695541 566436345 852728202 384041781 323321802 737738536 35949719 82957083 497266482 518019474 965830923 319625902 20944768 293332853 151829667 305246653 68885367 385487312 535773696 858628404 331205899 43785506 459510438 580930509 977613681 106196290 113999660 328485700 437020942 660982323 400911944 635777951 868488695 35272426 943919551 466552690 368846165 411124112 600992363 399757027 385981735 588364876 460346596 320647186 966473108 685989383 675050985 167097299 331946282 844794942 256140545 985921066 57991967 809379997 372869911 888231945 683161481 662142200 736930028 185505003 843409863 720477091 797061682 667728864 15146254 580674667 414086889 100781303 811397729 390242719 851632700 396618639 222949721 377551462 978943401 685695285 962345118 711209486 248111546 453869692 988071381 787697354 431681496 451287052 909682720 987659500 822267964 747324135 711457829 522144349 728285455 490450916 438937519 25014842 822828543 828620945 997549215 972168728 41786114 670243254 558978592 747419641 14063512 313841506 395428110 97808725 935496219 132568802 562455601 50054002 958665416 172517353 976302938 852532944 561000680 878035788 358618785 489445481 627974737 817840908 769515497 388248664 508559451 963326886 281121420 399155570 268830899 69696005 504074571 728410440 530290555 431524927 728818004 358539442 126822872 690125296 209991475 489323963 764921988 204317432 524560886 875381033 435864928 54963880 302231114 440402443 335082568 956179079 51993347 24696575 411838475 283796663 198936964 771164644 821891935 277906284 246513972 4237360 769377340 572112265 429376420 901413328 365242604 383180394 183247502 233796623 50110204 809232674 249083380 681328348 570905481 435419986 205675577 814227010 733114763 251316412 739057282 955919436 362459680 179181397 545933823 572374059 946026236 441361245 418537303 676602299 627693669 627803989 856504411 60922434 809551763 29394507 94225932 936383732 810217918 262703857 422859006 13464522 634655214 625586781 843116402 554035955 882552753 883532222 840545099 877574264 147557071 691619205 903211301 278468284 836825473 735145436 287041490 270043620 666702342 243253106 185401127 881900425 983786358 7590543 710254275 995927609 642286149 338263281 773784013 498302934 574674715 748731936 216906039 354144433 732772799 728185151 327593417 854360868 828053359 939693299 398895297 251393580 955628493 601561220 264361282 548630128 994697080 473819232 884551358 730265801 159574277 158475430 555250801 707974732 986364936 394722873 14628029 337730749 525563434 247665072 561595812 365084277 13365344 768131115 946601531 23019662 536398565 804157654 242487925 802460915 882776303 257127046 787050592 334774773 525234919 34731435 660066556 547611678 65594035 421779331 251608286 617781635 270428517 995133505 459668080 405479708 875979788 315473825 63902439 191297110 894067812 465205335 431033417 924790674 746901541 426724445 219810341 806375492 421452732 482390380 919972072 436240712 6916438 622757032 168548306 156494129 106431548 289940448 310958472 942718655 3599285 670712662 899375747 77232040 591662778 348455563 724733808 420256451 245657336 3909012 485069716 300249009 179040411 666262338 208723370 137699351 907458720 794673681 693813992 921169967 706549427 902226106 182066172 31294654 414567309 403397166 667618864 406094209 526784937 581809241 677213506 24416972 547112638 296297748 660923188 588314795 756761176 620357310 894450837 817425130 756929368 183330939 331132979 952346367 116552683 11393778 404622548 843418685 672041145 485254974 72439048 130023085 68827598 305736588 114083873 423786389 215314714 615234468 110050140 862731679 582662410 178337149 782533735 68550252 37047670 927618543 409656419 671898205 596783639 514515573 980192683 319623959 464103399 304330390 469073268 572175524 519630054 573833404 530207645 577610867 111118675 502276908 744975059 128494417 926559586 111834234 690115550 969505092 318062433 895699354 231154703 743199336 685351451 708496036 969552585 561198929 564784768 654433766 606310254 583370463 558530783 444893487 274811047 10942503 209115325 361463856 166636987 647016587 901457344 538516031 485370589 617479435 461663005 381115129 51576970 46880781 405663377 532421985 847024115 192704658 538387295 96067972 390380301 439251109 690228228 449380052 721386169 295518678 226672708 923760025 116755770 843841391 658846444 955489818 70120512 946439449 222790264 176094868 62485749 492066355 516785493 352175024 650114154 61827952 806538126 594575899 220285267 23818155 4608502 59904995 659349772 47496499 673805212 624494479 366029464 143894305 475617312 560307226 767358536 199429421 663140951 680033366 327676199 826807017 753923055 503526320 17878198 181382579 667005963 208256671 29674074 177536025 656782861 463337294 679027100 325951373 417926161 884380797 830109493 580290213 503799839 241119518 457570781 338049369 88335053 686786664 281496976 806551515 264789072 35361420 37206938 631614023 304173149 588001029 225849273 798168118 809309158 741836835 562479204 863437289 940079799 644316238 528620106 750150027 942328280 815463004 179046966 418423607 766392035 41555720 140651258 702352953 95659176 479559082 705464198 421029663 206494702 765393998 246752246 439933702 629995417 843308529 49155494 28431303 383347181 304951520 107535554 189816554 206122876 684236305 739194568 90304658 98078453 27252735 567628843 149655454 949201628 407228651 447137778 786203534 765216787 267562110 243547575 245412379 859853607 930448798 157500028 119064475 283825357 750105348 776909628 609629566 303020146 135677510 257866249 574096044 47483107 869579449 146496897 674137997 185278177 418798907 43095575 947448357 71516818 193886269 967288580 458216219 671227988 241646207 243740852 752738266 538372647 357715058 935727738 489818613 536671015 721472642 682673611 459920388 243814214 788044366 557982176 788958279 299591214 193647006 820855404 671082611 435098815 379247125 133215066 759682462 755118073 405650072 903586837 232777613 85593326 968709698 743379128 898600320 867079000 783195647 735769603 227918660 642614029 172435546 589385949 260396346 389764578 809041840 524268871 666687071 902924306 144676765 344650613 309892124 408173606 225364709 655866485 692480480 295994341 788497968 283234726 841994481 48358236 8290213 444925883 987158198 698614105 739692075 686379251 790717079 934184896 739438713 120137958 907122684 974763638 374150724 70302851 249232058 831960626 437106456 557845559 241720530 280928218 810941145 290563165 943622532 110905258 909914001 157773754 259572509 955852214 948912256 229778659 372190214 656558673 553041607 890367529 519085326 662010242 235210548 741515626 765430427 947526947 90924287 183228053 639076063 468439504 123747107 865098508 312499355 565948034 411938650 386801070 133998678 392998848 418978276 738056502 714956973 285940473 522283929 608435248 945795245 878505569 860435741 117239959 71000778 590426184 877163493 919854390 667881645 286694023 731397706 57679532 486583746 952724345 180791450 758633239 951492578 988877714 85114508 534685357 284058342 729235415 417557780 971994226 152055451 315527972 376935183 540490175 131568835 924989305 417880217 429408795 569120069 713099933 161227740 773199678 276935578 832669255 360028436 63981287 611185855 540245881 15757222 120633870 836846225 326818666 428266280 542343652 948548505 485503636 178620535 846122558 519074828 863978473 718558172 691608431 487909109 97249350 351573825 847249802 280360059 977303047 817686701 375204162 172744759 599359314 280097324 306671210 46315 811946772 582818181 300303983 179713932 813456810 995161344 133005485 449690124 796423774 559408920 323710440 402844985 146149031 620945952 879201427 879831829 286944916 206864066 825526640 692299955 833744255 230929281 371977947 389419333 596702753 950146204 296851128 885418628 419711133 283961513 722146592 251988038 774914937 328609359 215176311 287546094 61518810 818243957 374622005 99185770 146374251 178001596 689848425 194243315 169549600 287268233 246093880 808307528 827953887 528869948 960831803 396930819 920150866 926630659 624180540 307884766 756842363 731171812 323754136 514920292 526976438 11245777 633185088 401043219 162926925 418616424 345905987 474540509 817298107 745871586 735240107 301555284 999322891 731205191 93947459 385672869 617436121 83401091 617832864 639322491 481939012 703798050 725975805 726389720 936902337 976658600 426461431 326739720 823967631 719154034 392523719 688762083 763924659 816869036 668829591 206067635 347925209 107417570 545748915 330439356 804503225 670385376 566503199 996271622 791568461 286576601 574698935 708893077 83245149 809549961 894109752 847161908 561323007 875824429 442918568 221164363 934696420 334084854 541498188 827403026 380070853 574843268 757115656 666670732 314732457 796265102 343658054 176235633 992346368 605323206 83341019 741549464 784881725 477689484 735348023 456482722 231728001 552667748 630239339 956486559 330829061 661142351 444003983 715677475 995458751 85188675 750373050 611836257 652070333 356932005 200946878 580585130 368333489 516042728 984955196 700841455 318013777 721154393 857336456 844891345 687600891 77570640 249615998 329986649 922722194 347554418 195917698 387751432 576635020 894037310 139851843 231396767 810588119 395216210 699274621 654875297 719822016 942414560 219771934 76803876 127306287 233811435 444750353 453077553 513981050 117476359 431481454 159844849 380670705 993761173 158243175 657381460 171884005 958564279 371026335 858664776 416427658 717675150 408088481 254382583 623378222 934468838 5577037 567860281 834713493 585932132 544014784 50881706 121686227 435085663 829193092 227939859 217472430 576074077 822516512 708073070 919309845 450822739 993968037 692947183 344613437 363608262 863845757 385947490 674093090 241517487 564329339 495599890 963449640 572470558 234090703 889835363 854147707 5634252 948343541 214291354 47107118 794339997 110217241 918094717 661961905 663781391 789103599 71319963 235532886 397802330 160538809 774353462 565886943 476114826 394562681 888532381 255371937 720108802 611809999 243286474 681024028 522421940 840988718 672212706 897173421 915053380 864898517 524439611 460364831 743219506 498885360 555515486 595404216 733208367 21636566 284828752 601601358 563157352 317193428 445198106 248113995 140553874 583711058 464967423 582576741 710418208 288691996 642177022 97487462 888377832 742511234 673798329 79815901 150729315 685138641 698134159 943776988 983664942 338813965 220407822 337504838 297549167 182890289 485045878 318338202 797199343 440161281 246983159 931222071 685162402 77178280 746641359 907027756 993414873 133377363 557231424 686507425 271363213 927264678 491587986 757345781 873058194 216879813 805763463 532886368 348201807 376054492 397651654 295970821 638944568 576290184 71996089 351462396 851011734 160652350 888665369 27788661 825052604 785035137 141088887 441244714 922232614 231191781 511802342 841403052 687465443 58233687 750290397 555770437 583239258 620154536 739478222 618899958 526359579 210680426 64552560 965132404 927819115 768297075 153287055 933098606 923693515 971620387 465988442 730110850 606082832 857805318 927560494 251697117 601145720 125845964 662848822 868742346 143541332 717697344 547019887 668837492 978841629 168228724 134701391 458828601 663483447 814661629 278032293 765178872 741117878 220732256 513477359 879655338 104984365 883082035 684113397 150857795 866996790 534522304 986578349 934086767 12157004 514522563 541193158 469686410 136929873 528664430 613367111 622075430 631209578 526133825 75390094 665903548 854241418 436922916 462860905 310174276 977731520 977537901 787187246 652616759 451662694 176590667 158239032 862362984 685060219 317865682 675405094 30434179 525791761 470953510 291216802 47012880 151501572 895773247 760456868 723059963 767249140 301275595 781893660 917271026 164662102 951172200 151853294 266472186 969857395 20638968 660579148 981434032 956451580 794625426 500501810 405683482 414454965 933043572 22921250 238440198 852739299 476334052 261971814 619007341 845095509 628572735 972536886 855278669 152840565 656662304 562091576 338555894 107908 716457775 598052141 755668430 999544032 492930665 945390960 100846554 790432471 154151360 335352024 392034755 430756622 296611551 614646385 552321228 455199057 222133652 205932463 849367323 24659802 300029723 733420881 572586571 482082600 345828888 726348629 567653076 34700093 55383787 60081281 139331898 948896155 354718767 915797848 972724190 873945520 335712953 122085664 775304217 619725486 995077635 795762655 571812785 91782216 18195059 39724627 480899149 366404596 531881442 470290381 541948222 813292093 212377683 856637662 773745251 896861 208654130 980724681 625001261 436455882 700949183 992832128 686593601 908194296 69796843 322369554 837449568 608759696 455593684 992856130 854957583 326241591 131786241 324516049 930193859 721986603 252119861 637855924 812483426 275589171 337055723 588617000 173475961 8600955 441475848 1932187 978944307 457250470 405373860 908381977 987188658 933119881 602659596 801884592 177571208 800810748 515005592 751922689 125059310 735258429 456977658 908849091 245447703 274978928 266115329 11310853 382830783 8090352 482508462 689712747 269170250 655847005 863376969 48908304 359048462 454718636 766677881 834731122 594958391 584123214 158446069 460541432 196171913 346994583 857820717 948834339 127147372 650113065 562741236 548423514 33899267 178735194 883423480 273526167 830987795 449623217 746525793 481291033 335049284 7482938 435943251 172399206 996988777 651909740 82866007 98320825 629066187 915258882 653211010 728623562 736439676 191282538 199245349 918540767 772341188 952802219 343676905 253478142 29489517 496732459 727870806 988343658 406221587 540833486 547943263 684864139 757671582 243353419 197554534 726851740 540279754 607396753 273114966 969542135 755750438 41004900 449988648 242818778 870227131 892498287 945969512 234143057 160239377 112492636 638969252 586097620 205572111 577726489 31963522 787117775 588205647 511279476 729385756 260513447 891143506 668989881 223449981 130828109 597770323 592465622 894399991 945533948 512533489 771404108 779217194 592656842 286999781 968210817 436595515 504435458 427203085 271438815 175210096 26852150 568499200 145376922 128339344 224230286 998031709 825502966 541633871 879761432 93776505 110720161 603398422 536957167 736097006 687293546 486459687 102600176 929371660 675309837 972324483 812420570 406874738 682928731 381650205 860887909 33850150 651149528 617920520 354982134 250386506 503423123 796639122 608831388 955752922 688630112 941751619 801443737 24430858 666896711 9510628 497705246 266938334 884951279 264502612 95462388 38434540 781015820 789056146 942938329 232311208 254219677 781286663 69385289 761864022 637883222 393903809 980731916 440898969 772969619 394654863 238865951 433217644 220579057 400782361 563888035 796830221 457301210 566461153 955237595 44176328 285374227 928256872 593004922 85487033 340736195 72818667 94634522 348268361 965679864 363406894 533530871 405554014 118795298 953159504 654280013 937266160 101583236 296265378 190373649 736720428 8033822 654506486 232596934 624206611 519264662 690145217 928483706 598161354 114342816 508667500 213383394 230812848 24538545 538818271 989179148 27022540 689676149 914782780 121200986 603298234 842546345 940004115 318254711 423804493 257534433 340132601 926960534 550216317 604006184 537064553 388320281 20609845 553011899 505469678 105309292 802124357 724877332 98470401 68494513 403582815 248012860 950971656 135393800 638496274 448866083 5497435 936930869 291248890 560223702 433674038 508738718 691429460 105939734 495741670 732052396 937374609 911210719 693430966 937198643 411315796 416575537 480418799 54734416 830411636 263818581 333355996 826083644 529355085 597236542 92497260 544256079 330590335 825329469 262803749 491992164 536029092 528494663 960516453 667488909 529670668 900863759 113363751 137119059 660261704 704071616 76525501 685950405 779231198 361623690 912633254 944114610 638610801 697433635 519526958 351236518 709654732 429055617 201940204 784895414 603822830 809701537 618324966 296478519 752812294 6787055 103266297 503871486 176672070 197152151 302470027 2212665 866387613 655054759 893148494 306058606 352868443 660443854 634762949 896899520 668731405 830636293 329123595 960361795 208099675 932798147 954651521 942473474 313794033 587931478 688638498 843186145 785287043 838701799 356404973 293929202 186920403 303382332 707946488 470224015 335724824 134427196 662595485 331363806 483862781 140156768 147591555 830189983 748449983 481512859 518591889 427765017 19008229 309567756 635045332 324893605 354811706 327700877 142290889 900325803 119257232 671281975 982607265 843162551 809239049 423981006 300027571 166144778 716118802 842590833 108600804 934415911 389713389 929429237 225921692 666024546 269422656 212070648 681133274 891529183 145488197 393924043 649697378 724522656 771774234 590501941 919082750 306733548 174327856 39888931 264120506 619333485 718220188 181775681 150425851 919665684 123756824 602603786 836681965 745990843 337680583 900650632 108838678 26616886 924492442 130055420 980469559 860444360 470562422 356152425 115348153 795319164 726805011 856617881 58795489 95694180 498440657 279749310 543360037 38357181 688224604 342980032 899185646 651873907 253577469 334705534 771514408 367861047 500659822 157611628 415781446 757227439 620701457 309836597 522125853 282305029 856759067 348348863 203673422 780127566 47632449 800551814 598076613 50844258 103230409 188025482 992216672 380583786 5316111 390654507 496714130 870870350 855112396 34583268 551246364 971834106 851119479 408589519 384710411 838876830 649933379 933094221 656308365 552373621 577181434 510022780 548042349 302185371 843654928 362606826 702362936 248045148 512186884 346853095 115350320 808943967 303503434 159321735 259883361 534459688 189737249 648706412 291026277 809121746 522697322 905476057 51037178 94186696 293845402 910485090 573250950 486346732 111810812 581476748 333572500 518341176 125319073 139021578 580308568 436345210 892341871 928202432 309420663 169286301 193913929 527320840 988927789 191833845 643782554 988068715 865007998 316828856 138376309 803327492 410448641 226506029 36524108 588850923 329892108 946233472 497941459 907428845 704320956 517223749 140256790 154913679 686563808 742832054 453589146 895053046 194894163 740090547 555577294 707941296 602953717 366915495 204579527 612769885 682980039 38891770 926569216 347780572 614363114 348138488 905641697 462768772 329095818 245065732 54683029 737209895 298763166 681191112 150389954 369203574 485368318 89799526 232787281 327522823 504058241 177980951 303019463 367259764 615596188 634827781 521928031 984593704 747306208 465931354 616866770 861993249 48045974 751589530 823083835 202010455 22548763 684220168 659949429 605268252 652516769 774331300 367597553 684206313 300841165 501932027 254773685 78338656 105860430 452068756 210732929 825778655 317291101 541688909 493812693 839013343 214458962 600674873 24750751 557181993 646145573 112705671 891205096 788402373 213851815 81170601 68758377 13239576 268897380 421810828 904777317 614170672 556213607 230330854 659448297 918909535 458299720 112948300 415526769 355196648 548652573 354926985 308928958 325647434 566045725 299213252 653183564 472014049 444447657 750093682 704129567 613413918 48760634 58079996 671495029 149740387 760258885 817622718 998433280 829994630 6905751 684494590 237513513 208579348 905420060 460741851 158285163 197591060 62641307 599774718 70447645 263605761 378169483 216068269 951143274 993660209 433932289 32417366 570076390 23218816 546082225 862031515 889040399 332842979 485847585 671154623 363870106 400787170 409872657 675073993 181715561 170147098 761337954 757342586 885369771 940666808 915286272 388515379 627575351 8404728 885270266 102956406 417999670 150282395 674942022 500444802 896060565 361482121 748700894 849442225 845205186 848420405 526824239 229494505 272195618 263926195 868480616 974900268 775927216 493296524 399248258 680392837 220086909 474266408 372774033 123614032 599742055 727562924 142598827 872052300 438107288 639933113 431079175 656790274 189856282 733678952 422093952 884779776 643300490 653710731 443604098 813469037 684910882 684961470 484771594 766274380 423822449 259608529 547079856 223874533 602685235 759497119 598007466 560864696 77092303 581706577 854637536 300824448 597916262 68288864 806460681 17251120 901055913 752799933 259070635 706136655 843897243 176639106 950197577 528372380 880303337 171479191 759052708 356923726 925470197 897779034 210785468 763440411 327767950 816180640 453400640 106000994 310832130 384376952 604288949 406084810 560447693 44614293 462309559 973165453 894532674 953377104 114910853 498676603 115960420 418282318 309922792 594680405 531656669 45524045 750595915 633250643 628126774 658476440 797184725 972855048 780740177 339989147 880437392 821652816 330456533 984343148 661111070 758628594 963831969 988911037 400578274 457592128 344120670 438517846 33933524 626472495 576956880 773516688 59527261 273621294 420065766 396861702 223200775 664122941 244389716 64577389 134278332 219065319 503080686 960362215 66934224 227839067 352698513 437263930 220957993 355501979 918784432 15963703 73574879 727143529 789691764 366809611 108202550 392495492 58692097 882342687 220919967 490969936 7910835 842395753 255049312 703340109 31777530 836327514 250172428 101666411 659535632 185964565 985898763 915189503 84107910 796282580 36759714 769308336 144652730 631580138 164287393 951722203 153636732 818545400 812091295 492233183 822666037 623682078 318992751 831851555 419434758 144222644 734324220 813532476 493483347 563011217 693927007 485663071 518425948 847378178 272666584 988987472 828725684 758680203 749017600 72233534 579196091 14263814 802279361 625500164 255725964 412362500 594704843 472503164 247466174 939098940 210540469 713260905 689044008 149519913 590288732 787799303 282092309 989744291 25723189 849516106 796275255 865777931 945927460 652256077 585881690 498247705 509822675 152268984 50141576 767811664 533058011 537819876 194041271 145860195 774296118 65994376 439968940 796834363 350021293 658162646 268617425 706118989 663816982 460224708 557525575 964011118 640017829 721629366 583765106 686722146 418589045 259231996 793032207 727803963 474383547 541085428 925790464 743107268 418219489 633509918 661664081 11134485 501533006 22493550 628065074 163787731 363241447 272191755 627816953 443498943 145870632 746043407 27627859 25919081 551199897 425495899 110206943 280121210 732423730 152007561 624785208 298001008 559877141 179669404 819480849 85145450 686694060 297015389 879930830 76126207 134952401 355809669 347698470 611629293 522939228 770520789 756334416 52510094 906042363 981953927 737761388 481221324 876299737 774817317 233162555 876760680 126586630 992511944 670726065 85513897 769414578 473014886 154995070 711021925 795622595 899849959 601140273 322375710 127175542 378872869 451205105 361490877 255192780 330429233 996245443 107431892 38390774 615656766 392666121 5927797 51371112 319121592 413846195 681450435 205793466 280932785 755318801 318823353 53591013 853907632 300485756 529862320 348535310 70479226 872739836 791348872 497668480 919598420 953534222 795742441 633014721 838267420 438507676 685405486 557389646 811093560 367824805 269981854 28464162 327577657 201889117 697840691 61330517 892257305 177517583 879433522 483483128 832506083 617844913 326057122 96803616 342972385 155375968 113948969 753947478 785964979 239146413 119411074 883940348 746684504 706378836 993709940 349962901 863502968 244564923 330513125 924617008 427700208 396920338 447085921 520469326 502839493 764066969 256400286 887415951 525637704 705569453 930622198 79669856 972899929 744296311 694669841 655556390 450527115 491573437 987846218 168148147 2195568 230630945 613455679 630608384 583062444 57534208 969783852 253868439 144173641 502766802 115733504 852295240 15697469 174305919 391927714 367336024 637069053 18172177 571838573 427396669 125321239 330843977 1829768 170070511 384108054 434992755 989280332 285835723 558170821 85483034 54569726 761740766 429466953 431913269 622969451 115418599 541465776 52889500 202666431 654304974 626946029 723213002 32934874 9779097 460700481 128964570 399635449 21532946 684562805 624505201 655646198 955568849 957627656 867672217 9931245 933257988 734217697 100617092 764063838 766937359 529203530 313346326 644144893 715851586 851370503 666338624 602882832 669593202 518623862 25633228 156412225 886102724 728750472 165883203 337554524 809938271 754307423 73754935 352146235 964835563 198888165 645578569 697244750 911086176 441566559 622606130 359891059 490583855 121404347 938930385 392960911 684402645 67076228 919636354 483539626 108188032 232017108 494507541 80806916 388674107 63058439 739124121 351207864 510597766 486626042 332405630 500389793 944631629 998084308 700131547 906281046 517587027 659700284 569660036 396472186 821796376 456037908 396477317 664769654 302789794 826901846 709603200 549057480 133451644 365150340 730067697 297046596 861121226 185164876 425346498 599562136 375011277 317271627 181423571 469413867 369504430 738298211 466891465 147995092 785311234 342436120 748886133 970506646 279857717 276320565 457116599 367390789 305428341 380146497 869957195 33646818 24807227 198986991 261433378 450544249 277326368 312852192 642976467 464511684 404057202 646367267 378601783 391326592 650553761 726854121 295439053 797007970 593799515 783092507 381279567 495109954 305753720 516744547 574296150 836396490 415622436 974707539 459126528 148916028 943734110 811547100 346554244 241102306 563457272 925065036 401483351 12986819 694547648 718159213 201474748 566887998 480625230 128695477 401648124 625319744 504456589 54818164 907866727 946298704 49559082 304907588 482753626 187089856 633824039 176651805 532210402 876004959 445531346 920254467 528288070 370009312 103515541 92572180 767395380 303790680 914806570 648411398 536138999 338242310 585857225 467434008 597166488 706330316 404385712 439892451 173436295 921682222 89208239 375771292 108066479 141559741 774083445 986321991 215215319 205477373 641028931 154785446 513362957 456711484 172676868 262568169 317109364 630442575 662856168 368868855 956391678 355107473 268170581 660479584 404545931 72599134 873674906 686533561 81979994 325965760 773362794 187735679 713054627 948395379 374596560 546422156 834321934 689766826 653770000 687310904 367206522 707343371 456986827 10190946 46562598 7560395 280745002 278471823 822922136 329142489 881505010 215561482 441990548 635951117 281526313 20859921 393735703 669668156 194536872 441849113 250003380 928914437 562003723 404990199 431992981 503208678 943409643 75184182 498141891 813908951 943986156 213675975 935850871 433951623 537646526 59362456 526323337 664870191 829544436 235898352 539557535 166474692 207024815 949813548 579760522 345387922 361482698 976745856 989515412 286727948 401284623 323322097 208567151 969278199 705857776 449474889 271559247 294403111 727240255 873521577 914853820 924977662 405286600 599320039 269939804 43437965 353683295 81269451 484697750 91684744 765834262 19062057 587337694 637482089 679740428 121932390 289458706 470203800 739602426 405935164 322232204 193860883 438031856 912157173 581266592 633917350 490435626 445230212 75067663 817843784 764636410 704646482 802478460 545617871 791877637 944144371 655463032 21339423 66651513 82419707 434762846 791999539 976534529 301926165 827789130 97645191 286188021 645298368 880065571 158309568 782925504 882090432 801628216 364560646 854783062 387737211 21508952 989269333 824907500 393601539 328400203 456845554 401272893 982319208 735939430 943503505 243175317 379107393 423255002 869105417 374180325 381977840 765855973 339831434 967584582 669617037 992354331 731191568 950459170 768535257 78848260 102541371 753076690 557085152 897088284 862968428 253087929 294190518 354832675 388998303 688461371 745852670 894175534 480226665 635468122 536214195 391403831 822329407 812220004 437207927 426168024 207077743 987626323 229084717 640229767 972171984 763767040 123541820 741016811 153446196 615631395 367379920 332014643 937959571 685479542 636095105 715998202 255874237 495641 322994935 942910308 389369550 311445750 309585892 33688923 89344383 915427279 664251840 850246460 598598090 443600797 724028386 685159097 461948561 311236890 546789273 270482186 940091316 248333033 131584292 353325618 863403905 656908390 913754228 20104025 50474165 943628935 54689124 780323952 189850750 686782465 244272959 811263658 499580364 778197771 811583115 255908558 29410719 657326310 914691290 671352408 688348905 616279046 576115981 956821821 211475780 361220803 122747158 245774351 688474215 931420282 384855910 183751629 822503216 623639432 588376230 290194720 468205248 58169238 146663824 992240940 836773125 403281386 531359793 428056222 888940910 889864583 467919781 776664534 51502972 497311667 843227808 6120798 846247461 931359634 336616100 40378526 995429008 411762586 152450130 520201036 965846018 842314203 438137973 478142066 893584452 312504625 499966091 928027246 206513368 69101447 172003732 714456614 290871453 460807958 215846466 356512607 421241283 185412756 905620338 4167539 582857886 69579216 160342611 555566277 505536227 391071639 877746581 26949507 664497732 940068212 979376618 707132138 161093435 908468142 573001320 832676474 42823216 891343754 320604434 612315160 307105103 813553021 429966154 296621873 102500230 389663509 781102024 891297395 564107600 231394099 342519590 490817434 219900745 895339819 811699587 379011766 786996018 120525310 334280214 805214946 121115024 209320568 333302546 572590926 153038919 871726859 459114166 877688124 123227129 641093837 709872039 750068481 7307714 266452433 236077817 522636753 546398255 952434949 36246164 980543573 790588774 534926074 583703148 783750317 330231017 330078287 505409862 3152781 256575094 713431624 48723495 383350303 208827298 25107219 651282372 766703393 574298943 906033057 108979704 523888626 466415301 972499512 936289949 665966290 345765407 968688920 218577448 584949095 56800028 23522242 381884834 467042826 537253907 729520576 421816548 317799642 406698113 68772558 535394180 853326855 550190123 313792372 731027172 810847390 21165843 147881568 277140996 865017217 157787671 845001679 978732967 929842330 358628603 836481376 119531675 976228938 44492565 256695477 394729917 742969396 212219096 335307791 923978542 736553824 158551333 331197818 109531581 988583146 385325972 193968625 760984446 338309389 878366797 985224873 189949018 44903360 879591667 642366393 460468298 843904774 29856949 231558728 228654764 938031728 856295867 670660331 648827101 411743846 550710642 281157859 669471900 617718537 256571553 737167235 621597516 231352653 643358682 834659329 264694445 35079932 636704626 142726151 47364541 525607768 965809435 32103729 484457682 856330938 716405349 509551943 892493426 147105291 288582641 673489607 172979249 291635204 493106119 880154406 452112114 893021555 842011878 767253504 482644057 719174637 408997175 754100196 699862177 699340284 924158534 636614914 286295228 525871911 42972916 745588677 830333797 487536254 388140573 351900438 599319304 890268312 426230716 418178069 232708221 359235638 259157126 423400592 308871670 851571064 801525045 942855906 258945293 699688744 479859187 351127275 990902406 390284141 903387658 571895656 13071411 237826857 92022108 276737523 253031633 143621817 831947650 206731023 500447523 876209766 813039243 124125724 244521043 399038652 520683120 122075889 364710425 10406950 659058610 467529661 759935662 828436100 435600433 180444567 354753614 994382827 330862958 494726847 676423506 179921868 888123214 35817125 868500164 806043694 206741510 918625916 726476742 966154383 432004704 977039355 487201434 689740865 724046774 956632736 601246199 257014055 187038228 582010779 782059875 5473742 796341019 308158179 955479901 58758839 454300798 789550674 999007867 599542788 852174610 232691931 485844347 597421003 825576029 262601510 768329277 814679972 70661571 308098953 102130128 476375628 209916527 366339474 83673140 898794327 683250908 720990554 122355435 266455978 148005448 618959345 681341406 884209039 505285882 15076449 574358159 26497658 306661370 480497028 127878670 762774818 585199245 990489535 829787534 721574467 161100828 386100595 75943835 604021266 223437995 623708621 806621899 346588746 565351763 365501095 475864070 810699184 626631121 918899027 188761138 47564368 726432546 389318759 603167841 819849032 621543566 945774429 506507653 966077929 628282316 470498324 584295073 24572706 976378721 375994977 30795794 622219498 920495917 359106455 194598584 233497128 337555597 654843836 275779084 161705960 178924781 393669491 841962876 790759077 74704026 963429676 651131598 220516425 685094414 964544569 40093522 354530123 387587977 587539179 198234753 784533577 739030985 827930460 545273627 758014856 986667565 797101827 504126220 967227600 383640323 923317593 268459196 178334046 387183886 352888247 423054897 648256195 158935315 264944248 242547940 439891739 680589840 183855985 185976026 330890446 650378773 40325540 441081617 72788347 85463495 945924136 955791010 656448391 804675549 316495304 836956327 265678708 293486099 240406938 180997330 154540488 387308394 824804962 642835737 212551544 682910509 282447442 824609019 766437820 926849995 570999450 813006150 418783163 432766891 901999410 358174634 710323873 249538955 269998364 812701065 755750258 167704695 360338538 972951766 812242916 693783584 435446391 120265493 608417898 583397471 875178036 840091427 739879742 102444207 309858784 409024853 262286435 313608559 729297400 518131766 779331922 933110783 744830499 684058041 302835798 845453447 932511840 537834829 322885497 527167579 67283202 627145360 645562909 579871005 756346672 813483953 126708884 753244570 699068516 503484412 675058182 919718205 7174341 748662714 14703838 779615181 328487397 79229183 594467206 27224299 851764211 478998448 899915381 292516122 567195243 470924426 62554979 580881695 908658660 238091294 600354885 429765424 413297748 59496822 417515512 339850829 111321696 679794068 604252839 521769191 474540970 372717457 170248175 49972812 420020738 416039680 53152978 140947059 301567927 114199027 185291912 522987349 636409634 985479893 683673171 408234608 36322954 451628293 811928091 37316031 240536805 333578175 746842746 667880627 491135943 38752506 206512121 891637055 764741224 439722466 696308988 669330248 911978993 482266152 340439672 38701571 490904571 343381289 425353279 755101366 793835600 100197107 815342412 272462570 394214976 729706539 740009599 823433517 758560345 785614133 920612629 915182712 79261544 890543127 730594671 901198187 91722881 462738694 153681559 179093487 561672939 898533214 853819720 606080993 874855040 617751591 94402128 868366545 809429935 721852165 684698800 599055086 864717646 990989894 578252915 310795538 881272517 221464784 114930428 572849230 8180618 475235139 44211170 298184432 649429917 376152302 328945326 652064421 162567786 776247113 192977786 139561541 548781475 734945228 845846732 446186575 477385734 533887978 725330970 300296814 503673654 789529077 561861764 617482241 773456109 560018390 775297563 889884767 745679391 1704341 877482317 260054929 189362063 834276395 375209310 192800911 615378784 84523599 633463552 334403692 412265004 455531234 866650195 664355757 902810540 374503576 426391877 603290385 142984988 229760098 363530583 853359448 507252553 249799745 485449534 506081393 17220964 29929835 294860181 743297766 530488587 67400121 795583817 950520082 838308042 591674172 940723721 290766966 607521848 309327133 442189685 832695968 470550920 601467336 616673743 64717068 411707232 152031773 378289667 599853273 685523724 520871982 105265192 213648753 999441732 994082686 805044924 293577779 29784636 771164683 355030868 469795678 561085936 121830465 389537700 479753792 885045155 2137469 446989791 508443248 396235592 420285043 810735266 917405396 318523704 994233414 487201220 182396838 150821736 522443964 825825506 234276820 973887112 618770082 849229379 694732330 99322158 461394133 789760685 821770143 352523308 717266222 652822409 753546415 167412789 254241049 459232561 64618246 281431350 843878070 61611275 147753771 963473727 277629423 614773946 575584664 924064328 974981590 320948256 268036405 305402819 714874826 873800341 665512151 304283447 42733153 842419810 640799057 643289832 482882749 955529012 134315932 677878079 450756086 113610659 700922124 429616254 459759134 586683774 552255929 482919093 77600610 423407481 507391097 638601622 525252311 497149183 345398928 142243089 311242509 873222517 727494189 909016755 370122161 695952184 19015728 708917404 452909088 155730202 260252041 137406646 27083051 699492606 243662041 115100295 807834753 51635590 833056825 785982790 305661306 878823784 662819867 161798671 705277308 223060533 973729715 317681447 904802048 668881113 700667244 828177757 198899039 732721928 881961860 95412398 615321206 472004529 6991585 639478501 903363211 637062931 876062607 377718899 981706047 747424931 71532613 795479218 250036518 115692262 359793831 116263206 425756933 576707200 541119013 932161864 183990126 385931391 449923966 821647328 874806235 487625515 596957229 894723765 656715280 602092074 345066785 445252922 517772686 47787428 448821403 347329293 355825668 15652902 69834870 54414153 785345892 976604939 389514486 791319184 160614091 801512954 897702289 870608247 928925591 612713347 897478738 684089002 187207390 285954529 134372913 158763617 528865214 341698081 265524384 982339749 561086525 66021957 184734601 224590080 626691547 600720119 786293769 206764506 448784056 477814380 553246873 953625428 586738008 929348609 117863133 792805312 674155850 716030719 621097496 215952315 489425813 260155695 661260392 563298514 795909310 203108420 600676254 962866737 944936174 89989864 920905778 351730353 487014196 186869825 346387582 373151234 521163046 70558358 21128003 344152759 808395392 345795420 264079845 497736654 484492416 492149432 645596913 585606401 63456247 471931976 413300402 3565634 863369809 164872043 377947141 329499077 457687277 473875298 299898236 612555398 797179316 729363431 781591520 566649453 281821527 369221781 484860687 598193128 665094760 49668640 559269093 704512663 624643731 990295479 121314489 371885779 333606434 587574796 435192451 132529784 976648567 179876960 391461881 636266669 683846895 263941355 171195544 305592666 365618818 449827394 879770065 526512226 862243215 271462082 888014265 118369496 608072093 516416776 880138707 169819211 903260350 708245267 635896243 592518457 802561233 941669221 73258788 208708836 1199540 691039939 754485750 783133114 659336152 849148566 372031379 792528167 814166873 327171048 93518088 794141410 511060988 677806049 813701851 305332852 975646338 973613815 477577924 689652611 976106360 490620657 479980563 915799174 487624014 673231146 972587014 950345329 670783302 192009553 103331934 862386572 837423346 482383848 890459181 139585057 388729517 783246278 215374413 535984224 746446080 257597713 69767586 321030310 462576146 622096642 993805470 339822009 863463453 906068223 365169066 312120150 362191922 423955093 38131294 962372110 800370998 920324024 137343794 876300780 86125498 256302851 786432055 19933469 216753832 550792513 972416997 664189384 790702207 82063528 881364387 258375003 679571671 738783522 958274151 520619214 596847298 237232638 518240740 876968564 863001666 429991387 709935987 700746457 581993677 747163169 590406841 158531486 778856421 559303596 355466100 36809119 279070814 139191107 124040720 201513081 452918123 6008276 145728494 708936885 385475872 431980214 379033090 535980422 874727476 678613962 585112381 759397197 200156025 312069860 23486578 516772505 235572717 364822521 218995658 923366431 119493848 808924266 81555229 435581416 430846836 117700618 575356201 263039691 142563857 850265847 355348197 691704168 95863710 493235934 513044147 988775118 136472226 278483030 520425202 499954661 220064726 72156471 641793186 478541353 723707816 397981009 285408862 141129872 314774368 465843504 253061610 185156633 521621985 756452264 881458332 610727763 849283772 497423765 950147781 383647607 992516741 202821492 490939435 733704050 162619956 311110671 139145750 95766152 254539992 146693472 594614751 61692814 589108619 69633989 355559661 770734043 321627693 580800160 742639217 466983061 277921996 40156385 911946651 893292349 216301190 741544770 65427258 18697278 115015582 642868501 945626566 152144418 902997383 405210631 644832007 966327102 897826349 662747247 91881104 703472802 811366815 794071690 842194036 220444187 368447741 405501348 205916414 11639172 294415789 730078291 279544233 774168274 253948011 674618200 701984494 522797863 366079260 59109967 884838008 55781765 653778868 323530460 446002756 348561786 476688250 784928003 449702725 742452907 785862032 69055870 749715401 876269616 740305058 710526342 319776950 422262403 921736828 67099442 998641861 829296566 727441082 413251964 343055157 119329656 916420813 288300511 302060261 799574264 639922677 763948695 248817376 792228044 155384126 763370127 2017481 83447923 18635837 696386993 633167566 811802715 577835802 330137012 810105290 145917037 217777923 4572742 871364217 503068558 850429652 73796404 769542494 786268666 439863166 966056865 321771304 728342982 827189361 224049729 605092419 223385211 930417218 143096921 829651615 699537389 863321210 293359434 614870791 57679281 784532327 715803751 184620305 528459439 679468824 722770534 760563453 447759975 660013427 356948452 97642620 158299183 191463109 64754068 337491125 36953021 479453900 235677973 238227393 993241346 307314664 47471732 845253458 785291240 29578387 415035182 19415224 173730458 799919664 22024292 97798667 208652326 234796089 554622490 400093382 932574484 703176121 638432323 750399403 919171309 413107090 482800687 463329261 731868778 409679759 528228827 163633152 556886418 379410656 419819689 939491549 899253890 279503147 365712239 968948583 192974261 239350280 229828387 413621179 107628629 318712941 107449697 48589536 216895993 977872130 128628054 4535418 385009482 411685150 97163994 478040438 286280408 998982766 735070536 319590346 126646739 557252901 545121094 289679267 280633454 230059511 392160889 590835569 516129929 693716615 186047492 241372551 369154612 168434572 290890439 86574558 844546184 114707660 919348431 537471838 248018495 723909603 480940983 822332484 339554404 711457488 687123082 317951282 202344559 347408629 717077671 24520726 719540095 630094362 561189523 70451809 295545690 262903799 888167618 359982034 65697420 762031464 985918874 966403363 416354035 846122665 666181879 665121900 959931647 793940634 682415332 442144436 827343976 500425519 833028808 812832118 789659290 566137401 443836983 504323692 915681820 714225846 768478045 670342599 427212387 947369556 472105681 842779951 376503328 705244238 261592420 880906860 101824553 493911382 549172519 976313570 980064797 995778114 219537050 671383225 207950056 712559480 670346297 161949546 559442932 663192191 631499945 260499859 455717275 763459641 207164953 493764953 995201412 149514977 762812284 353835520 398472832 297439594 543152156 719858800 466663069 44443172 195222863 847981750 783935863 979492837 410253362 335070266 17512490 201603047 448737964 289436959 957370407 89224828 946800665 655696683 703631996 861716839 892454544 22492855 277690631 439018062 301492893 592288241 381625228 156248292 869933463 138491637 692190666 749952897 6464317 30392383 732906490 146917245 922663440 995791488 502857104 879838322 325028263 145703880 121518448 444983591 762094504 545679417 711037983 927571936 430431744 712768361 555511715 933072088 608860525 53024003 55536501 253058548 703187220 902988368 89334013 409824971 480942017 268840206 895647177 976499325 192846120 343503887 953628619 530004499 224163793 683225389 733944449 31869705 151529610 76447343 531116437 664960882 947741997 229053226 765677601 154548211 631015541 913377683 539110245 161604949 758942717 137627360 201100359 630575280 107914833 405118038 543922163 154976741 558693663 554782583 411336697 292606557 862035519 826556769 286777999 725081422 845624406 907251434 262293241 625832781 99103739 811117108 931572675 84866044 593464987 97856155 439965171 223254408 937846950 989131799 106149392 183413970 168684693 174552574 495810855 13161685 260999575 172438202 377704041 48116460 951683563 492340679 819301895 904221810 808152548 366119435 630366664 678180809 531643707 502706999 315287421 862734598 412733573 917662937 31315017 503487583 95559768 921800430 790798672 32737774 712153947 829976048 514366635 294461536 307593403 476367284 991117313 727373209 614165607 484597571 542907776 980440111 881974958 988982680 891690237 545905923 526309517 659635458 741329621 222818131 201901331 206019139 661458510 949317298 342733543 994820778 321635311 503164223 390512731 310224486 974917773 456649631 12979353 88204463 964820940 185695678 982938651 926481774 214182707 923593761 411417383 205062939 787616114 376251356 983604686 191295420 148386652 310053130 651707134 37647507 316316949 336271969 685253406 581870981 776957524 569717194 805770684 856801088 435193341 318872043 196152678 453155479 866745732 288379090 593019816 937029220 558348175 222250419 583797235 213535712 62833858 159300404 804098277 177405113 616609072 53666209 49770574 113298126 317065320 808500818 291742959 234471806 615502484 704350836 972670008 686597342 263210226 108115080 275392255 74190421 44686668 662574418 637666097 922559192 936543254 152782880 793140816 953159041 73622252 590813290 697333621 276320078 6946757 719230204 614745854 704692934 991984082 639551625 213393384 819623213 541408213 153893733 836041681 696610218 273463748 51335983 221811717 94588057 237585658 502261136 108770150 516979533 68472844 939251340 460524433 274276728 54604651 441376217 693272951 365552672 118192724 449840671 215736052 157337962 897999573 132174738 570774421 922211234 869866740 945926635 764665691 670219668 486611148 674127459 257810332 866534257 276609535 304890666 246047574 66592909 240686733 273502105 573778431 834668115 466319634 51110905 912735644 893596252 548534075 816282631 255631098 414463225 796658245 923502064 946404708 787019634 169808250 752140106 87842424 12969910 311301327 921352341 942111089 655656931 831055017 609167884 673960466 705033851 826691926 817873525 673196213 11201717 623914574 487058742 936475569 990720739 407365077 238530855 226302850 133624796 271232829 930028750 509007175 866428937 710677813 513907498 675418001 202345586 844499507 704891662 414252244 893287796 463675112 691044086 938308809 890693296 224102955 390118960 813135415 712883607 344162222 625996379 601322351 86882122 319274677 708904763 169855615 875649709 314421296 303154803 850495049 160791078 263352424 447591025 49038851 780665243 392715527 760999330 732483220 555820302 896610026 393667522 256348113 526340411 403667112 897276318 29835267 348145366 978141360 333975210 175064542 90934119 478518884 99491396 179510589 909098719 169298410 527355650 804407668 61718650 651277886 595107701 275400942 713291255 881403785 160600474 403737610 762445010 440171289 949165788 715786307 875602055 458257412 566510256 646850182 505198850 812237306 669832493 837882466 996991953 701247153 70577441 530368408 556988612 63205426 779674504 712997717 512423042 616689130 687357868 896324010 660997612 968611270 533068270 620556807 404914117 413426167 884425111 632778017 372265956 746080255 54857732 349312513 438868655 638898191 717880789 736832248 766817712 815525278 724630118 308654693 639402660 12541769 505361308 568450254 128685868 229376279 524390339 216004187 330562841 489314977 363502784 962296225 450105112 899170651 312006174 927422283 167634031 527585567 278328845 315717726 269915854 999319740 286129940 121633765 61617826 617017315 188764621 750075632 196514721 613084922 227758917 883160539 327430637 385642433 207064208 329762641 530014385 514100301 850742046 765839647 886264057 376808705 262910832 125202318 263688740 240199237 967034271 125265202 139009890 787747306 638128950 288863861 589919455 608515125 259917989 318907177 915077126 61843628 883924587 162807302 933849577 780906514 518890964 326100274 43526292 509057597 858937726 756690532 828847362 143419254 681165361 861157621 196889445 570893456 2124208 751191829 161922560 842181076 553907457 636733629 914441953 96027678 334267652 257964247 873934129 320757927 181691378 144678892 677980844 289501753 421922571 689264510 142721311 210337053 531844560 12069676 865514437 344305621 545166485 383222919 757629717 944524965 208484722 492738878 647703385 511886350 699049310 239341918 203984029 799647015 499288638 623858342 428216694 395212642 598866012 131489767 31834195 973136638 940647328 213259612 707462687 890088741 232819153 355326493 657823942 979600063 951646094 102635112 331293776 275425236 336639375 18424608 350110981 896897013 103566504 702925337 215808268 120446584 545778827 192375341 900302249 858623256 122075600 336839398 877113194 338792183 473226890 29419828 588959126 313176365 32035908 184199533 80051198 877691639 490755643 188525677 803260402 310984990 186821989 691434221 93353404 105507186 631360524 421527119 997468220 937836509 526196243 100249612 631020878 713541075 93232905 606265199 214380224 907074248 216679254 607443542 759678708 624983827 585872675 580454389 401146228 161749786 52762476 659799000 435531548 630244118 302882734 137169004 125633860 52171458 881077842 743671954 906369692 898882432 761152433 756065564 269436556 322266764 119069760 798834375 857846093 615048936 414791365 248022651 550884058 21281376 596021676 562717415 377102425 663063234 332716114 462169238 825381285 84984352 385468165 752307644 282772421 770860234 840565595 397391818 920789025 882840475 674712292 668159802 980998598 101740636 895241320 443596341 7629285 929714719 38892728 550409677 730318885 100975008 710252542 959900111 214183123 54010157 549258017 818298652 48397379 585742128 885439533 287057732 689646377 977374272 828130117 467283278 329729001 350936046 535201317 835774572 105953461 983307863 858995979 338702638 363373604 162138999 937562396 112594248 301327227 892504150 465370668 807434550 965521803 95109591 216059062 566839752 245579342 572008845 65986320 627100180 673397361 172607546 703651725 388741974 131391370 351406365 96445582 902858307 194350535 651223133 830117777 290692384 986403759 122929108 276011051 419994173 303473354 252502750 666684680 832851317 752430382 806465121 863014305 863056020 503576773 589952951 990746295 183337631 661557529 101078663 902142053 676993396 967270494 652156298 630296015 1686482 445705400 401868653 693698016 467715662 331839788 250838199 52244579 944521492 17141448 253504123 785099867 512143602 795356383 71312914 824376641 389943770 922655173 936904918 652921973 181027627 947694985 943992086 549447845 805044861 884250379 614488575 605582138 134651179 758427060 288482523 378178330 553788327 414217345 349276718 929168332 887255561 103261243 294743341 359685816 863195634 627354562 424792659 830468421 864365824 128373037 639754942 416988285 114708744 750018306 702104647 620423866 498921168 812758195 887971966 547853484 463189363 528769338 716159086 539513712 582757057 337722006 390224491 334264858 201622721 586964051 140639264 717781927 653664242 861181671 631270994 595024813 56538691 652635348 763504808 816133155 249090890 120889272 397267441 727022565 930403928 60564915 439781246 468896239 177040141 702763894 719136764 591229044 742565279 818636397 80373222 21329214 797193287 84434812 403916883 246839769 349487950 974345862 725361710 141625078 189794210 983662290 704863595 356638512 150358899 530459791 922500567 334627390 443559029 350168868 525635065 788634240 826246640 272926334 186728909 697241538 554331875 405526843 18443187 653443158 514148724 10836666 273543701 267301946 899209504 683557430 223483437 536169160 560324122 529484260 778175418 567832633 411870548 314050557 822119203 383419275 314860506 162794913 10173016 163796375 769273640 667954853 761077482 159569383 93612074 524350867 532116957 63919562 891126071 426949537 193097438 636886296 796689560 136191102 606530373 811254787 372787521 294764273 248538419 351393144 51052382 431129558 464331085 716906424 399901862 66353452 926936450 21089777 975970112 659565675 782798693 387313894 464174274 604724778 981760896 950473091 165076414 908571050 899811447 294060799 197567767 40339907 812713780 580514652 298789119 83413063 844945101 829266037 417385269 228837859 893312208 76690664 58797754 52576881 259884919 809366146 313344729 923415709 669998212 697350205 272591117 871914334 923729701 568090583 587414981 859397519 887921422 113179695 487438738 194891614 442460343 8599680 712849130 250243428 988949089 915257214 752151360 624623080 502026283 144154661 979135445 369863219 7046796 678558088 360499539 59275886 552472657 540614038 509924158 388213608 562174276 375963950 295991270 899669468 383344790 812372095 526332041 180659525 686024824 572049764 903619934 722274024 245381318 701554658 350053058 423204833 563792702 808534155 552466639 221895402 400173948 795839132 239372263 52532463 856066625 888193871 429117750 440693832 361247343 52132677 319213947 880346829 935391497 759458582 862110697 152571784 688575147 183065052 55223844 299251715 59284874 220689938 587739562 982628896 770379794 872298407 211749195 486154095 335395562 219092925 859212576 96698206 67044368 46042517 597702856 492797193 918500473 156282377 743355847 571154133 152638108 673445313 9555742 352037218 53149973 858089485 802930698 414871680 448214334 768190160 885129590 655127570 487119664 225676899 315879387 510113344 708600488 804497035 102747818 107403391 560897811 667603800 509694299 125993689 947816438 313420778 988440257 25526612 506573538 793120245 48124958 367545424 767324262 747330165 995585562 879059175 281596787 572775668 88624623 845886128 723479452 137289724 509177128 396273629 329715435 990120824 345895096 956071174 17699549 772212389 453546844 502292849 8004119 119457654 293735313 180686805 565281423 894129611 424988662 727873608 454158868 217835150 909243425 371808025 977160717 92200434 556284028 474402091 268347413 971608387 634772259 228192908 418659534 976564131 864432463 686527139 251658397 594530305 580343729 178350760 349643669 300697952 156818137 108011803 774364026 774217320 511253442 654784678 802445047 423620391 693651553 122197256 393033762 896703898 639770532 413172716 987244904 784623716 781150249 512189367 526715601 988828385 814460057 854183510 689863534 457901128 526927001 536154106 911766906 355525106 106305672 192626165 577029287 954729545 329663600 563487707 963664650 837121901 347737040 204938570 604787569 918518457 249613692 648692529 214883251 488550005 315604001 454042484 333271682 686066505 617685429 196949360 519245201 374660828 613407757 360786834 673349586 642982003 154169025 370504087 542793761 607302410 763321434 60720499 451776583 573458584 786428413 229814267 5852336 931518421 145929676 793813149 929658548 43242586 67722188 801139252 663677865 49982553 201275293 961773777 353617941 739833984 536717598 868392483 201460045 659899270 171869980 719314266 385273355 157281745 333797647 164277518 880255933 781363404 315034705 117363776 575482850 793904907 712099648 808869512 69645679 927626341 400272341 3198245 186446017 316934075 873526830 854600977 506900787 11251215 338545448 448301596 784985882 364116043 509423624 617631552 997315806 272285020 278901818 225131777 505326779 346038593 78640894 142480364 923627841 196700927 780456323 486221887 685453724 732969031 290119823 818564547 222816962 507731627 878416087 531257622 237161393 948602850 58736370 98000289 378177790 225645759 421192024 231097304 904808397 687312798 494971362 376952092 938945565 810017083 5518714 791626519 290031165 582620789 539824583 57857727 887407862 969735423 113685595 799254622 426400705 524568190 361802168 462639821 548666172 775158383 917018021 537799278 567414360 737118790 569994832 377966586 486177041 738509812 210878999 95511329 310028904 233928716 878471641 908013463 982710144 644201451 578608106 991355630 540565925 819034675 753433145 437191348 346925475 216953437 809070618 646996441 949108732 998507225 323320825 69698546 550944484 433779426 586064334 112917878 63792963 819735661 409189457 538280641 31754942 836346141 497055545 184828662 164271928 776522105 165305240 26139553 731176058 857152914 286020182 798299347 505808857 55107024 672994554 946919820 614049417 592904309 443752707 152204367 945026517 293134547 281346000 364313183 738891170 611293857 300957006 985675256 86128883 792150205 730120046 769157992 778068613 73247414 688917270 146457828 592776212 774648063 284649445 983621792 584648118 925089469 726238875 879870083 38778064 595440018 676355115 813509252 178505769 497786035 816890510 257068749 577708930 665519565 98387035 611955721 448247254 944599631 457204040 506772629 518411202 358364297 388557207 889946417 39502857 536694777 881832751 360021934 90408206 90131041 603477558 850036848 49525292 614491581 691793129 778841958 109825231 133027427 672389476 684575910 873333545 874358302 489895389 694154257 438595581 139583018 164447601 223611291 385055755 453947369 581769206 43514698 664432002 366654999 255331103 922248231 245674611 191908635 235346714 567501927 368501005 693827992 743457996 860618464 796443707 504108764 736135682 872770125 966509975 23361395 638582323 52299428 242309589 966126563 879261125 856357240 540313038 860364995 478928417 802311889 631792762 267452969 897005806 694900928 77153092 347013544 120422629 906375730 713597340 657827743 203869284 654138054 75270688 603588566 101027509 151153746 466302429 72707225 721562848 317447882 474179699 420954307 299343253 138729214 248939993 735818558 477372646 357965997 418514172 201161548 583856458 418461017 879378497 12457045 209314368 233196481 940173002 745835543 335584988 360304454 807500359 4101451 433418858 995011002 641962309 481247930 505491785 318809568 79102567 421862650 500514580 608392545 879433273 467251044 449172305 943811147 145151805 840683919 659213092 744089891 64584410 902961210 725255287 332940269 61473926 605509250 28895853 1161248 905853395 617905244 303949172 74022832 769035684 495636681 775185950 61932369 312200025 98545550 443219026 196212529 707820231 132192134 189733306 759803223 43044726 79689251 13468958 538555454 996540956 972341385 696524513 732648709 6319373 402549931 663081375 271501507 426956411 84215212 12727006 447369231 974368951 203990779 922886829 702525292 468495741 816871780 464985857 128577491 804714236 783975161 357616139 891795630 626470188 892649100 139941192 512076004 98239299 793409259 877011031 170935784 841224668 322940271 348594143 393656819 536882218 187014443 744913566 334379405 544484461 21213810 877537056 877816479 643501954 921943433 357503421 557610371 39835442 303326880 733255492 183970067 70532901 144178037 950437117 606676754 814311227 27270653 178443022 7740321 854169987 858371584 701080163 635335646 275147938 499545854 170108542 833519906 695867522 323371907 138910064 755613498 716835935 365073004 924620227 617061483 342146302 66212274 742259956 885206946 44816334 595684776 75039096 48412113 592837648 971749414 82700819 742057109 42737059 820949287 322483959 67150889 531190637 609607904 170782290 645793341 497093188 934744516 419786593 184359594 164265543 817556783 794353779 364641391 100402676 194400217 835900306 461919427 929368515 686900382 620400231 609628719 966511948 153935510 645452394 674468817 658619011 22683798 718613243 875509151 527243032 964225367 203850629 36802836 837398082 219315680 612913645 515244219 628588090 352072956 493525254 310391138 171503791 686538748 914444012 428145374 524129626 125594364 643630417 706033825 61636393 705807594 261556401 450594390 222118739 894294102 506284736 246627516 43360992 294179929 719443864 483286021 242621807 540525385 121312830 221486311 717001107 335427523 649606044 28100400 617780401 209719733 666688487 898709800 897118010 362356563 429441990 819639862 372230168 367719821 96645680 946934543 45724467 736019322 149918850 383212862 255423623 488869064 877663255 647615576 403757257 77732535 923556582 197337387 16608730 595309271 148099293 973984082 755774389 152010575 218906534 139341671 287893287 228274155 549903427 770217094 92527680 625900774 341824611 817040109 606207645 243530553 536113168 664260271 732813623 448356870 623625219 776705871 754180719 656931123 111799823 914510335 300128573 223755054 888371395 867914966 762808975 747378895 114345495 386129413 772088341 241780595 295693021 807148430 398029182 286678541 254547372 232935219 139281926 595493621 332322877 366313140 241551400 861393181 866470530 617269106 934691693 35091960 882175150 637316450 568667563 842158307 846711505 740018807 243812061 335649833 951520398 467835787 583502506 926225038 772581734 6127342 217464492 710850246 531495331 371006738 387365837 882147383 927241831 812015373 715834796 696030047 287436726 236890143 95879255 120706644 532320068 86656065 851735542 290664078 90399175 150043519 411992250 583834475 246508196 516033352 105260908 340528384 100337308 621867617 198108492 955747406 835448661 841780762 168796001 440169956 80618676 248934258 298746405 91193457 978503061 72392159 346955914 676943460 619341900 302460135 44447455 988262659 377721537 472129292 874727607 641927240 738737025 814102500 575190707 399673524 398345123 557828381 970718147 383591905 883846720 30661334 727499803 442391481 548755976 98991971 892496305 630842143 369998213 334944999 46324602 568891548 348707814 648838380 372626308 542120007 598529415 369217295 356778692 773083833 523627464 728902070 598155745 576810689 383077092 55114965 577864176 776309785 399333795 864947372 897730906 433821879 970377847 54938954 927018760 902854984 450814808 826353476 888478762 734622162 199840940 429062494 724712580 197976429 821833623 275963277 20685552 687110198 743835632 196953124 765121333 150884730 325673393 848284665 423050838 874230191 553404706 713683020 661501239 482363764 948010945 819997235 31234223 454843546 111153647 665518219 370043957 542551996 618352265 740910555 592628906 31826359 932957850 736747737 329716810 32376913 347167132 332113123 400921691 704124808 527219815 787407641 135171138 965389831 557794064 542113415 14745953 359236804 309627837 382599181 288621480 270193588 421731941 332806016 14795500 156899416 817426041 10290058 26851318 95288154 677398678 503706095 339513661 147459168 709636280 961465016 763565673 202881086 384793226 324738000 747242902 339122948 101649319 382538348 258167476 448221949 940632920 960796787 606409857 327791193 15161733 411733388 65396361 265477978 96246448 719584299 22851521 349515733 488962896 976357716 214873131 740782077 82434773 393584387 743350232 391559025 510299835 999354783 934277796 7266585 751235224 86443071 763199172 511105985 72016062 602093380 236672076 95398359 903426486 369066732 958518076 415319075 256993789 204538349 39143769 776283758 825550516 669027612 918635971 3246825 55432819 855564726 560620476 498712491 859099401 614012948 376075075 128328827 834804551 934650710 70576098 776227716 3431192 545789274 398775603 253726692 182218330 77623018 982364349 445603441 534773090 531952514 640555341 315175419 243276516 741578375 272216124 601525059 115834892 416730866 17181958 110401867 267189451 33572454 401732532 935851887 884484667 849339086 201743598 566379517 708583156 551562702 69422 925044342 557036669 389200445 514826011 436249527 226096525 518748977 268636456 337034810 392316464 956271575 71105835 990822529 814063947 607263584 483506606 226690283 939185115 46877436 93746140 61436030 147172609 465514472 186089339 702322056 826105082 159674886 557399486 381586118 588303232 265069769 949424270 900597502 622896217 563084793 871326508 657458372 608801570 823386491 636411784 542348331 561825300 942268898 297456393 170565923 683964451 227552652 729768244 537546961 731323526 106634579 732223371 930038924 695074355 862628796 328330535 7697203 532105444 107993316 747283067 293849951 610489034 218276889 869226028 815341624 519149662 716961475 842348065 684726232 274022169 523020033 973016835 333954902 782258019 602722794 335356544 340293695 313254015 590341428 394972780 60896445 788227409 60266820 298550167 288068859 945397512 301327073 261843208 859297971 546013384 91006353 769135545 78017738 756764134 602640998 740741054 263383135 240303437 258446535 766145431 169951530 877557940 385412731 264138775 143753376 865526676 12373687 202823463 717239211 912600337 102651907 870539393 153986989 500095835 169217180 63341151 555389116 507187934 648213281 301194714 601634145 342272236 951167327 999561084 899097183 911742611 808129289 507126774 113665849 177703152 283167459 443175785 679225449 884114843 253674063 838030193 172909490 557717612 753838760 266261618 293272919 249567984 958049842 462831131 619630179 747984134 688246058 826606621 926963470 583648237 683528604 122796358 322079248 934621062 299960170 85853939 108807011 811853342 821328631 217166226 780289718 444465434 162870640 550087381 783118646 961844552 533168142 140548638 508390990 738271768 863589338 449171185 664849852 420536581 359111726 863155091 415806756 655529443 276348413 204896154 908965549 104050359 778227785 345818223 55974489 887997886 32121057 454187048 11502943 786626527 357323159 185336898 738373607 940010899 441118931 321401184 967112503 576729985 885816602 940200466 632262161 102953948 726569355 928373607 784942466 895862137 696921508 152985163 52622919 740144992 198862086 550557257 591992055 802867414 810111665 440921231 259312653 260417661 936956888 210808420 839223844 596290363 688472777 251516377 734317763 731697367 668921682 775712242 410201104 866010800 674451117 174837711 718600846 211631600 778650815 398018103 649348958 731462817 494834346 839730327 292939112 268655290 656308678 452342085 479882121 893998082 689357822 922747218 119687527 712334015 425342879 342404192 121327111 755592849 102290625 911410939 713296323 752885973 684120388 673553169 882391876 40553449 774479679 146157602 612419480 257513457 637149050 366454321 491768734 681039303 289529190 383893457 692654091 637278986 111266960 317189080 200282596 914322217 997254967 829601328 245978520 472395065 499526565 708951713 232227551 678996013 452077944 656732656 707547523 248073713 491097711 284630521 996547393 821455900 583917635 788267920 992656932 223496788 111183531 435528876 267759191 851015360 467255443 468074925 635836163 746344764 482972766 550727309 822779896 858542015 791804930 839586092 489270181 604433275 778555316 162900695 567481871 727131116 534933603 90088717 566024269 522422007 236330531 101505936 784657418 919697857 58459149 611828395 556103939 115234567 587753718 54000979 807665344 236493475 977620918 56454789 395047320 400299031 733154717 283461779 273103816 826358967 286361373 559733604 421724183 925004356 326155382 141270551 464415884 212040574 205384747 158807369 977041639 872769716 696211975 742237493 484403922 71279565 390456464 142993743 34930828 400214809 460147404 273412165 454979811 334639295 532915078 492156726 887963757 110469704 290017078 112006157 381352566 361141180 632495024 525882575 765661120 530797087 381974406 855422433 122974158 605294673 480190474 269302615 35484267 886810943 967158219 600909094 343946944 498457290 397348879 181324865 162222384 157497216 548538580 387560324 405194234 304902975 185625775 715634015 874884083 705466374 812255641 737523515 591839075 726567414 262573528 352111365 750730272 178123474 489144443 705413625 933833264 455579380 471406799 896993677 160302023 252560490 189516563 160197780 494537877 334479841 423281212 572767949 896824651 676075375 865153198 166610300 976008025 891333201 419443276 34374707 497482093 297896965 887400830 753188268 341138242 305320732 385485403 344403281 606665927 676925959 857226505 105277733 546503989 400200203 735142196 85402361 158842340 893058171 847738224 249832368 596174769 166444556 586040788 481624174 477439175 218910815 486226777 42291852 646088646 196535140 117110054 441294821 376846084 881203593 505876938 600390197 851974075 672501060 535051181 473124011 226905453 333282183 837358686 521064080 183701667 725725661 17369494 844390125 519566174 870727655 395106570 5761734 229559111 748675411 632410324 954448732 955154830 3845348 536999124 448856459 194442304 679885267 486254372 536276148 166301889 184551063 149607125 554438956 949948518 943999735 533054406 173099305 595675893 987257107 686550502 360557956 268371987 126002069 313789718 276907740 599424809 720797760 286131252 770334265 331181216 78168643 800271202 196639890 242646077 122962282 135365589 32601479 388381159 372141615 84560587 376550867 138771540 898143620 18942390 890506333 351678889 964592236 437787407 207357043 402338556 316919244 228320347 870208523 608462854 515547990 510043058 309252851 40775895 793305596 552760656 694205136 299847240 777442553 874931444 235759940 287719938 854541019 88321980 497585844 878881585 721897765 732238243 311263998 510024276 522515825 480735424 491063552 681656796 501341697 506267807 740788878 257470124 753678593 664244103 140915409 594469636 548109762 83374299 479916785 685839419 664113256 96131164 505876743 872511 871296789 588592469 236862538 185464179 594684153 827724642 461424323 508563720 791520096 185154483 855620884 754839572 562181018 577456086 123943666 817763083 917580943 131040609 579407484 998712523 80760398 314507424 689821808 530427855 616821915 418480785 182848786 618170420 829293336 440786321 990209301 945942064 91937861 244303206 623673141 770781391 101459229 415644265 235754818 475782237 914547417 599723554 173547588 821499897 93468869 933964424 869094860 476469386 968421934 986874425 617385313 224652453 549576488 5034149 251061555 658909572 984598633 166665357 652483794 530184566 315769329 375120254 52825827 523265476 782974844 307502446 370836226 580113067 563062929 486711041 271897574 322199277 332778955 251792894 380755971 848944252 991756467 849980735 573453556 621328725 655750234 788597495 267831259 5938060 811257223 179957050 906335308 737009013 33171565 896901183 865740570 748579109 634721073 988056108 862798584 485604317 954368102 388173298 873539814 834251501 237949787 979080371 169451995 674560109 29592631 879575405 412124928 516550767 699090838 604165332 290988295 629303413 461095028 988865322 781312578 660210585 611127443 57566004 944213880 349987020 297742084 813475319 404878968 717273961 531770118 925977743 737158930 500555537 364605680 70960674 670640002 711051407 200670019 407232083 342584200 89189171 717380646 517489557 860469767 393302154 691949213 297357686 702359425 453644956 12742094 633269856 569751546 696685296 575697669 881506885 995306332 516531851 224204582 189234607 178087204 691919488 301853753 723439117 960293161 217809497 498303933 728425207 580966876 451856461 393159527 230970069 408992079 351690717 559587419 804834471 356768824 316947323 284937995 438726820 269952014 953428315 240840033 764455876 6152784 71597486 307463429 190663194 968370954 449020238 815784915 447788342 421996056 485845411 807364038 15546975 833812112 896649952 487096788 345261888 752880032 963750620 601965456 92817014 96251348 445387841 567188056 364396264 16658164 940766273 764168597 275885659 223573596 553669555 494161913 103601171 950735021 474037593 783663181 228775896 771931458 573639499 872819782 441792000 498089789 331742954 380085977 56881022 127460235 133735920 769053617 355176397 178249950 986003528 250153961 142384427 807266750 886762072 948727852 601262076 368131027 863762304 43857124 577528975 239345130 667682680 126438186 517624252 569482850 488821886 935130059 411201565 35037183 579211311 11923232 915295561 129925986 104264450 358842238 829557024 917393671 873562910 454359475 619077193 172285331 955288120 143110140 190484030 515474696 399123747 771643107 92099258 352020283 148242446 937187788 833510429 521289235 440799153 828478383 219670498 991768134 68857502 818295203 740200168 566591512 144511497 19022752 742954925 305003218 938854899 399435862 292823909 206048108 651578036 339557205 44239675 606454925 361152121 207178644 174493760 134758231 133793999 573558311 449737345 297459864 790293623 826643730 968447245 968845192 669025216 345736525 705000063 338262106 359761846 506758183 868829878 351243271 12428389 696228127 334097754 352795891 381566287 886894331 798034133 781779371 183858852 359864180 233174021 909397231 128025474 668278818 424408836 585682737 245272781 618725535 498678605 750126021 76993403 575649904 579460992 908718508 987797842 652000586 777102502 303835285 159521882 17863289 83536821 629338834 378150671 425241571 239762132 681859005 109524607 151015462 9227939 891525791 691394164 896157666 60416451 323430928 417163617 450812509 59643191 617975127 401969523 136423821 682607052 845402409 768156441 667717695 694324068 832974135 332125684 630816193 454979133 124620650 429207654 525382293 594588637 558870450 908959477 545849714 729911567 820805810 990286008 518748277 986545842 30121606 660795935 571495919 219767539 170827597 586162578 414972221 199191472 908119919 803402433 569714589 893662143 149132272 606439659 174146779 992673385 997597253 862786353 33848901 480418222 648410377 561913894 506137328 411377537 342204581 32596512 689488593 91303289 567957826 517725964 658730117 748088519 40980535 223283043 834194434 612740933 703300076 919027913 258211736 671936956 125073969 897811818 228886335 19852431 704776117 205354160 64625768 885446364 259006309 334912339 466264142 355529954 601947295 498712401 63310211 733072109 765195267 780350290 246604892 713531993 748656426 769579053 814883201 363533838 230072476 377423205 581002647 580740161 529796820 791739906 485863443 994674740 760567257 614540551 596440968 941967558 906188887 508651806 622481288 575000292 205746325 30875099 797656577 675688925 233332108 925355065 261153494 252371583 248138262 951554139 152693982 388734419 947021666 109184245 246414811 515879276 150941566 914411062 389386627 448969923 41642854 450683440 280141248 765953105 524952108 21025514 254279468 417186461 919312368 911420989 560066208 508719210 594906474 334875307 449509353 735434301 650960727 783978474 682779369 320952383 426887440 996893698 704274245 668600453 492743848 411154430 880153913 729089867 506466213 559021603 29081718 559566122 230705579 291817213 136919612 443592327 924230455 366924558 626388137 595343328 443427730 83189989 189339028 946779962 740375860 400753255 391832116 960135252 523307548 747122246 367841295 359527628 4075733 475010430 329412872 922835208 54652301 564254629 431355694 899992108 24466254 106824571 149531207 920526203 639441600 152666765 763707965 30145584 746357951 270805506 435261289 853478434 312117140 709615915 441753864 26237723 512334642 421423292 78893782 734745067 150736199 607325894 510033368 237374171 999610973 684549116 831710121 296796067 248674229 804574778 174067075 33910280 537397816 405466519 57804080 654678939 655239989 387686457 931018027 619393801 393595574 993361146 954690155 279560307 748567243 941774368 370367159 862020701 829084662 94448977 827892335 567721104 122634872 144448782 867095666 269597272 769750820 488493709 857807003 842576156 377900823 342007605 961051747 183259736 946859793 287086859 270443200 114314111 19145986 238607569 329415555 242992730 221834004 418733501 5066990 385720792 104161273 169469249 5158752 392778395 414098342 689477250 795370533 419507049 255967 479777604 380409283 447287565 176389842 281091902 256116139 670469212 182312309 873647152 731410156 768519142 267492564 95119568 208881461 149006074 298670877 373750109 380701902 55979035 828590823 811700764 181752436 355846988 807882921 123537853 996031551 310753536 740563241 287788188 410103753 597518055 67924466 982864886 486583748 714169657 331751245 577138686 598275128 155331576 828520736 100505691 678970788 964112802 477364440 859173418 533606900 726760728 897053904 992798905 110349670 787912003 517725056 296397487 866869063 420826873 398715404 588056233 295234602 889142118 750716256 913342989 50015396 378361790 190167504 85543079 491853322 502198967 184556035 739408310 76835405 504353977 117375733 789899971 705449364 915170355 523774243 845101502 145489712 879024126 804883437 240131241 880456262 66809618 563779563 224933392 913912134 515067661 429223618 399858026 720583850 143218152 457568652 479981225 655042976 712203875 366982232 553029381 264757834 575642034 509781947 833071646 755333147 443728439 772016759 444909517 359854297 354535456 408706907 232945954 521755347 391816712 289516331 330902414 55467730 416503180 712162734 809868429 147479352 979620420 159004881 816088306 80827409 609376978 428190803 32985473 81516334 614250476 798597957 360252562 190192260 881776788 723728434 804563424 86173612 508634347 534070798 796675460 139708189 398477231 235451628 517290727 408156427 805424332 406347187 937142206 525357898 983084514 222633910 185951362 756818350 970465032 60242335 857826855 661822157 800254250 848258868 952105963 649896377 235893401 666690765 454646711 977851718 407153464 25498131 530686145 767148140 651482430 749758578 196767045 443913898 69143898 183898973 760864499 491690665 787971345 836366022 103632447 112686858 535437201 386307756 480386682 224592358 834096795 375603726 71942122 752331768 361374046 52949594 850895908 308859235 357844656 573225886 522889689 865789640 763356540 553907131 32846844 204903496 32530164 277883622 424965145 784156812 721354880 562371058 436982830 349396846 53974722 698465707 751935492 703683519 39378660 83107651 663215993 44187917 968710849 693545476 913458836 765508423 569397165 966072334 624965618 523251519 913095372 658278785 479341003 601063748 310210471 263538628 893735843 903057767 276391851 944840749 608221292 193487674 50520268 550550678 128088103 927370444 658236026 644682019 391624673 314895390 824483831 540749026 821413374 757447662 910986530 408816272 567180313 322187498 894871130 415624242 466324594 597388708 572745483 669270526 662515202 204164900 677374953 922979000 643384498 43546368 959451572 133615110 554743536 582416946 861977474 47118102 825628217 703174194 72246433 248004412 34340782 855807481 440611873 169454134 500240420 574071498 579755937 423566696 125421019 7141777 526168624 636886581 256572648 802115452 581248481 293341503 397310869 632385261 374845111 775104746 119532407 116664026 528380231 212793029 971722522 691758371 346195812 44598501 201209253 46883934 201589331 508862878 249109015 408869750 271292518 93666876 313872430 325746203 917744971 726259173 308550447 402972888 50838629 543085668 924367965 157344192 360191531 939067713 847398646 614548148 540179610 160745231 13055119 720113600 522948290 828869069 515689115 847989717 781827558 683172096 654142554 716528629 774984244 67613451 700333653 183367535 767810639 827660684 72094658 508243510 176903390 269707250 397223964 686523314 40905562 40256841 357516420 543724089 942353123 348638476 638070108 862398863 191730544 314160458 591141156 97245692 308848541 504701245 196619375 207773160 685470400 629543307 150442757 66974894 621956668 125890639 671042022 731312258 713714431 474295482 993629408 452486601 68072292 404788347 997706412 188995498 392412339 192521267 532873966 96421271 72623683 701178472 362347616 785446579 901984520 46905308 785494812 387954130 499359267 157480701 240239271 952666835 526713461 173852230 475479136 867877744 740543415 185961447 933138620 530787420 105829854 284932213 127340263 696634725 114540065 198941180 806094242 732506264 287944243 664793436 593848204 834179200 757108550 21502998 971058296 905808769 586232498 923321267 551680799 416683380 584587743 873395051 196440249 653633313 316433902 203373199 449075959 727564269 485590063 157132104 416303168 439181662 576037910 849975562 954247398 226920964 911767482 715262800 814543899 465043022 400189916 75976768 996697749 834695243 130603892 398966995 678376228 645756767 892937464 935335633 909904704 465827968 360367180 746676346 263175185 296527555 465159520 683675290 228892504 443171504 533318525 425424993 296322887 981166869 104190501 69606973 357017241 971434561 230909779 437196758 73328785 182198156 656432496 363288150 546502 53838374 905764960 766988329 662629468 623732801 455860136 831364027 23180568 717366552 646183082 289717006 701922519 762257067 658280576 800375174 475210215 635181361 995604404 106411823 362090317 397019067 386197662 534560627 584262718 343823524 814985461 978999584 642723829 393923577 913618231 958436279 539415367 348161880 456267797 844829358 531441503 628889150 391080784 209542283 921259326 793038534 247209339 322574950 222088973 673225637 38763738 932608757 463626448 939531574 335264513 994999916 169248048 537357073 796868379 937172554 848931565 571664996 268751076 829957282 774134548 915426803 717737278 174568936 166147777 630334667 595081671 55900096 982935526 197817544 830468444 274943899 758881305 130433364 446094065 714206916 382166744 758917522 420956723 465862451 491570978 710408764 245116885 849391749 14521932 882660592 289777057 98347289 485189390 466799084 834821161 835545742 421022162 428890157 798043454 630926244 287227165 845515440 827126299 462989774 520175695 59243227 257964758 517415362 166067931 428940520 654877649 698300288 737785077 527591182 528298095 504257385 564296137 531814265 32377081 766498736 617981469 540400986 833549398 257612278 940131304 43677010 460210894 847741138 596018048 212405769 880539692 180068993 103066305 446465187 907050657 630508923 409495268 939051922 242424498 302796049 509317455 419640055 179109012 870363889 283497485 13442913 71123744 89627864 901204235 599024073 674011396 849409061 802625492 73968878 31656856 866125605 856133136 379717717 841200700 878650894 601969306 56274893 985183089 100942003 780592802 864420195 620900336 263883420 54500364 968896882 337438795 282115952 393358449 288638252 785111332 947625834 207955584 902142204 192372039 420534001 744332567 29210523 34855583 146431674 117290859 658044896 735608103 444914212 207245513 891948498 583947225 167846339 896393082 55406319 920182778 453010707 506790848 863773253 756135628 327398164 224980618 934107404 365398006 897639075 665256244 268720801 397235187 640691505 80448794 974546897 780410424 152546992 954286917 89994111 79763942 68681312 201316396 495896298 146788570 860007780 87789722 212565004 48869248 498119551 377175654 168675288 120932193 906844330 608533367 47696500 936751845 201959021 447678889 581578884 495527663 681385963 62566905 323016247 637409059 106094578 502547127 458785262 559642267 979079487 244755679 284935375 45581352 520605974 174559790 256160132 867361243 437197513 363479173 454672290 176239442 810898459 218666370 123630432 716522306 205720082 548525241 879907623 100224877 32424463 729546332 759412195 314209739 988831019 208556060 475758736 853303520 563090986 190170262 302239276 895271765 919262585 86769936 171842124 986648692 783881283 553418257 607659236 765669684 42892013 744265543 709404146 708455037 31229303 370327764 419358581 157989332 565760104 153718984 908420968 5073578 543756235 371568978 159327938 170501890 640880015 4725648 142676109 885884041 106538442 997301768 211896813 22763976 904570293 483558749 370790419 929804483 536282335 248092873 402002017 835104817 396274344 748018206 161477768 932546883 749843367 124681056 40417077 561088168 749669919 724764443 469405863 152589289 498533565 521115046 714281455 811799840 680238315 394351879 94274264 861096602 39281307 587329373 580105959 549034543 562719290 136165080 873298006 461143767 309161547 67504744 306625280 986222026 677124598 204996134 426418924 817993326 715308050 927320847 459570253 375498215 262104867 311509978 463156015 137295508 148420990 606307390 782008995 249002049 943156982 914103256 94756805 29238564 732318242 908190486 640238585 346241602 915616411 674230809 322012963 493277144 85946381 495819022 775434961 925936687 954138244 828055082 17504027 732739970 94290224 160141863 127226790 743266922 627332720 137128869 390705806 611891093 617292519 910159206 462426781 486476788 409908805 218695352 858580516 953464405 829203003 649340912 594787432 461124424 705959554 747312215 152309759 490573655 468644500 71796860 564266012 128554388 429340846 987455320 213771270 576977274 860198541 339134504 495871621 178915149 478898943 712324605 775979169 742764332 978777847 433875320 830926346 176827801 164216940 615238065 215188178 563912506 357875919 403187150 921362078 136903474 803974955 114431122 674828844 385196111 380055487 423346625 443272226 660813993 984541388 670085181 369657127 127362050 234747063 645662496 231068501 947264559 391667129 215550518 129156151 520385377 824239685 928140460 589777589 618500958 632438040 516067481 676845347 428995219 597452570 994048363 506637505 683265968 494317485 565896459 634028619 161286628 402223188 907850804 731479801 832520270 231983552 995569416 656349996 354979025 904120835 855346005 16791658 547611815 78172935 620714608 668433186 17629245 71448567 497367158 94956833 914480554 839042725 915841470 44795615 481897055 240602214 8858260 897441337 80821403 503651143 976365202 574678218 5801503 951607917 104405176 879239533 560947994 993607766 583046791 917625026 566932957 490477320 975437842 140186264 262616276 184252049 519554513 444234272 72686884 968767836 904875612 310116918 309573779 456699499 951810587 376438754 600384111 70133000 702420044 802911023 838947647 164775604 566143168 819640493 323562172 643433672 112076251 216502709 777885544 259334868 383468212 156213030 375871852 409223006 614564696 98571947 396167800 695724554 645469968 284125692 257965871 490835752 822834051 142593710 718683424 988583520 978361058 777551858 660031036 976492323 234107450 988639545 823947027 804153278 320260023 796448335 305454441 619284701 569984940 729031412 878355284 65524070 410783630 868903202 621359223 411312616 315643967 582797120 484793314 809819594 822887034 175991280 166286516 520907214 388390776 332299770 396274340 134844587 82900757 201470760 854396835 57914297 420372535 74565494 888512921 736329796 99721207 688932163 821115597 171313835 323042055 871349591 160031707 279150517 659719719 607627061 603765704 193354730 210452706 972035706 272677267 833934119 308767171 901300574 703531500 887257552 520870968 308599271 402436043 675845830 324569338 856824436 126088131 388862402 696304817 256820846 835575636 793177091 973060649 424652684 30806072 305590460 858271225 810185946 339471377 491787822 788025705 169600245 799506706 410749144 268387810 290840898 500837561 129719245 780878791 817308228 346445684 94286456 601768488 773004678 323182211 630082019 252379201 321793444 423342916 433806873 627073269 968809746 693455901 299824759 425305726 68756751 835256351 630310037 892071867 869798159 80476986 492079107 411450305 659350649 674579727 336333262 834757643 390751583 896541191 849359926 823310309 240198599 343257452 72987074 930728738 435626545 794601543 749589640 956933185 317334615 7281485 69082291 878423588 87483231 989129434 914535594 511843470 730789690 599639050 513289868 736660128 482977498 717214008 747694174 727966846 62741415 958197212 24771675 246433883 939840783 581756361 726520790 620798757 211239746 87819626 557471196 946261245 149131997 840839967 320235180 457471758 415284136 490702402 615589814 972269021 373410077 751913998 187097111 630222943 217630269 271992419 816411656 487903111 515452578 352740064 988238220 422875555 916171335 212258298 192899393 740891821 317314890 603675405 445975093 687115159 666745821 27184007 546911356 540313856 373445893 380154462 750602208 987813809 99456024 472969574 512674615 996608863 350047241 826891790 232369478 793458395 565912164 793787968 328519343 743646739 466069326 738669464 252041261 332878687 36930607 38846195 3330322 170014387 752849115 312781822 276561934 344669374 313864168 452717721 511238968 331811132 563699814 843299416 934378751 972287840 498899979 216641836 92569611 967736769 813349152 36637105 580179451 668274172 392567580 21393052 630373794 768108105 370058931 885853719 811433975 765783128 103748863 317620013 988207881 436808754 520751538 979179574 552628678 179655100 951818291 21985707 380137706 138158666 334555472 999050155 593103544 834071304 771243536 737086624 982744205 253409354 899839883 896058588 408556316 85083204 741729793 135978320 210091986 749025689 225228298 39233033 326208377 184923751 121429107 879428565 289971087 129650757 468000790 556022067 178973925 623359481 163432873 777148410 694481087 481801847 91848219 795649569 870823615 608418756 700594578 849377406 151549674 883832390 164636283 629223505 799105025 69298399 425374480 571285554 245732505 594801188 724706177 34518466 176682753 805822542 958964140 765274445 291821569 314886181 670267713 282397861 458652638 298226750 321995744 664957712 216328893 911150595 159031556 775112943 905552729 521849287 213343183 877980099 64416413 781987635 171045977 511512782 910736597 941671031 316424344 788248526 941999633 25271972 463333459 921192420 980303224 676923936 274278908 952000716 161099864 286872839 297092268 895833441 668960802 586337200 782020960 943681850 231426444 922225532 593351740 928233811 618249460 509310147 437613893 588607546 755749634 873348184 909778073 758992391 675416214 499195478 795713244 404211293 996925228 351151872 288209974 478090953 87669886 671055642 927895775 4110370 176081215 115848539 409514890 71211033 756667928 333901545 349547715 895771358 971909784 726518049 315149432 616046343 840280841 349501141 574426888 611968492 755873169 186642533 377613393 228829501 486248033 452711015 138489974 609372394 545232495 643781420 373891259 193643618 999792768 342063624 596013050 750760659 99631786 357821709 226710598 866828427 555453257 154884183 977287287 762292105 545068090 892768839 876211811 156470216 500062933 269756181 471102451 293754201 402511964 153854387 152242078 598858850 438140696 474426370 702892598 773114858 241274624 386241219 372901857 493629974 629235841 473346412 912415097 71973615 919414455 294407326 999059921 790693158 599374531 402071806 360149898 585775919 449986013 762228138 92751236 164914762 126585242 529192309 293330853 331759343 982137499 369231141 148660467 380557694 282323018 43773570 282988418 569527721 586563165 864450914 183272672 548450324 491146895 282266555 990613869 823275386 543366813 556332538 115786947 292759925 257616735 739717683 333365598 308268753 139097724 187211744 538084621 821363103 103404095 433773897 735147050 991691046 181458273 955554734 622765801 962733718 640357126 347741146 184483243 573809165 571982431 955853836 839242711 596929932 597507203 185426071 144090117 824528303 952611209 864616991 944336091 79129267 206052036 934623682 592625542 717914275 741573554 647835673 940928738 365566836 307155419 425773657 967741453 425404930 362170672 243664793 513796387 529612236 316565112 415929549 14579294 790415781 124091864 952254845 193240513 656457988 374677297 984719325 886378501 259973647 952750973 246880220 721619134 751337617 963351715 413050952 12025825 543131870 876205042 178247471 522052228 165004662 656732349 314588504 981159215 812040294 428117228 701686612 795660969 337669019 513610060 869772614 194159178 62592541 264456972 134641009 104252179 221540137 701694609 300117369 473380079 675576395 169089407 946465967 30898587 130131773 305339220 837612695 283552298 265913913 874516756 969418707 190437044 302401214 215473442 458203715 296933982 310202210 478586905 770796794 380162798 849631818 327269763 712940116 780928226 346467491 644548940 631928636 56809135 247395601 115000373 723637603 938011261 418447109 863948046 723322360 889681615 39962628 706719216 793648662 629692303 58712188 529561052 974960815 886065557 826530108 570322223 714095308 136612216 395835963 598363546 67824898 465247297 548217683 974183817 795880816 212496579 888261881 423153401 86066834 693761182 417427564 779280077 303744392 735566847 184040827 895283120 655369151 58966160 714900944 796294558 889461460 776549287 130779621 401371207 812666163 186696842 62787947 88801903 571346180 608062137 920491243 726594809 816473191 411663058 598510362 732491107 92761318 100049859 383186047 669146012 397193316 378860455 597089097 614533488 861660029 639224017 988063818 767962456 737859321 514397959 475433375 889745188 262994424 991072285 237488283 346936231 539880370 502721559 108829512 489338815 40930440 729010929 126911744 169389766 819083034 426543213 560652754 773127325 101636347 683731187 635947225 815815248 411740647 970480200 8327786 331426302 292674286 248848351 912651806 881253959 283085403 706301334 898666935 69648603 419176034 284836051 671706044 957300865 30731311 431813740 153337356 681657673 319794028 458889771 762379951 856681047 81217677 484276956 533528082 980026091 913214973 809550816 986849889 659539926 870748360 282026836 712983922 887727362 570901317 636920475 636865863 643438241 646660962 697427031 440512303 274486887 153975125 797435621 666496208 96077519 15743882 539039101 518270386 306181810 189321296 302693137 66399520 159871995 151297778 54979911 67074022 685522923 408637790 835042970 937950690 879238207 262113472 530051795 100038816 673225976 398225933 264087063 236864905 351232151 191302062 393425138 646257647 257404090 830213556 550528512 510774185 727135295 397359517 728170458 999672885 844656520 202623334 198593023 55071642 877497271 464219813 218923618 591524767 256001893 298270433 684788334 472357816 564334631 236254840 722490144 18784922 992382254 425768762 489192022 965343377 879937048 196113364 708821722 54856977 539358943 799982333 940141121 406876732 884417606 770870350 892794910 665108196 446639227 48497162 264038330 754194954 5967420 301166112 403056446 786360325 187243633 715915523 643845853 9472553 252405726 88395859 732607903 564274025 346264211 692652244 470439921 251150736 63008482 666810248 64506683 649417353 520239476 116391973 669608234 996678349 598479596 443954757 211626081 684960431 578920619 867366290 597086680 782719131 401416812 818056641 553730928 344152981 205304436 277134623 477162909 692262585 12915013 813058910 52413498 319727056 457953689 881345219 276406894 713426482 600180194 683156065 802969318 315773261 291872475 233969168 422401780 783425706 467079668 411276580 563238031 54685896 923706485 329956946 903592262 548520522 256708618 907823160 529253742 964835796 343755496 544910806 486719521 90399675 956227225 770370353 496237257 285937326 994242299 282084445 196367956 547950325 561366921 784403681 980000841 751259553 310639799 439222622 518939838 816095103 628707796 927965173 841220931 565419233 310948587 84260815 780452381 822277554 189610379 890690728 806695839 175739421 683144810 901614219 937418926 141631513 57176083 976451637 781733067 711074285 655510503 693223239 752817044 85530191 441408122 369845124 986140548 78199941 64365095 37495470 556897906 270939719 89662695 143044619 860196329 981202299 810131930 698618975 924458302 665164125 59507799 540559067 353264640 453518330 581039228 553242918 581641614 119840498 21970504 901342560 203910414 936126537 215075979 693257680 353894510 602605355 201527291 71040912 175062220 869992531 124983865 949773654 941241183 228796581 965694214 250072407 401753750 700008765 448493585 528222278 779840050 235025156 399945230 542924314 303668256 828728706 546189701 962646235 129564461 720138124 428145987 913707034 598744011 587968901 836289670 473569920 325728698 231950848 651628477 484280340 800692808 875204367 295014967 342604061 705267513 883654191 150412749 782104182 443217377 920104580 560360389 159820716 868080408 619852677 938112569 334992733 927325646 993099247 218121926 455739402 147723487 682586261 558620935 920617487 225315734 516154705 168467979 162788933 761927978 922551439 477260724 793588052 306889630 819866246 174015035 269361300 805595227 835491750 844773613 554477536 92872357 198160984 537620479 156448059 960641831 916688866 220825671 498493029 766304930 69771917 591536170 538474982 630402129 47461138 912260487 322114679 770082190 542792118 525623465 798065905 628820943 280355197 151926809 327769535 226922738 323772831 466954428 172508963 752050282 967989258 750940318 592705231 389949389 614341841 784919950 462649547 160408895 198536250 873111930 460408820 294881377 557278955 134957811 380837280 938318824 655079383 369730340 867679110 249611559 437352389 338592116 745238306 537465898 296215512 404627136 690976499 539657897 6903426 120819273 823733069 859713028 138763003 938133214 665028030 817022836 715365354 709007222 350004660 21239683 421122700 883677225 737424144 665576651 63123581 954588869 212608002 135801220 289022519 633258078 328435585 691262077 45109239 543126637 879626626 314438125 79672897 341329014 557888392 709222697 36413048 722773198 923998784 282548423 658165124 745955212 231628547 78154844 229880510 515452183 45917179 572212277 887080485 977624037 504040192 107554888 276184621 611044105 713824470 409543626 630804325 402318743 174694335 779420748 15348181 581804544 644217301 781569194 548448168 542696341 674326817 242375892 230632208 890864575 316292642 981156252 974474106 482250645 847036766 899510452 235100185 962630694 104403521 366062589 145796123 364214031 405744954 209456427 502298922 515942321 516958025 309653822 955833316 725443287 785306257 601879066 171876146 718213846 199795240 681026820 987625806 920972404 691983668 505833814 403090289 696403372 68041907 727090288 368894130 861275311 341666004 716233430 549954074 725408680 503621967 866857911 363454427 995087246 256204398 453896709 913946528 549508117 700954708 290550699 599147570 957141932 365709581 769895132 802118929 438582842 103114943 752091276 47960569 810102996 577914263 367525922 32522595 429853765 228992666 639124063 337253378 604298981 902650261 328306218 523119551 931995136 888548922 223768866 599011167 415758283 172281911 631904874 676720972 92241540 418579777 694358524 521465246 350438254 145175049 223312664 785435663 252747850 79910970 425755112 119670084 952978308 509928682 134050214 141685873 494440742 36991430 810086382 278251135 242105577 664441083 488416052 732388359 604416471 844904233 276706709 723926059 551818765 746791771 141234732 454289234 685998985 913926469 616707043 746211866 352440058 410848479 779840819 294164679 701196257 862114608 324549358 709727068 958189230 500317510 428307397 854045766 524697840 433601977 955863456 416569162 160591592 341103378 98176026 28468274 846672431 1928973 848884776 442227860 757549937 804214887 212471269 428656480 97877464 618545217 313797927 884323601 367909612 202811558 558279134 317747327 23980846 401029037 150273067 304158611 886132529 700222520 56410914 298517640 910335118 25108224 788594424 317677174 293815603 177246229 789706023 939952058 66000886 798226930 781238832 40963811 961430257 634270961 361618144 161896610 517825280 511468859 227819431 603313527 521370333 453966449 933716462 739607111 456449037 972388643 740115310 805985400 150761370 96109455 460286119 693552055 883334355 24666270 403490741 917420714 853104878 816805564 318690821 107891070 646944862 598483796 27550318 724378371 855719272 277454465 668976826 743229698 504553848 793784586 610133687 326285920 883525933 717347588 884207512 324085692 379616356 12293610 143387748 674669961 350099540 820269315 359989898 723135960 617869045 399577654 723210042 401618348 838073536 296857288 899886605 700077363 569499812 734759642 302314318 296659551 578871555 461217554 323775749 138462132 184779545 763015658 249109198 471405848 169078452 523793360 774668624 572690375 308172878 818682415 105218766 369338824 910742403 851707454 765748402 831927609 177261231 834043796 270255552 793045573 110155479 252085299 183436670 56419517 51336330 216831438 317426241 913738218 662230507 568213381 542869288 984906262 77126302 381476068 67232705 165933762 427886266 392430144 53589729 991635052 364800632 759527056 422570281 999798555 558456487 63823743 554107224 699843289 974365666 956571147 774410340 677307316 893144590 443935483 330359488 671564292 951647547 913911922 475907108 509675206 411006283 565290396 331213083 81894255 414388453 990172364 901413997 417117284 853054860 304931872 299354994 22974853 548314506 915317008 134615025 757270428 793249936 373687956 583290312 295701877 879587009 64372986 765036608 540237977 579291144 848024616 621104660 426654981 208457217 156332488 735854533 834112518 372303886 273416708 3488623 60029290 68211117 379419628 215117519 824651431 939989274 427677740 946521926 131461914 699535567 925203678 267920152 778161918 744068268 516926701 805657121 763565641 92515178 243191655 522725629 106091818 273071239 146915060 196831789 158201689 9557955 328383462 291873671 294381555 123749400 309820186 779561279 590713330 955793630 788139067 662217004 190840214 267090457 42410176 630708457 785678224 91598879 645353874 185314554 998774271 496621130 688520162 696053230 924774023 74014620 848809045 642346097 792046987 730296745 541146566 999425757 156284774 658243366 542862843 703451571 319993755 64119319 495025542 537339618 422062370 967022029 180129879 600290177 257514856 219230830 819216811 487237254 25670944 77509591 438444120 936519013 258199539 437548457 897472951 280260326 39008450 664305769 657715658 198277771 870844743 629213001 48189962 122943453 973813983 588170608 364508465 541588655 407158352 346729259 447626157 581814110 387262723 233830332 622362669 411523024 94440783 250422688 906294135 130083020 677007129 72207323 370378043 754461624 971162834 48053559 267969312 243118898 303342294 735881792 232624678 957920047 117111944 417036907 441344962 621463981 712017184 385485347 861410477 79589992 350446084 50903982 257363157 817557448 612981528 108377312 185314481 718849935 39781501 783318425 910962344 490550509 245738517 41276237 395703364 232166696 52085681 172861681 761607752 934037781 295985243 428213904 413209559 732747636 605263897 441633526 84202316 27403996 214645642 190779479 645655344 693399576 249030153 701900712 842122044 374683563 662967324 711427490 109851783 91634695 272151085 488507369 300799941 479023800 609358585 668924839 750666505 313545246 993971010 744564060 971529242 252621043 172493096 689034682 981019663 753275421 58637340 978987524 965880841 846313285 983031654 76777968 987994963 859894944 560744602 619909409 508008566 217409223 978421621 323371932 953071482 748838126 885189965 210219043 92456251 729983918 153923273 366815071 448373954 836704575 738876339 938704436 266422480 675290381 981817025 246057385 838469225 446367519 795248002 476118455 598186016 562729802 252988963 730407874 456979810 30886707 744656525 601095680 277985872 569051893 3499396 458712845 861138371 310876443 112531803 264937794 705533804 787338880 12284924 31105066 86933460 692525846 916044561 631514578 356242704 17255119 241490706 250038695 30905653 359038128 565488967 498896038 845315828 207096547 545626073 344836265 542291718 257824627 336384927 135190364 129074176 429184457 57501863 126148916 548623288 476090100 422880222 152539991 931543414 838079216 501226493 275574870 695506873 469187368 976977192 821188918 833877921 314458072 105372505 918190761 865968669 808003181 860426193 11292413 245654906 273031999 263085209 708579047 333001996 789879995 99614415 418576328 673586308 753049737 30889620 699822414 3797069 339496474 264399687 219387932 437325352 861611681 350221182 251610097 809131461 824287207 197438063 347344325 413346806 116743403 748265252 783553619 142897370 622960687 984326264 763714379 945641311 329994255 641976918 376649697 480394428 271032627 789031510 333883124 218043357 811360756 729576419 99045659 601333909 330198591 875242924 29476601 995106882 897180091 270880340 98365208 275008160 985261140 377582465 838296973 101692203 187220484 499693786 804820168 599380357 603206018 359783748 34954835 778632432 517486247 171348128 263907562 345185666 158523665 944084131 221192736 613310458 482459037 357976337 740648859 260488302 36796670 518545902 279703898 670229177 428865337 143498524 899766131 867826085 117800500 62075006 775168082 887669791 450267815 392670741 756471805 377192782 703691508 154618042 709940122 919056148 400591329 644288967 629388425 856654901 671883370 271949001 702517198 573676579 967105751 689008084 915140224 403250881 785101758 837978162 35697398 991304402 350878759 376586908 703031355 418899049 920227244 215974904 218676940 905762166 669741570 172561310 886041430 422729353 951204045 262806364 588365932 55199021 189057021 592766177 105173465 849929040 526176561 95187012 454239178 865836070 904346762 15093694 79766644 480617332 89167600 132198849 653968070 297904126 606965471 973641167 146291723 328705147 51084928 501406596 555571457 828140734 74036024 455468529 516065086 56276529 346208555 180236432 496226316 363960976 115251351 485488123 940861754 956558375 336913672 689283731 953898693 468165072 985351887 197568338 842951055 611617076 875596583 267417274 323401314 778693775 682567463 957181695 692051991 144997706 294519780 655544297 845437641 997563491 917804394 66166594 852103667 749293067 102457868 540944682 538954899 727693187 54413347 247241920 578390367 255787848 964921085 378467359 462704192 567812573 265931548 187265185 436374209 855778172 927071482 801418786 819429861 328951429 273957456 603471056 765515436 476136676 629702940 529276432 868450921 575053794 920544408 331489757 275681941 114649422 618671499 239306732 225751116 148617592 393919838 144043845 565965662 986402123 891969408 780971909 120220710 451256819 391417531 265714076 149227230 923679425 252523002 370373947 113038440 99934585 454458011 825869688 782288976 910456811 786781821 352458071 321969729 193649435 303774493 117800395 241519731 312493237 849605941 282388227 389404287 166852973 729979831 778791734 866058119 605140071 61896193 832897132 942065328 251519389 291746007 439243985 159339672 369120787 377106649 733725125 657151364 345948346 899879009 119693945 902203054 775045850 395894273 451246861 672468324 792153221 186865662 550792454 82763407 253334448 986745650 311843421 29616836 635108204 923403014 651946248 659612578 128580415 608928039 52852583 673504555 526229911 144942079 109499544 373328268 449030302 223901671 772677056 257287348 199183077 302202092 595244702 412010407 629819544 584765137 628849211 730147749 89421833 600675687 598684300 673170153 632268179 763821707 916249224 845341843 932114645 285499479 902750116 6514202 458838063 749616602 903122713 660190717 407121428 966009052 42166179 888922578 271620956 464667567 12667485 164008168 764703884 880210573 836839072 177185643 760832036 668649467 642598019 384482665 20781643 165230658 977416224 931956362 732523344 546211743 803340087 325592383 804306662 575458027 873466711 657804269 651821574 84262135 855638136 366238505 146322144 771451625 540618180 647541506 106720239 248194480 609078826 782925462 31486878 270580045 999916571 498084053 115119215 129571874 232181987 112397029 235084345 13739161 546208783 682898817 868033407 386630936 94320013 579660704 84006668 307844249 137788563 681098769 793288551 360088272 381827021 453655116 221098734 981534926 151788749 498837513 316575046 894994018 757898411 641177348 39609806 280697750 411687572 939147873 603622396 854792423 521807028 159836894 61188112 499633161 536761067 722653902 620788749 900597477 391598264 645049936 297065984 766806708 821064996 743321057 700527701 758119273 63222537 404098405 767538152 30646057 74956211 119015115 501918185 477990810 138115168 283114446 530167127 622305277 864800961 208637405 257675657 184872158 556628078 354159006 189531403 897049877 817422586 187510996 965148450 844967163 647049592 734433759 784533069 541345595 490622474 939873055 713265818 476083019 412161373 296119410 329268597 175373711 378696980 92583268 600299856 581230364 814203117 229119920 887395410 54791375 155698238 828868401 845669922 570656889 176208616 168676908 76391875 717332128 872906400 890019372 149241095 521646676 16177074 597803882 608569960 826993288 461796165 293276796 274586452 931304180 807048693 505127774 116950004 96172498 713644998 281241710 244892528 729100131 919463071 767899584 923920298 837225686 767779227 11770167 25945099 351219590 905857845 189791304 751475692 528316391 399132510 675599017 728406249 785601478 184467055 791278521 708633003 777395319 224820462 874857472 4773215 724936372 688105025 369462521 706072321 682944147 202497515 501274086 662277357 483526248 852955976 679440051 960204793 140973888 979069543 22898804 833764249 470343547 562701654 421909609 659938928 585228565 720659063 588343012 337352306 549151422 435358762 42750973 608373212 811848115 97022507 57333254 919979002 353573045 87151253 69503431 757579085 192266230 32068222 131483597 741355559 763778368 117419382 22863291 118978073 331424834 331189442 723864552 2979292 195050955 402658869 949652617 709650501 7795556 981319377 780448337 2893986 905432732 530289317 94141367 619563262 760547373 497863033 577721583 912876430 783859228 996067692 28864034 171951717 99993095 809823205 516926210 687616117 961793108 128634634 938417574 459234260 973728783 218041030 400586176 695094340 166469006 136407185 712430695 578527269 687530826 514709520 609200467 40925021 940602752 565415255 215698743 555857687 160236526 948691445 774895586 752292348 150439895 301140691 251072210 411288819 980739290 187525940 913870551 668128567 324710863 384262793 871431304 475372317 782332735 870211436 787214908 620550837 734528099 168977830 92396741 997364073 870762316 331225369 763171628 908599445 743227227 59473662 782196767 511160098 376131251 415737745 643966771 243758429 900923292 693323858 409296462 123113755 870109828 461307903 722053525 801940531 556057258 608243525 161011330 62565645 754501372 307926828 791411823 482706223 596957921 577251297 275460424 277109027 582080962 730477194 957562140 917125256 932713970 267093529 391478449 442489678 935457560 480043221 793771386 549487662 379233399 604610936 1370193 55742396 319416553 523339182 317305887 259392575 374007957 32327240 21889636 294771528 584383452 156036057 428711951 93109584 231305682 996410552 536842413 541072560 385501336 84624729 536212064 100167872 339837093 480641668 213215736 116301425 276296236 725258865 645397035 269649106 749085645 145180433 120839075 478978425 603526830 812602261 50972535 100284330 991063776 643840343 912774670 832954256 78930399 133401510 177968698 888123675 910947394 648398626 466028860 847340344 965280965 831947681 74126248 566078282 322285153 724684261 998795098 615708262 54190427 756660595 974953906 281693954 726458924 226903502 179616559 765579079 6745508 124709204 596357223 501547891 614395691 764264159 78605967 504160615 159194022 518208110 662952295 421315525 437353671 515672460 111208841 445346184 913399381 852214349 202155005 866123782 315701514 445407177 550295594 220502359 736368713 897816071 940291862 114463972 20063215 597969104 367280598 409541285 179728808 552752977 472010263 152454715 967005671 99778947 70936529 114552988 627464925 456170433 69633440 516688598 501388441 349956444 338195157 356905927 649625372 842928730 913097160 705828548 333061949 25119994 94413041 908748022 558118542 342526109 158289495 911337461 42614429 259746515 930935192 289835882 854097425 852527101 59276336 795249458 575580308 193653462 661868292 163956439 769268538 897347020 23725869 535933306 87179275 684880703 881994260 999956037 233871759 317865506 523598242 890117187 341154900 59013084 141662522 841835760 974463424 982319222 412895232 29798287 660708058 967243206 274916270 50654545 884686973 689864641 110661735 158686158 738519920 615315993 685652902 207807056 815523739 297935175 968177741 742093040 776058194 425050236 185550698 29454327 37259686 23219444 87987138 902418343 33857888 500173780 803834174 225473436 834040999 798147124 764926870 830460595 124380161 337273642 401863424 894113547 108492332 48096584 403992090 345009745 103443043 295210622 57112427 621012045 780036478 421386780 329940033 550659601 358810747 691809561 860754773 339508012 531922641 479609451 957397765 917961620 502139360 15226000 510182263 591924218 244276538 929202579 412481615 505155519 512888963 608688981 320109430 158451544 833520258 326566397 126210613 203802911 535724012 70021524 368436674 605636445 937759880 75836374 540847407 982009971 695012822 337113656 343888475 80658379 84783838 633096991 15625172 263298959 3135059 609921665 484854069 632370216 527137389 757721974 669526822 911424050 906060179 497409385 307116396 38183738 623511220 792474317 289241906 854883669 524961938 16650442 114641484 129201778 171627588 770246489 993889413 467601794 92234593 116676243 180685588 946946482 513700750 380900444 238588126 119641541 553340977 110147728 655082781 609721107 155665274 94653376 774520278 835674464 43226394 205845667 69435898 456791296 33823452 572445579 544083180 699121485 165426754 315664638 326345553 861892919 946041053 72981326 950328259 934245730 318747477 494536152 44072552 255647617 864053320 806648988 252115718 856437242 100001044 219654282 890735621 868294255 193215541 883415918 720230867 165898795 626248148 191320359 776798589 875109462 586889259 75253470 300422947 815471468 448958256 344998786 303847171 668466314 147336622 964665826 76387060 182502902 484858314 582382817 975589554 891648749 655769765 637984402 329393087 281184715 763209936 842249578 218253315 812420600 782704278 497880881 856011779 70807101 411198217 395291924 296799414 402707285 599129580 735129450 444610630 931946580 660638898 512130177 390937528 150579649 10644700 888110225 991393435 741526573 266600347 213537334 142377085 367894045 434114190 504112970 473025875 263307958 748767061 494089443 495800128 239113543 962441528 303594058 746945754 78446851 675847284 22837574 395165984 923771536 356818454 458820475 802705933 345924726 731510293 379003986 936128317 601296876 831854976 286939207 908314856 536068314 916936610 212391849 269657034 783781710 155298877 375203120 541192638 679606210 930477121 425843920 66018731 315257595 53589064 669501079 414265048 732616481 433637708 65955404 350426970 679658680 876283626 71528839 422491345 610488831 244217449 33855965 501286693 243383719 659198831 189457992 726550074 666362835 691498916 356342654 264049240 781157086 208630440 29159842 663159403 933250422 9800744 77722230 118326755 256466509 38423450 68748448 243060375 537177204 973094512 825839535 25059344 309982590 219794040 392234761 582070266 722805088 255873298 536974340 731632575 193215510 437805020 838608327 361383588 105286705 237885128 208658276 104403264 791654290 596166223 603509832 433485635 698179737 360760198 937146611 945491093 984948497 622721451 527497650 104685479 358881076 679655107 156198568 235102182 618410014 901846202 194381323 606073998 935791468 539277314 416774676 576778306 260846048 97177685 704006365 380185703 675786645 188188102 403656481 193045634 33676170 605390371 366702643 936205299 226580062 379422009 980126912 326273312 203680138 764411554 404455683 624700562 602448488 571107592 888829059 100991131 842875288 89034521 690901575 924074015 73098496 905083242 477615016 143567572 685491168 113057621 377852502 162433323 421639110 175484766 7897737 588757146 478690052 345394310 943329655 466781506 725187211 818848199 721144979 212963794 309973945 420948212 437789464 407874016 627268970 543129354 492996599 486742016 788318753 445921989 621026019 25358426 387471850 7058562 237357671 52251290 649141439 373190441 741153862 124319666 990158675 708581062 970684275 980407388 62496417 27738386 719649630 666130855 662224451 326731346 25311717 314462528 706733053 766089929 513353863 615286308 606346296 613933854 484803024 37322120 992836328 310456237 197321875 817737419 614330633 218491834 277655062 841760839 438147783 856209947 767200093 237605870 762529191 173616590 886724156 867326078 256656017 79976647 675050069 485543910 410729717 861848552 449151102 408510498 60129672 211816135 952900633 650733970 204545207 37183561 359812822 560109544 970808504 50865762 670826574 31480513 248508493 596107893 703750169 677211357 290864117 490574900 186285662 838315132 607867463 211078755 269998102 644987699 692616542 863645489 112647765 228796690 357461029 500616314 8956166 371178150 807881 355601672 515577937 798971206 904438089 814776372 412760663 669803387 693931269 264429014 837876518 387492009 341148931 389449517 148777841 37793142 323343058 74021583 440394942 371784422 424847689 858274151 535590019 264565607 297231763 617348639 26118427 11107754 857511316 228731794 548987618 784652818 174912082 166404978 606727226 429195458 625701056 550685391 469398302 973715377 13087517 236774752 513262848 302249599 842525644 421511379 397352708 944840779 355645856 905117893 783570887 216442520 154034759 866089771 712363058 197276961 333744682 984512557 684685672 38164658 340628969 296316616 669767557 667336205 165072140 653988540 547689861 452080735 277706948 9263566 988474802 572462651 555728780 746142592 50718692 947509385 453628507 110329518 109248753 339214847 336082656 297458908 202085065 56932400 181630622 382090452 560146951 146382249 955794519 760000932 830400011 903131241 540429240 967029324 762317984 797297350 457696131 454022154 401616635 519613420 417122462 10340860 623047123 968309709 974718721 391131718 685290864 574158580 799906508 357603711 73958697 12869422 592456371 68916261 637569594 191140956 248647759 467200663 424636278 775780367 508860046 488909066 225553799 94336241 459953141 454005731 962806051 329897669 402306483 550286861 130240228 572306620 604057876 683854839 876468866 670629981 280682102 859821361 642168954 767764836 166962105 548217280 568104419 169175171 194127453 400133668 254650466 276136557 191430796 516822213 897059557 841596814 844437654 952455599 499234600 869038595 836513452 516717485 843313509 558027952 760578197 922654498 881020769 90955543 43534080 323718678 370371424 485719809 437807933 994959166 257715691 973627081 807437673 348195131 460652845 354520534 62305647 113799440 700731775 724981887 140075919 584020498 836011671 328262773 702187578 982452447 667532145 627187070 325266884 701974714 882246015 306323724 442773108 948563680 975076862 571523446 108128077 118027481 896690446 440674249 468128907 132477213 822240119 563198789 160214257 182693256 814059750 116241948 145227662 413496445 816696629 807432999 431802933 550147658 208505577 833583191 551855877 440851871 424300616 800652466 10360202 302522491 733523614 108565844 76758687 231951985 416093943 353293736 337739847 922175821 993235093 661262244 825042318 646060946 23492299 370859476 873711078 750189871 112745307 710587768 671543667 930373020 40185337 144290782 257818893 582599457 777356842 858054509 344593329 825126807 461759471 563269952 818343007 26451310 178271285 354680289 488331162 673677623 712801514 295748148 856254095 442808029 923965335 667027639 579335205 150097335 488814408 808362119 479635920 252381176 846533618 830830273 257081748 658931592 550197605 692585489 803434280 926404933 72626341 494852911 921389890 491994717 416376627 580565752 865747011 392736122 486950776 470825982 566182054 23747680 737288082 718310358 135096766 419306697 479030123 860246596 431350567 469538385 841092086 211912911 560197926 620786244 411482144 52395290 514979430 788835883 419135271 292932136 288487565 695842178 267380953 721862763 634541706 772909085 298621414 853919052 243932455 295309779 332346714 985223715 68448671 843732333 824625518 164986266 207940024 767544763 607817462 596541609 161503429 454577145 888446748 649527715 175622577 282010908 18171906 791722446 603021436 599370690 374830340 980424272 601635243 736541833 366559920 713087838 990592483 777987654 728229049 201334180 519730128 304479074 709553917 775913800 26947335 895449259 523065759 530253731 261373203 936766055 432094558 644539337 90237516 167796496 939670946 165825043 510836069 242553686 708246088 511254855 209184101 497383838 30020390 876471169 73837134 338545127 899750850 754002508 320235900 790418299 44354095 972319993 655407118 572600468 474628180 404538248 713245517 601350886 147947543 615547685 884161826 500539451 593035566 325766295 683214774 796002221 899549189 751877085 89063077 981200370 241435327 795057080 350695299 696219091 382600442 152065557 166879712 329385302 353205714 873704720 422693997 76719680 862587672 778935183 898116204 309601377 507242033 266514347 698689334 154585739 402799466 327171420 134519876 285519400 319248841 46038047 276888513 573127533 717798328 142687386 67799739 664285407 468108067 665800467 462660350 516028901 984567650 562005728 862772241 534914073 943522644 8758315 267187702 834941803 308180888 483210619 373812835 282268804 125319597 565221727 633732347 2055166 230393690 213347576 70164641 311431435 679451195 319445072 44436653 151272904 222753349 307463929 608203445 937170739 238557964 719975767 363741909 632662443 22110875 666000263 645113131 659406958 5376027 766688274 157736351 211786610 751722396 783977951 399429806 426188491 710100102 532291764 168528949 645345169 928643719 151038766 242818287 938385262 672812662 538428691 998487462 322645972 932292501 620850032 67362633 488342490 508729490 687091379 169309568 530562239 369272996 444370844 904336039 697402581 95274325 283091863 228110000 566366692 628778118 820945163 132737960 458348339 819646189 132537883 993821443 498426044 332197737 242905789 594855663 779781383 569595140 866671639 106834341 703912037 249620448 477063866 100448146 288338894 554648658 703402556 655567944 574612512 526692970 437462418 663699020 74342278 356952222 882139493 483144247 362240771 770707131 776834933 763920889 622225366 245238713 727165238 83471702 515580314 220880961 36062066 736586024 824518202 606963299 332573767 374721 519838523 964855695 778830316 783246366 766879873 212597642 934116474 188291293 284950340 755803903 146902144 107339347 593590489 52479026 37260796 941576573 90999089 162088130 261856229 729631827 17471955 179004270 199103696 867167399 973489823 103012663 293066899 528719620 721192794 549238373 916631106 571144507 40720739 760691176 256494652 470773438 311619699 358526071 16598978 833341342 436261823 74663770 337081762 402809955 473946262 76557833 651045374 284600327 884459331 368948741 462431767 954131857 947301533 893919118 15606036 829160878 800347692 80176594 276900658 861621649 335754591 99063373 728467285 736175522 735771260 581685637 93840323 474977311 973073891 699816536 595993878 729888297 393375275 176399481 883877693 831179954 720814509 833029650 273840922 173333386 76997304 278652222 42058821 246396201 465471868 985874180 2235398 385810769 204061282 232465547 270886322 383926458 639968435 50499223 318191004 124052953 135563735 181636001 47336109 845778435 804134911 932903014 984243439 858411148 669648887 420531206 155148413 621421547 117494745 642450650 752636351 43931761 465849212 903036921 568898536 139777064 976647296 638231060 538782240 700853620 908727320 720769226 269885886 777104823 159953878 938867530 716380961 502339305 943796980 212656170 459477464 300551767 181632339 661549272 74438601 362149431 631292441 637232464 983177954 911873677 923117626 261065812 429260479 273334601 697782175 835268287 936952815 426981771 141867962 217195165 58387444 227044610 713849584 594461168 75091130 821205918 909950991 755625340 228653330 49938438 859554641 102914299 225753541 143538723 280504373 640906086 231544075 312450017 963485252 1832684 881389932 283869492 392567462 819774491 848349327 513213877 266017707 621547009 627678361 559028255 418964884 760375183 253188575 676002834 36905101 264363710 871881467 202445506 549743285 41927937 742068456 11714555 198353980 973756353 791402474 960720905 24363196 143573625 713254670 996305246 880637241 392517242 168306958 741378601 890474167 126098308 829493891 190084046 844835139 339208806 959844846 943303085 611929504 106551056 47103061 240678313 263275792 944036448 183465804 29789919 173220778 588361901 440441818 788777614 579257380 736036491 420567675 407223726 649436449 161523780 710974822 549186309 792906121 594988200 647431498 956091226 417245107 664145053 862676243 212860702 488087979 131235370 983027908 876117264 36503306 47064340 70539598 635925317 384662251 907878283 160449874 640699111 555821952 43656453 627500469 166039525 257106351 578772925 862676991 30533429 115531965 372486040 209530875 148840764 236932324 759001983 209594772 493124216 204927514 703015991 310956198 757556853 990538464 770075243 229768103 637678350 793032768 888424540 483084983 191247986 556343436 715299250 651416093 479150289 327854242 640652532 405319903 549907033 96577648 476120117 807437935 641134273 766451597 589606229 521428269 834310301 223086157 814507345 521541257 655498915 686573775 1642886 715332636 493300965 473931135 965268774 818884757 379403004 80325630 247603908 846862901 304768983 575816395 134466414 150575416 580878363 357502961 971206274 576537067 896764225 298328998 477694467 527849682 419593973 782003963 340971816 105348025 844143036 28183409 501360555 113543840 377159840 182237262 394769183 478053977 528504428 20664641 138343770 505438223 91163580 803375198 955246183 357970108 835876206 210233618 934334636 328177925 744050153 261424375 617614331 135845386 290049651 440128954 675780512 637917555 219418431 983328337 921684879 26386092 318703475 851402277 583492968 16452292 542387836 593487194 854820486 168192922 816701572 53863752 460165016 873869204 291458566 929002858 987302676 420543843 218258342 451167962 458679482 16643518 650436318 858252889 667866555 192101996 67904678 243141997 584844011 18677110 443972926 945811340 913558103 629336305 160608089 979061408 336311513 319711687 540902619 967894317 820041580 790296660 344540676 131452113 86606482 182110641 823067669 734742656 91661427 878351116 163506472 883644043 842906494 343121205 841689584 264728424 262405179 545509000 791101283 290850735 235422760 388369578 936396881 598459182 350205992 195493342 32783099 12828198 401498856 827778428 868272472 108429383 256920799 165656320 780758206 987710943 425548608 600998411 853123658 195112251 849082607 642235083 29077729 347237269 933010950 453879781 971292564 29454030 519359782 455042853 801123961 243213910 967724065 216283018 436706879 158717156 47592327 186908990 807114506 458442331 253556838 961548306 949858020 302650056 149902811 809271243 195273416 793001940 920314569 688407257 742259465 933264585 532048796 958212157 566270060 665433023 23023415 321668483 619650940 154021049 646146639 63958726 202899106 511856299 280363579 976979921 33094559 497989193 94413574 372935309 582653681 587121706 429064666 50243906 52800848 558895958 754898729 351200269 666610928 321544015 476251557 587296124 342893875 179827822 254174471 985138605 196985540 298485184 808933513 790617464 592226679 378872301 765505054 639113919 265180472 263999891 296603811 705983276 369875284 655604597 811628071 731437605 443169859 437155556 758153152 492814234 715837003 894147816 421425763 786308771 895573467 371133944 891956869 856229180 770271314 135368163 847040854 499338371 371503239 147489503 173408383 232052760 821959041 255735352 934673241 761122165 478901671 135448419 106181910 943894576 40479999 822579458 989575406 842797019 155791091 315644014 605028225 896115150 77448540 581534460 201581959 486682333 427191912 960464462 151137866 731856519 51232620 952494922 22202337 868195399 479465192 79183044 723706745 147079440 549055989 664315240 315498798 138975880 228843677 209281569 949235509 128546071 730949969 88158072 930798445 976375383 646292108 961704510 792578980 286717182 745330120 277984274 861969043 158450577 257458384 243011591 669065514 162375946 81060685 77759415 985749793 442590564 304643471 541080046 565725263 98623804 380180509 518995778 43926148 55360213 427934936 656937564 364977637 559652910 387663806 870388081 529433985 497025649 554275957 934793379 839908625 943074562 981870000 64690686 473654919 618674503 265566339 402132502 83337235 51304313 21631766 708372434 989177287 527692250 513423639 434614015 32162209 981137204 140567655 886090379 196386296 223733231 981374547 683574870 465889284 99302606 705892707 962655492 373830067 453799929 221660495 241626097 802191329 216386633 904012922 112890557 103990670 703920222 449634249 945586475 11543327 576166964 512106327 472199233 919088189 601341480 125724970 958896873 416038270 834379528 674930809 493226311 85154174 708347419 31082756 103811268 982074784 531632360 799588194 593027862 705921457 663472046 813506641 430660918 758666170 477576535 620603554 332669275 821146567 251979944 6236387 731830771 228762781 932399138 391147141 85009012 652749701 524241143 921154977 457127072 41995820 934243229 218085296 369381151 242237562 214389361 977041543 893039442 771704318 740724541 755066280 130775069 181284358 154423712 689570205 776693049 786633597 2088875 76323125 485962927 882132650 833991263 847939694 389032953 196719888 236794277 285999466 423516470 117719781 595423524 380387931 638760374 937916466 778562241 99294889 238356218 763508800 622813338 867247063 175959294 774517596 816662838 402480866 665569111 817241960 209077375 247717648 943358056 270369395 210961847 483725166 802197934 435063894 188414957 295711159 605022161 262615038 430070976 885080700 515611821 534303369 594683743 769771602 307425217 930365771 343896059 414924504 244163301 47271768 979995983 388041323 517109410 861893352 287448306 896926975 837632989 946057889 647692271 78915112 179134620 861283879 927918668 275940909 806859468 935880948 929463931 648238765 483942384 176516648 205574736 649902060 823658727 189272628 231089205 336463360 916741390 918090391 307101442 988298595 397791860 813290397 492467179 792932635 618813677 38751474 790403934 256068427 963611520 19975456 659793888 806456231 950897261 27146470 908436938 169487422 776686930 432289001 431008323 747342277 584789580 86871313 336997738 66314414 481581228 783893218 21390626 725125874 64670085 246917621 276649468 57529298 142637499 284429209 846521508 384772250 696131647 971834088 348742697 269042107 223388708 617891280 895283535 780258863 801217343 951975976 979781094 752904335 593653167 190358716 520401558 845324021 774794329 671199990 75378044 677619713 651062637 136083491 425606041 746943258 486140250 269893981 741209620 122670642 927322957 894936155 774146966 489954249 394567092 862529528 204935812 606470724 638187024 264879327 458214483 31271934 602636609 429198461 923586008 401184355 555344242 999638989 816807170 83222797 135927476 557855831 682129709 707122451 258231897 375072258 265670465 629446796 345519358 152684269 64527287 80312961 175652475 473486743 240008788 438950259 717355309 114522501 97649775 167026366 806988750 972831131 318843554 776697943 602373821 880271135 877728056 654285734 385840056 396663234 616852312 100303319 940850706 272676078 2549078 642668673 986527479 197445487 645532391 854829974 162531597 258322093 294031992 387810359 517019073 548363059 837318935 400217256 868844087 912563357 652807378 466401077 366669214 475570911 349886592 347465816 494781684 477265508 513562110 440776988 485636470 342149923 482320120 900488069 199846862 53227812 245670174 593688333 483601045 614580371 865906256 979521459 978779402 102832816 799632069 9723215 523320 961664216 646026094 886293333 907329220 487386366 291757861 835159282 464439744 36612602 674981777 512466919 447826051 444126961 501915161 226225661 20451919 710239338 710773966 275198503 218103913 510975630 914617954 199898361 868654894 981916903 325718674 333202636 630636230 958214592 912068298 549388834 458584566 84980063 760726242 39884448 590247100 637513147 251783400 93053331 358388975 127779566 887107886 568246533 504787828 677183392 16645451 890077540 557908963 274399655 2775292 349362596 13346900 297174780 200228372 818808552 288116347 298500354 741879236 807192819 50611072 978163002 939827336 248670290 959769185 92968452 492655698 537058805 530456224 38733157 484754714 889373010 77963929 143499143 399973079 287572902 28662189 448371745 148802759 601798982 152165894 477730413 806681822 727181401 211478192 794233826 912788163 961421776 275747238 17406456 638930716 89175208 107983419 589158570 395624644 391996596 894157933 363065084 340037321 851999538 778531324 255992078 521086027 237016778 570189283 887478007 526248202 669480767 342654897 435099787 735037331 149499217 622062897 219122629 93982706 552272030 278826232 667926322 174588351 518834032 579346275 430522127 781657530 798632979 808747655 534520717 51862010 368751495 647167638 207330131 245992971 830647050 272879862 786555841 841722128 2416433 380226843 577986695 323770572 709149872 187227044 476679954 228911966 247954867 491034873 790118592 152669927 302396279 943542237 747974523 231828729 326510845 981036055 130735971 514338592 683586810 210694846 442368308 892198033 490692243 991772474 87996690 858756473 232997388 630652319 145937156 91391866 882050666 959747733 440153343 570834366 958879943 923584466 3592946 706396987 984126659 279143089 623142104 628679590 9527184 181478770 555849505 547119387 485121287 710524130 789708672 574096615 715017046 577873571 751659785 275099629 950448593 295499915 59385662 697525051 73324632 895809301 420104527 335675403 95492937 611431025 945210213 232038839 767157491 383239356 464000993 843857383 420815276 650794799 97049592 423817210 118967872 378875040 837960446 729907049 859402870 246609742 81254687 350931092 334776929 897340092 18287956 357286199 722109095 175246939 389060161 888883539 179915955 494939154 466521629 7187897 106224082 267692219 248568491 280055106 273487623 267128056 775719887 95382415 126557663 655841056 269255330 233025758 242110753 186607322 261072007 980336239 740783564 279558958 886253866 230989582 894634511 475751961 175267010 341931688 231067668 944721626 442808852 361887094 448756090 927893942 373781310 289811333 758472106 316341514 519124135 428578387 88574830 688265278 147519958 693294748 161457210 839050086 717878724 954136252 431122900 517634554 495651739 498844354 185644593 730093493 749407258 361546711 995055861 78468310 722082469 843436355 43643633 123723894 756102545 807275793 279032337 818196103 208172985 764168878 322306347 587752848 515939944 849339562 416507536 750158692 341298350 305372785 178108462 344209896 350471231 425189425 591015893 509440727 780713455 607770298 390377245 191669443 911276189 294147037 43322871 822926504 905182732 309910074 481030246 748372573 304898134 182507245 711191560 376817695 759103146 86326229 529345636 357968863 190135340 59410404 254494860 32015922 131755025 592925983 257714278 368256645 448019061 712174823 862252838 309905406 631138286 918350482 112879512 452228102 661852342 52100765 336772942 605435763 775440674 77938962 852995362 419311534 996106068 894666635 644318363 973219248 779436859 854115192 245712678 809768697 671864298 195971784 98248994 518321270 842607075 93409641 438725223 843589471 746260760 951579123 324911886 148577972 358372939 764901689 978127582 449619484 703841483 398063292 549926255 852119262 359728498 512922654 90760823 928271972 47899067 518583018 858368281 717541606 191113303 757313978 628005588 553925822 164365223 998085195 616917969 395980869 148944308 780967319 653702878 105259099 169230990 989902377 359461586 446179267 6417032 900750357 261911595 987730532 672676865 450822941 291424081 430109465 951788421 637294983 45001852 779185953 49624812 604853744 272980133 660459493 225590144 487888783 444988403 245463903 938284870 509331412 306808077 86452598 339769470 104379863 41122522 689765771 556598644 648137439 37483978 970980666 785546136 21457949 395265667 268276609 312348877 807152934 332512694 154717225 450337102 490904170 631998026 190819964 917504218 445100368 687456014 565101997 324857486 61031364 911765661 605367383 491034475 709217571 26792363 919744852 941912074 157764092 833399586 777126658 353935306 306511230 157344065 934060537 994755929 115398298 543768070 761501834 538605512 135993245 289162138 290995881 194617731 543311029 878149882 106986570 381037076 397238448 833243834 12071776 799666287 63942390 642183500 578247923 147357239 689157152 751607563 895844125 137041970 803447890 973920102 485389879 697688648 924776026 203981367 955680795 377692681 430081838 199094386 497412538 32014182 503298670 596120659 727359360 643523768 186604155 611477519 561407213 455348477 785412416 318443685 828953372 347105784 677695567 152972496 108666185 558568831 22394110 952476097 801207016 353958336 655445513 507288041 544741878 625246518 310580630 504286515 881588462 698016774 294248430 775197782 445860355 510961770 186786327 220155940 465441640 771121011 852363641 737838677 760340142 104936609 654976459 322195297 867427391 577949723 35528758 248696142 475828580 102178049 456735115 302418605 412197412 661147451 182565891 808476637 606611909 87044691 446221538 621069656 596736213 57962616 217868312 936739667 820291139 795978099 406796015 88693228 93204179 571051926 92872361 319092074 291565594 838156787 511308626 157587041 653733495 388466476 712334466 991770744 434259219 709410086 403099322 678793064 287919146 500996009 234759331 32396287 156667096 781664255 816520805 38997683 590508122 831506448 721149573 210118668 368924199 34832998 927805672 578864810 503998691 521600113 943094044 563519727 309246502 405432406 583893044 560026617 411068749 452502271 273148850 897992856 86418270 560994363 660864626 83101873 147386460 92518709 606636955 275534140 184958587 328185328 873160678 598283021 144874052 140735968 615302887 579474990 630652392 179040238 414303756 119787524 318263319 246451917 376307996 982633861 524680757 597682511 125224681 95369958 28317375 310043870 594013209 885659656 543727050 846198700 548396921 250093442 861005648 176525057 805597659 49490120 370601029 971659694 268563414 888333149 797096675 179827253 675781969 318788832 198524666 508220494 263492580 837681140 344727982 900908568 747828048 186328166 424126863 953130133 909517491 219275366 674770880 564907170 653923283 116680086 712816064 582143068 67627239 955431983 824129857 293919209 200332947 97599344 684137370 190245216 331834558 190573349 792250718 719603074 402453866 924600634 51882567 875859003 919776881 745207581 821839452 345759663 529280095 381518434 353233825 515301422 958204741 93124685 84676537 193219562 725041199 596605526 526008469 601251252 94377558 921480660 385813624 479706460 293842009 576672242 816653729 224377204 6538713 59365050 883571631 725353755 887445387 673975572 306481015 385231251 595930337 805247374 980152619 532554218 230143608 575658844 523851001 617464135 100490510 747105937 83372858 596710997 791633780 941197975 252468161 206822652 107390033 234984684 613937296 91744919 790637255 840447620 977416226 619260638 363090157 115882460 273791419 341154685 192145827 73632128 846538060 991928490 296757264 712236255 685491542 827716625 2531180 899966416 617244424 766440012 241201325 775570446 58570900 615237823 611777543 650712172 56833714 174341805 260490726 46147796 586613451 876274831 74373137 691046204 927807041 366381410 359046044 943802207 71936749 607542752 94714487 317345368 693359040 377368885 626917493 873694442 676541386 697746927 985912229 611842966 928310354 544876889 290097277 491397367 931093205 233460447 12639317 98784392 297369299 305964005 478022876 321081910 956320157 745435251 151477639 288569313 41344573 485572588 265693577 815709066 710452655 183943220 659369129 621494684 877669015 730721844 815363533 318580369 256708656 133654670 436337609 617727859 752682620 20791581 880274891 645481027 96350114 907476129 852196400 152548126 867767036 790358877 311002051 124515551 948334184 611921179 681734425 240345064 426075615 777007896 424791844 981170958 359883810 609170755 201738953 279777054 878601877 368552489 64487642 354147390 765526261 731199947 772760067 834597584 20487046 708396074 621043069 482682374 573249268 131662638 85211756 510105921 856194485 250472078 228106592 413014944 284912789 130646421 641644613 654317713 244200442 867479772 655970279 451123897 959016397 617212202 271481610 829056970 101589662 284408958 333710834 660803072 301908171 254346065 618124568 931993035 468626056 137138305 484088602 639062372 177190843 384239005 59637957 380480958 594051198 94824077 858368617 945165221 157912050 513897451 592728738 215121212 197376010 100390353 602106554 672266178 786668672 319794447 632565901 495331901 139996406 882396423 896937492 487884101 444589965 444877333 849794182 228919296 175525483 78745211 638258436 24096175 484074331 871286903 205766026 442362844 324082418 481941894 218593502 806160819 898405868 849069232 613168045 786901268 37134612 434271321 265560678 985021122 509213747 458167327 908476281 504496521 163834126 652570304 137476472 804029034 874559806 495599116 888892330 661810 608651781 168146030 45600686 73838933 433902211 326663239 3248055 814828508 974312890 91678281 527614591 144520395 137373573 888972812 15054390 657874651 138394856 836661236 480694661 26244016 353092223 779084699 550314535 643252864 51560812 61645400 191092008 789887271 733759065 27850084 407112766 699190457 27672579 767374849 527316268 671927325 993708930 728421889 257786542 883076210 491138223 131523593 203036945 153060663 360298658 680837399 305092930 501314569 730463179 872122110 671183857 176702685 102296287 257649422 85641799 72684442 954447795 278942494 242785035 95100524 941038922 851542371 874980224 714362480 28713355 647048301 298691073 621934086 679554662 966510468 742357863 337309418 820237271 987244207 315916690 618725579 305117439 701234747 323329774 610194328 812218504 457466794 593673152 930658354 920774684 376795111 316705373 415703309 740097534 329134195 879513083 625267032 85806141 574336645 659488444 60721927 192460498 570903800 93364600 378417033 370334669 385264843 70507451 575894027 587726722 169643147 188061929 217916941 981470995 391400005 90693783 986791565 344892739 409908514 609059671 997971450 960356839 678673520 635840262 489922852 836359085 970567683 61379650 174060230 570098083 106936904 217067153 269186575 791119350 7194081 362036665 247355321 14392334 450846560 383375837 378671084 489183257 135724251 233476476 901080730 108914922 477816846 108033200 439217455 743576238 345927111 297311319 742986929 495997289 121150523 970141282 600956709 955650872 744905253 515257372 691917701 953482943 338407492 500940705 431721950 927965214 772862801 39872945 402510359 693733896 257255340 377508481 17227074 183871089 83040492 853435468 403455341 313340401 528168703 82963133 250928276 970312634 347135969 620304968 273218297 262352519 625699049 228323393 868376864 770303666 472306845 850016749 448626174 695533514 883581640 923154038 943543009 73461708 438034481 456402164 194636664 715538259 737193466 65992546 800542614 158541660 651874555 348253401 728935532 307119133 715560063 53122825 535566360 34833078 675302110 209384313 665034824 455846629 204877517 542545433 448158298 824491766 681232917 994841114 921907519 106183590 844809690 701480798 691810364 745966375 508686346 649108922 182311576 76206879 616095037 710455719 533600995 992811852 940643672 206073031 59484521 110862389 547631858 187892278 281625821 153141299 896313553 788213292 899561291 807949459 296927757 635380217 881586371 285825711 555289304 836875449 944890916 45082335 444194936 851009475 894736215 291964258 573980020 914381497 434024206 820183526 929341076 733965372 252772367 826124864 871106305 95412315 793872452 573834096 963292467 250115229 431076221 712443876 955003188 373715571 392955614 500393864 646449043 415925959 55725394 549397601 649387286 26574801 711857020 507507265 743951935 962360890 295026347 559513699 935515141 491094815 137078117 209612255 644223875 62804357 835146828 139445832 874556794 550178655 58668594 16921256 923787131 106980062 641490429 814071407 327873732 716122753 338738219 174724974 331900999 349943722 62480235 981509490 242197950 891814754 289246049 944404886 182721919 842700541 750429321 482583164 978337594 342769436 748251033 798934524 239997352 33077799 126935140 104344384 439693436 651647733 823335742 113904261 819777007 999674408 381011340 162327155 211468450 836706244 371135876 477120833 172500899 968797053 95653263 850086334 942412318 920140182 67689543 947813604 916632506 284307692 805660768 951849312 89269481 190185158 820188512 543020232 717966042 584090563 4902168 328597183 182945696 121852276 128164076 960561465 927587048 696903668 966176954 604159228 490176485 153883224 41637419 136897190 601188888 275578654 991718497 5585115 935037939 783263247 264484232 576648490 567035531 618072653 740696704 259211788 492150086 525542766 975005940 750881894 730895594 750879812 697252049 160529524 674095435 627193411 374599306 221157481 942529705 383672157 740193831 233213815 586003165 899097571 230040155 640981034 510683626 666491672 780942940 818143768 120998920 231500266 953102563 384360934 97949383 641004603 404187718 318412100 547167326 104068131 827176287 180526857 461817510 105734517 600251664 15191887 690298055 495318174 209064575 38822637 688749471 526580425 179813668 926156769 851903030 560000787 804154080 454135078 279142044 183553350 145831888 566397747 916265503 787832983 372036863 909139387 999882298 470844631 114766831 207569405 175462296 592077611 886439754 615129490 446076916 620376408 270122288 195575891 336327135 171959417 906859222 189214344 136529294 647903046 363535604 422449113 904485491 666188187 542265390 762489632 715082832 518235948 70920174 543929967 203736970 226881960 419536609 548270962 175097256 899067142 129700628 343281618 117514189 859389819 986279563 760901843 545755177 436011749 556402405 795130313 45358790 808184883 771127889 820896917 261938782 212379031 128489135 187673085 702946421 700609527 577134697 316174142 851083501 499064409 408540517 49781453 762687619 80903327 361836967 235466942 493586957 772958955 79292402 828787806 293149888 884802554 946681214 893796299 79670130 230949608 115783596 870319220 976641465 207274912 581566906 896758258 24600375 873767505 241188386 863611728 368440267 392018861 474903342 62972148 141068649 231026768 150842642 642971181 557915298 445674275 348058607 31549103 911124079 794216550 721471435 753800881 769980162 610279381 328210450 490856389 308838040 311633649 541932268 698424756 714855055 239169733 15643521 32954824 966132991 457012535 54117110 778209559 902309582 521515135 445156988 636228104 964173535 366861656 846924972 533706927 245711638 425134010 76073362 224484231 6892766 878764547 372567560 669878167 907479369 51287796 524481745 606442994 763791880 372366047 89993612 222450764 826809253 32071510 398437694 822594746 999148593 173264235 536947224 883544372 63857372 461908708 2056667 804250064 277854178 640968572 117870178 874320915 42321929 453490155 62945385 152903033 778227902 527973935 311841384 865447360 587458273 736043559 703833205 969963031 787440137 106680020 19335222 131787668 987291787 387332313 151865176 273297084 850195156 751749015 167328480 900477265 223244611 365790483 46820684 268813412 9733908 997942362 952849567 446147819 943545851 871285196 772440288 598032382 67221745 646127270 455722350 287135649 639285474 585419914 186344414 321085252 238725954 86138404 708730937 109197152 521550676 687814764 818084418 58865299 992012357 581274427 247724154 525391693 36889893 565167771 255571251 166017972 842286566 636810210 966775566 836305720 663594095 630921045 818344027 540067750 906443273 52507854 630345536 360493046 569386219 723509576 792299262 262534151 466982290 939487136 918126412 140970987 494290499 808523809 528753597 314315235 2555838 489804718 628250680 365780962 879447121 978476904 472781950 501400379 547183054 878137035 684042941 170848954 488414500 395983636 417912827 897804848 806606270 879101248 792983195 672266781 446886760 560182138 100243748 447902582 739150863 111288530 87307421 367734946 961815225 941080910 95488481 351396946 938814479 123778962 958099959 324466703 882353851 975086684 492076108 813824035 838369509 719486338 540764456 726423736 442334299 974014068 258705803 429098021 420889866 15081317 443061906 851962912 341683936 679686478 241421423 868022837 127974232 500557185 846741372 104426170 509910224 408982349 281821524 890320864 55185456 59605580 660633809 468233943 295211965 735735936 336030517 323483523 432481016 91546423 12545828 663446499 908713910 996898338 912090956 107886624 182066256 840371105 950645618 503020092 586683695 758230150 497307691 605967618 329051111 777148092 694273294 582911832 742560830 679365860 619041591 715012868 474318238 822128354 620477805 339905298 579278595 354278724 671773248 878535373 314580235 765583346 406958987 122253535 584759717 96515208 763418386 47517933 584159848 702418040 158240644 308427969 324051956 517178985 908885924 96019098 647398493 530605527 72780140 206409813 165888257 972236806 118930523 171906155 856808595 571125972 390990305 712715703 268250507 512784153 260898552 324147881 207600900 105780831 990936776 410128635 160739862 403002110 551442233 878337593 57044378 148530387 47119556 503899203 638990063 858894564 137303162 599863042 794076903 6739841 260213424 333071510 632494778 325694997 901913571 807501479 786610700 969297485 396513866 119721910 969897912 190834314 43544717 822564629 377628792 818589412 113731781 750756750 484999004 72183485 726755452 731654712 136340017 562757399 426424453 111117930 815568450 45205500 498794309 353267872 914398777 522713191 498042641 233884751 579155706 451336113 660839940 992552978 67014935 478509199 239136621 983986511 595463718 146547396 881811403 708284023 394007492 703182140 505520420 488300430 334912228 997278355 386435040 883754798 107254774 683812018 572134446 772591724 855691539 720161147 557318839 835789914 871190304 447228570 378060848 993473781 602854538 235292024 169084482 268299106 125600592 845500352 107505825 983416223 878275142 61840538 291059269 83328057 300388783 635009877 189131596 467385646 884252096 411061933 406208367 173835021 286216086 794819060 36644774 91110342 490084664 318707054 246460466 622931580 773939652 791360628 415183812 902365072 114345138 893333076 456440601 903549510 30733210 534435049 364161122 100027371 758342767 223552987 867511181 607385153 191289816 61561906 299805965 63814782 499434672 121565443 429748475 935336670 268023663 455471897 442502590 282179364 294679826 45599037 666930282 432033344 359631583 60281524 66957712 853828143 985046316 3624724 100248914 254244305 256956138 286235794 872920017 601624952 783329214 220761576 901381197 378472267 478559641 670490986 743958296 626765114 589371381 372612943 776538887 156526083 809857781 698499373 301446293 349200610 123011896 295698985 573073141 343681556 973258931 73777712 97253238 260554833 383113423 622238928 283662195 739012973 589833226 508120170 759975763 972452991 466668230 752315777 486375521 827967442 390743739 632489486 875777118 869173747 238957268 849961263 583910295 987110922 420750056 735449 240976751 333471425 667481662 168382593 488418320 495550446 75442978 654892770 601727626 435639661 22439013 597084843 6917629 594993565 587646818 989492600 731925097 284848731 741931374 265824483 924070053 856939716 971576115 64493879 703670130 815381522 440525747 369762530 279026613 761594271 360170571 567970910 536647060 940743096 982986200 139448694 494359435 143966385 558369168 127928528 895178990 370722832 7263328 167889602 143107466 762858107 61455904 478170759 731531493 312308362 165002479 275352117 122403805 628870565 328129947 106455510 581673661 337295200 649953509 556320296 965581828 328995901 824041665 268788019 467838947 40756402 983898409 438427806 45892619 613446850 720432891 959098608 620947757 317486657 535066005 631375950 417857132 595266108 89342455 357760473 587641316 146838475 883222397 647958931 423200440 812306550 81713106 141341630 294486024 115057902 256396132 479575563 618553601 623711122 847709366 830602964 830975798 731618873 662802069 727092369 825868550 570383018 475163802 969329628 584011331 328922666 179720217 907877491 63078951 461618293 740157192 751553358 946211760 406459394 728474800 933854347 226127460 802414523 969057737 349375538 884853609 777005524 868676960 182347957 473513787 338985993 42156663 621978855 177957069 168839029 833027181 73134507 137377953 627697815 535166730 559835018 301967342 210198308 962350793 71251205 486456961 813034809 276169822 613628939 205249014 666157752 394763605 373984114 860965970 326152543 412497458 721867406 365128951 890560002 629538204 242603885 712216842 533088679 301050602 893331587 231829089 575517616 733335276 446314063 657221756 976319319 171227856 935645373 85347267 507212197 867931069 491360125 906424919 946487699 104311762 209197388 14994580 613520321 69343837 598027222 337623861 787372045 755638249 971468896 73502618 238527519 535235005 618604805 336971725 961235404 556812891 771110981 606535918 273219448 170727355 552690839 594754526 838822523 261081841 931792617 338487638 68826628 951826243 314608028 453209115 985638913 348411061 81060530 266279689 383151836 543290812 142384652 157813396 274204147 856497007 203724806 776298042 888303970 142428470 462258762 467163891 157320804 297626000 125245536 9199933 133214722 981752267 855936827 822160893 763866606 24655045 120931426 60998981 151988486 423044779 651645799 518639092 990111419 459321366 458657124 60386730 781192063 37091592 623519999 22077763 985290271 399405661 23362986 456063890 588304686 723367954 451084278 571310090 395629356 208625948 726472435 617369645 943927767 843417671 233522426 93588874 386403753 805308399 577329738 204508427 333692043 731969870 303017951 671654338 248400361 472629095 801208021 590676253 239429568 739344153 416543132 412032218 158675912 432697160 30554374 109125702 348793907 635156790 506942781 333057691 551034301 271975436 686757831 411123339 218034253 327707376 86589396 931749152 447164636 350826281 596597230 657685011 902332619 121288248 871467397 963190711 117873146 511621013 809402165 625164250 348419425 960559251 617250387 850378157 532386555 109023706 285404608 396514384 686348318 680664209 419236725 968568796 10646007 628177249 467007832 403044231 945052907 112822247 353381473 89255096 838424743 907658181 707725676 738861162 571298607 324670613 390865553 937881670 758101568 33777300 519642626 214478702 697242555 569727028 435341122 39708601 176143169 759120034 239805640 641314393 659768379 314771387 385875023 249422388 721679186 264607244 127447521 258374848 804369176 48653798 748628312 313982515 354375755 804419244 614115218 763444611 466119066 274135386 529646851 800621894 670156799 511459371 1374026 7649995 191657875 478177316 345895930 455891744 654973560 679692470 351858430 654077457 276581593 8138965 714582354 627423429 965296198 208508703 210455695 142576702 549093372 508117628 266364387 880409410 930019784 939833440 294603377 238268331 872917531 664031606 912344639 760423328 200530106 407112396 580314681 892625436 612329235 31824966 80512165 790159749 385007464 185256218 996931708 542198751 194938976 316498276 760995909 782885514 375966167 495145112 983061317 378520325 933990368 200264830 953433485 881586759 319520528 931097566 449156147 586534657 776661939 509219496 700690890 187620426 554554883 825537335 189704936 443788214 413990997 631715949 461631470 200856315 684872499 425649479 730756787 148491521 899186003 684277661 285857549 156055272 404444080 450593272 236388406 555718253 264781871 536510309 907873546 360343041 697854675 650409684 114470309 137834344 578951221 555975344 862313109 858960662 345742401 775217613 999134256 508970106 992632609 39714488 69296032 617082178 401489689 788766087 83926999 722650434 810862750 169747786 388003669 555844375 129021862 767314444 223760850 736137629 697338470 88519332 122174351 179227615 789792949 47537909 767039171 395918365 975606593 267014343 523138691 149407162 347246848 46737280 787037477 755574700 121945712 651255898 451765559 946856756 57634497 678371250 972694592 587608891 922534810 143986360 218272042 783084762 637247537 868260480 711183504 87784107 645788556 673725249 102091912 433239170 766499533 614317758 886571818 153992291 619272189 654672430 432692593 103709132 444347326 378288180 920644495 122018322 802776857 962271300 936762086 688373712 115470264 241483299 213100326 397366414 381869781 90298250 764193025 985750758 446443120 832393279 693103546 454120463 18746017 200500157 763249286 961388972 582119933 38674793 850975619 464058887 239205420 39159270 785989025 467806421 387301417 962414710 981926980 497900778 547699666 715858723 172528469 690460688 222344632 7246641 368398522 760136205 413005918 131813631 378133289 382518645 822893567 713431057 255953315 603897906 870758050 9993504 853320316 465632154 155390665 214192462 577989681 142525434 446324738 816356509 343153645 707338715 371002482 280015365 495034457 457770155 405167024 848372246 712111272 773914265 781285849 467107421 211418412 896398736 935694646 274001637 511973421 428689087 721629593 260151842 163946711 737300577 67210064 340819769 797813014 977110464 535377974 524240406 182102547 502592116 443421108 825027848 277013262 451293062 585206465 867251752 230228938 259787792 769386384 318390321 572049600 17394583 702231920 872195740 963429966 371504482 6641726 585026530 48700362 665492812 91011520 380078165 593288427 324911755 221379224 359075245 551032215 312711115 588530801 158628056 698127329 387321692 619169422 783041049 827651911 223031060 660603262 219602627 735674964 862921860 663489096 261365848 369509146 63822556 719688969 205735634 838691050 747574971 681656429 617740867 761574015 247726907 954856661 679497156 251303573 812663949 262519098 197392013 679543020 128441058 207701813 270259362 539129254 905441686 568201570 643267768 404840649 496461882 358223825 263565386 669785215 651806737 773599677 869102318 927106026 451740290 398777978 435523789 483390670 192448283 434453765 911173712 324698133 371880322 329612213 829147588 502798471 571516942 532679620 94139288 699148534 304992939 563221579 702610615 797309793 258518813 154804807 152232003 504038028 851708925 106215969 693581447 831883804 222940965 958429595 889958713 103884160 685660013 868347967 500720996 133574308 298043213 274429437 675591346 962620434 221238371 657036164 876088150 511256886 51806935 49649940 727559255 382915611 952172423 346446952 454212890 968498562 562377484 973497955 742251827 394012176 776566806 83358329 42720938 199589143 110477372 593535682 274857774 253417428 225101892 137697468 857947662 804255038 46602668 265508816 473904648 832433121 970725873 96808689 787423107 374659667 536655193 348765214 369974422 729221067 888671930 48274891 258734911 206187126 869757646 688809148 519335701 724824930 914447362 536364757 227708930 95020958 453005462 285788160 63222795 574233708 733719231 804888809 903305215 517027820 162495829 790021629 300583065 406486414 101514189 3550738 684224860 768027338 84458810 511740472 903170340 29144341 512063575 206641070 565189402 516149177 361724266 244852204 150930412 916549351 86379969 946635772 396999909 544354514 55289716 924823060 936757451 328000614 45248700 379042220 241360893 872831913 973219480 56699216 590007622 506654425 493634973 802687350 906406186 261178773 19884350 654832077 984949332 503585701 581893747 701683224 274470427 664273960 83987296 438591195 78163275 955626782 790928506 156028162 385237995 713694342 249907960 751082173 960166370 292025838 995001558 329315931 181084867 346960796 42381062 94070797 440406037 651084669 153051424 715199693 255091136 413929327 174779257 476594845 540047038 225844878 591860789 479967567 478878863 707882667 495341751 831529136 689164930 730640998 1356731 142527854 167049788 299201506 603507329 641413982 950100964 386072832 398683279 944728508 550304123 105615573 769259185 525930223 368448990 676390925 115288684 238231847 785967759 956169407 155443468 869439714 859146374 889357323 324519587 168927376 120625616 311055804 772616304 486386395 625879145 72623225 348653301 722204934 130816713 803835816 296529867 316868603 6404488 498640814 231133696 284212601 372786358 739767487 301468874 959638660 504028039 311880315 681828832 401252231 523905972 247978124 460657328 586364355 92948888 254933936 694594404 707876639 564387157 320052051 951942611 83674523 422248698 958902994 26152867 735815911 698053405 185653978 729037316 345262010 996135764 719743756 445576822 633567963 265258742 55649465 505616557 482525119 415687848 896635543 654075356 108741611 465437200 657786366 665916311 905162177 102437489 283601807 555512458 35069759 777093081 206428374 763842108 423103555 398338209 97111584 926517303 279223424 390078954 356819858 328478063 776712380 739007910 279906048 842480280 6595896 514489761 639804001 804091148 338009818 266758663 109301788 638947271 298255263 478047970 623398491 198839407 721362999 36545271 607995397 809023957 847523073 773151129 489370331 767269118 313354629 127289880 103675776 317343753 31793722 725262697 656530224 323272561 112555695 823938395 66830085 58515442 365346287 789207642 32879979 117443952 859026968 111493574 11095457 429035113 664680249 459646448 408780509 344287721 604254950 486462652 6151534 739938559 822007160 114344123 314997371 102019288 756865927 640767087 927454347 938389634 113927485 981708669 618178915 282507913 197135950 993683117 744808867 432803269 312077049 87730403 397290664 671679021 492143637 10891046 956224219 701301085 755423123 72173409 512086105 867491220 427927156 955599077 478573660 96419003 648336898 262626839 975391411 906436272 867442144 646299505 430480259 731897177 557287463 969282513 370077113 890365971 268199798 469354000 788536494 273223790 474250008 635599913 819435706 904223694 559216724 859692607 648572292 247181612 43920594 709504071 43208181 731671095 123039361 244936699 324563714 582068250 673826217 475093339 504245569 726626482 396187084 839997237 509329754 357002653 280995474 922609450 138858498 610084222 647144550 808956305 551086561 863911691 715436166 146817806 747618100 235766724 867003497 20953538 991631253 459469066 184554201 99931469 819750316 343564956 723180907 420865799 224809798 964982114 888191885 497103006 926257033 900508944 510033724 748154715 769684308 843698675 345156026 911337803 197432410 526088731 1761220 952556310 722889740 243022630 363792706 56958044 161298614 751961826 47687850 821466964 95998677 617029774 868833135 893064019 815519 31617035 168424452 962977179 41721480 226129677 664013114 57843717 785936035 186505617 514497854 589805766 369949986 853902649 365507495 700041854 505302578 625912432 975251150 779682666 331056527 624732351 960108237 935156252 259394790 389500703 280358706 732238868 120244917 641734104 253145796 955143779 589018556 295462543 129476616 443383742 770122415 242218459 273439543 711909881 320506430 681597567 50839097 808475716 755211202 58526380 703673004 721617354 910076833 325786221 487018474 204852315 747074621 409692176 970634670 976440875 400083859 179831504 933856468 216258421 899738801 924032785 565019468 793138198 71886456 323989922 495183532 955356559 248320940 456663758 994882324 321559412 66207775 259846599 860688902 523167057 939460461 799740371 303344588 903117691 9886338 778079986 495089554 844776764 101911257 381958605 809615126 610087219 18232299 566690845 398627252 58030756 510540526 118669208 730472529 629602904 115189274 174033197 612489355 515449317 220137437 557821240 894618528 450449681 443807744 161986589 86769134 507804854 355322250 42363935 644412725 53304078 835602781 855634089 116264760 432940300 922626977 368045932 264972840 912164067 346746929 362941218 402264633 912142331 311554064 722879090 787199043 811585215 454447982 823435086 475756170 582834086 811139083 331616670 672918371 534692288 69111731 546580306 284116333 324762012 337608065 107813344 989880118 333886619 13540509 233225069 358098703 628389377 36673255 760333793 517494563 351868969 627440487 242724226 785973731 788967438 316811107 656986869 209303828 18410864 81529511 957158499 380082002 808116931 777718983 837658173 228971453 748538628 458084933 103583118 133417268 206677480 320592151 104552755 552992467 620239897 919500209 988536511 95915689 766831070 598555849 236487280 666252447 483654957 203317443 951995568 834781160 811038792 630275083 516400764 661449586 142455414 319069165 638094772 457542457 500792101 700419889 898606951 51660303 297075097 542733623 649758225 12460407 102609147 329425205 799538163 813641389 260618170 305065774 181222397 773174254 350341243 832190166 402112500 115152641 148421963 37593528 194379711 186460496 842475906 69923021 221806979 8289797 157803477 25367476 715872377 182433484 714647767 894449493 323589128 37512771 749288255 161416085 453467249 513656494 368329892 532752623 875162628 97476947 890824113 421372809 956458169 787683060 108333715 878913934 53164536 47488394 889287142 778700583 546721981 450479141 178708182 13816695 79237261 8506981 571714657 548712914 36979932 286193256 875933543 349858575 282738757 86136416 62739684 232381013 563209575 446732556 106856820 732823424 167452533 31040231 717620943 571255448 67258496 120901094 145315755 982667810 337756249 679188107 491913463 57598926 237653982 605294319 275615109 690781171 390576202 50696540 899431214 133676481 247881660 7217204 540244971 587091949 250440694 246383639 77523949 765097905 209841218 993556136 745607433 9362152 252698287 659772063 346515484 521120418 561523202 523126789 875227864 602383698 931490484 236497019 125956725 251631025 888438801 164336161 734500718 681514114 700197069 443155919 790160281 607123837 753107794 6873903 343758381 658420717 72879534 96979989 730822701 214618240 636347374 858098941 467934323 268799707 46143414 670681191 6157729 394756424 66464212 989089194 390355527 930638480 205349141 818748669 652990019 298482282 537177535 764801356 927552310 32934059 645394818 642312165 632094707 250939894 312356416 922205898 401803393 287658560 315172732 902319904 604975477 348240017 355444691 255660593 250569605 492024637 449974315 792735672 295168655 62757643 100181903 475971676 212196586 726812486 242807636 707843142 81420140 382860600 609915040 598416260 810958670 541772777 387156122 415751117 561802995 385219572 928744807 434517664 182381445 233310967 350227358 800250649 624163433 853221371 87706142 91290443 156317520 990189796 999459412 663437050 516977508 3997808 498663223 868860684 935202123 973145863 146928874 230490206 268618463 122567710 93635342 760006694 874550368 838196506 267638202 336580833 560058890 542704124 172270412 891561377 569859312 340239455 281000834 893548545 251767319 317771761 207292422 638504770 63086037 161978791 568207569 715578415 195793951 689544990 860312427 134550102 597591554 672248921 202766968 529993315 69378346 847323596 75507898 731124831 943751170 136176549 658894770 202085132 646755173 781091994 972699439 314873437 913211243 171271967 522241059 922262505 472729360 580740237 762711471 512873635 516033766 222155883 729395972 254884910 498064237 37211079 985186158 468283423 129941630 470855427 108417579 428572471 451314762 319497278 664815026 19464007 800672258 838100500 39988167 61160951 402851223 428794355 499385101 983155773 813775865 590429961 456591268 970068207 487912804 349462171 799318760 539647031 757782949 808102932 134226631 183906802 689505540 387221293 516477177 980673292 233761309 110450580 844465736 342244874 920319403 387683226 545988112 580896030 781045353 741470647 872342401 595612643 324994893 49566353 462828698 583005547 66386521 677814556 493762457 211921190 256558027 741265978 797654104 90624072 497448087 282616609 8788289 835944331 424310434 730260687 697061457 389790358 142940310 374501038 569936681 842302286 469977890 464959808 87096445 166702839 392081362 106529778 915096400 728245536 619979586 247031575 615797242 595313078 697112852 662662054 404751086 555335363 86882213 882601134 744395536 991917585 82628553 30875454 61542634 487388340 311397652 258210296 996308182 202119095 495267696 517024934 537685230 582395752 12543941 57484407 299620652 115797422 980642472 752983896 598016410 403774886 172084579 783562763 459784892 639646068 180179889 616273431 134392335 450097062 688225296 415211018 496620792 340920428 146665894 773801449 22439960 283705825 35362231 750190534 653833686 106014927 210891949 491313183 143027061 152602567 875690769 684361643 786674738 24238819 522187577 806644235 923705398 324084612 612772153 899911334 834127810 868135507 722535701 366916941 514541543 884353648 538940175 73324508 811689581 347040979 358369332 780311364 915835417 810012257 533144485 812816169 566607678 391134384 264213504 210479296 19319208 504879176 235341987 451125511 613493541 588038930 507729146 252639335 615660967 454652630 806341639 39232482 671938524 211823123 703185608 90254199 682500985 712202950 108789502 126639479 30586922 248499966 566992165 424544616 38047839 229902934 486438419 396055149 81204004 607314083 238894149 794388027 955108293 10324457 343235861 719162495 653050911 414695378 457563392 420358433 127186046 882823186 186709122 8903147 192617887 54774057 222396182 802614803 957550298 824268991 259522175 729401415 95860400 782928270 484795826 890384944 32402871 587631852 603910625 689118492 989169829 427252658 595717755 960593690 932805207 562457414 256766085 672704426 552233094 817184712 3495097 812163916 805851647 958335998 329245484 93245417 648864409 928339881 172164160 782726348 745629329 145364591 312851872 621393342 796227847 774677023 785912368 922519825 978602602 768876418 157922192 522858518 657266070 14255635 785478280 296153464 147026301 711380306 291865964 380159912 918583782 731315608 386361750 60943692 16212239 972847014 523510215 966990255 53289734 723347097 260023171 793967320 984270032 811985046 942246730 618955185 143353907 732152287 30261614 736318196 908312159 623850099 872435116 460130043 152864321 233657346 358952290 896965565 442098995 415287564 529256699 664033271 534360466 299719285 673755736 855180908 888568870 475632961 584575322 442843351 843500452 569784747 490812164 182087966 924323129 248588812 899560833 693643455 542621910 620944012 305677964 227455731 485183786 285433809 225055483 400860274 2042961 612090125 473743982 852240515 646519269 454509340 514537564 282003987 489126483 878108490 815304079 976705938 818023610 402692571 720138187 591305776 845023272 842045083 681978635 868735677 613959334 622025087 58009247 302472661 773824009 778733549 821259427 76578715 741014070 894968360 260718892 528467067 860924254 739645497 287678465 446783381 859379772 290758438 913776254 756466226 294917468 751860037 566667890 921776805 462573607 847023841 106294913 612633905 659988987 598086281 86696301 711658633 144466453 883128448 168976851 33833153 468124473 397287535 418040715 118056463 782720709 293882132 284760027 145516469 297324241 364192738 139029130 256966232 672042799 241881967 244905555 132111951 6466307 337106113 305777600 545423040 587762899 760767589 300663231 386699270 772750908 189495830 644039909 269270001 150313547 547365797 130960834 656125599 236757649 49462681 339453924 253927210 314367921 602180348 15905482 417532675 493018522 106657023 220468735 541505594 52755559 444099011 222925300 313509581 646162216 1483731 364555947 347732282 261986042 627254033 985472356 427412293 664775267 450587317 679579786 750197123 882234453 142239873 346095226 888219928 442548842 244560958 247240489 888781259 358930864 724911819 994329942 991403514 705502061 990572213 257433223 137528872 72212896 181794896 261138102 887722283 313723236 914993011 343975316 260901721 714037955 907830965 633904522 76902523 117926343 585669355 788509928 73459557 547144397 800710059 47081261 660519456 683433162 372171965 563426233 160093103 566338130 242050370 685519059 671674200 200200778 161852206 452080430 390251102 151313807 873661404 227525526 343958620 765970727 349921610 356730102 575199851 442798331 380781090 376974505 645463777 943755173 231492582 308026224 227510580 790911426 238035034 956342450 35804470 807486451 769043264 593682852 300594800 961162209 768613220 571494721 423902200 398146249 34982237 210792824 380040868 258583853 561771184 745507785 193605223 116219742 393000304 256134955 592138049 170451454 398293771 473818375 402961834 136466144 259618969 44949973 363733448 358892451 584016201 267201154 50041645 705401773 203248726 815217715 193710962 511991204 225490350 433803020 614172267 466935264 847774915 184848100 807525197 402145941 77979681 498855495 319683039 307375283 578858574 918162796 361497309 201274122 128528687 676958533 45686388 669041275 105704732 704188290 71780097 481582519 683705984 263913132 3355119 130837080 171438371 713510456 132990253 70390475 906191450 427552010 129900527 379055488 861933447 828436419 185593113 323002987 313112231 57360293 516666599 730547984 209311320 265048653 888049041 891387655 658494643 474133847 648752139 240139796 129628777 698104262 374049518 843058158 981621380 538892684 637727436 343559949 436068791 988211982 263288333 776898574 349726424 920164374 47982076 248149385 641347950 696936763 608875875 758185407 139581650 53422361 673619048 273002182 190401995 724735239 445722823 127051060 379456753 929289671 617056274 472623003 139567718 240878163 394313673 210404986 747539696 171882914 796780600 588327789 35380837 741981633 842095118 242041482 739003143 514731374 334640901 563081099 730819607 488379309 648753567 494959595 950503307 641899810 748377126 170857368 396235768 357827202 643765233 589934892 865823778 720759309 248938021 891570058 575638937 594233770 437745904 767154645 463367859 689159061 705508286 873745489 807159115 377203909 499968733 871187392 958574115 45743530 610682138 120527615 342161423 704688287 619138002 862765057 442165492 718695538 277392797 473299670 106713933 560805567 261642895 516324217 53099510 929076386 953875101 775092309 11463033 184204991 524239084 294949742 528206193 477385881 994586699 721549644 869061906 474100610 585893163 832999281 159392361 531272583 609824080 132651260 621724970 360336868 129554884 250739692 473283864 706408097 85541308 717683939 495613524 156291110 860333557 561740614 816878054 156145619 682080147 107577463 118708499 832870506 226405339 389799036 371546068 355856594 703671923 8810940 821860569 368942522 715145275 784630510 770505136 215278467 583108376 495078932 495030326 551222831 117959235 217813159 270524712 744307277 859777891 988247900 998397281 916939909 518839111 448537887 380033990 649822989 605233840 561096972 765089162 374640793 631255382 339507599 909905662 148295434 779007288 646033434 512676351 172631090 945894321 517094293 15014943 391174089 813251511 841461828 516614405 57966513 393572183 137614977 106525844 794543150 548903880 648758000 197165293 918752157 584678560 781367526 37172636 28578883 286741057 369617333 184607395 890924228 125208929 736338775 726542203 747343190 375434696 327609790 395532623 237773670 383004104 908650798 419766883 24995015 525481470 729300284 787427009 740909786 591251839 606848487 935051875 390088862 419679237 36349815 328153195 27485074 9741173 620809878 933980450 772038732 487789342 384384977 208216945 576461796 118809292 658363965 243727322 605185232 905946317 262805404 222280392 371477983 523950283 352161034 495801902 856869160 81161709 513914730 61860519 294562473 167657396 624072998 19166543 443908327 410984379 577562242 60062702 214849895 215063846 963207336 830648307 644543149 823354661 394139005 487482446 824720017 181394286 435347403 670604750 327379796 720998400 338229709 884230418 557318065 786280336 832354196 363382848 151431384 536540160 445955543 831678577 659498816 57895945 4687634 86574483 370046587 330646958 393688694 751475229 651871390 260088198 761599388 68353815 410927620 707702516 822700693 562684005 788586798 260114173 629733296 325046965 18340077 447304669 69989969 420588762 696471943 360888901 196918847 684944161 536501924 547252552 579703679 352826510 692149602 293739078 904088320 578129867 713215980 360787370 717674886 341984867 747033449 527088538 283937290 333513467 204782573 790400057 900002184 681063770 818513617 46460894 230244357 679191124 884714554 341997394 232040253 839176054 667522524 175747509 833645406 103866632 631987870 470715199 107800341 838722095 680842561 884330469 114523470 855646675 979991025 290015562 216636425 620033878 35878152 677700332 169458039 62320406 105296048 341219973 834134997 371949694 443839766 424181880 814790814 91766723 335641688 199234488 962175462 986920066 339019002 693442974 464103145 318247122 832759689 977889258 487915544 558630687 963153967 176017719 217253882 617110588 324751828 738650728 939413293 979244777 856802280 496528059 625526863 611425416 458940635 490122017 599389374 624182103 565037760 567758884 152305849 473805364 286673113 102703370 827500862 969188610 214732887 923964602 397874175 533643170 79812902 347375131 274599350 501858918 846789929 820817881 245933088 640021788 965737196 884980745 415581242 60474020 861225506 535908094 203392755 166610007 563770257 887087536 598198697 838469046 454977302 55494434 685533051 503319471 569492077 314424491 681376738 666921440 183282374 797609491 989177183 284246470 463546783 802328677 275296725 932491190 276946466 305046638 775417260 956050416 120315639 6880910 303284419 770436541 645767785 698428905 14626596 738661121 260182637 648841679 930054488 180617441 543316628 728287406 480834796 280194998 607708941 201675237 1741542 451807942 994812075 355036281 315728269 175619605 228214753 745361800 490726746 41038498 941542571 900077601 667191180 648282957 366938567 339422154 531955143 197904488 653174523 456773367 603650901 988135969 84917175 776106498 61782740 727785616 680154748 445111888 294181232 928158411 892667616 2114381 587244780 213618972 687819713 416761144 256135943 991900542 482772773 60788630 833790158 552423485 605371973 507250809 361031908 486265567 448351394 210541851 128592178 298075222 372934365 13320758 303760602 501871257 334570461 865698834 951075549 448962333 773715047 11935601 578092781 332009396 511409141 618292490 934503886 417434308 508279034 73717331 953688206 532538443 356328421 762467786 30597853 42183461 738220425 866464119 649018974 435510045 902691490 687982345 223268934 39132602 757599336 991522039 18804672 771089692 630797797 389508657 841368726 966763103 328220323 713901152 424265100 385418412 488167340 291229454 456651394 939599058 846958435 598256356 164822019 662622225 271212435 998632724 270775333 316714500 369744437 301037319 839316275 337494442 273158438 930450365 75268601 51646651 554273631 62958112 751157125 303496689 774227038 378700179 115590222 178481090 508367618 676595811 996165506 506899467 293561447 720542911 770479140 145439012 204527637 571944112 500607012 466599509 764332745 840823820 654762148 996435557 197853498 618989467 807080614 736969590 51688633 109299358 988066514 833696337 637505926 516214794 155678354 33324929 830749785 233972057 834255751 854932671 220466095 128190004 201370834 795741848 213516739 909699613 607042746 629226811 956057968 611134045 223569167 366607566 505782229 533559434 346120779 603504398 941842142 495243253 586332682 55567828 162684028 287897983 73379452 761488992 645867987 466077827 576549006 742723686 675244487 386263888 640284122 659579060 395575697 775470615 394720312 201983255 472737634 10636922 384337408 295327642 996226854 57968938 94210914 830817643 322093175 515630337 131997422 641299265 414799352 555286371 381054513 800468638 603356606 773110775 336528816 283197992 383753217 861637989 985141872 348389804 615447083 516738636 682610986 374381013 510488792 470666486 622470333 910447806 457539344 55836561 928339346 474171685 965260842 391723171 20620674 34849846 633742996 540084695 448457375 381947947 130270331 793277264 555647475 880050895 18162229 732549810 105022498 462122960 317892043 64598639 604885538 958818236 297058594 798397463 452420725 684047648 667663354 748658728 610036045 65117042 73520849 55942774 498367416 354742371 650980424 602177694 939591752 296511668 243535081 444710608 314382190 355119243 917804050 911908614 636239364 481915293 624492590 229515305 556214698 971927067 135369271 466130992 898600037 100296223 491777412 357309280 349453336 905934518 256507589 530571487 749916265 98502021 595797863 338267638 267485089 881086438 469500571 431297038 772781112 532882583 835880650 350751162 145237718 236235119 211367997 16450726 33114993 430261581 315647047 59660588 160989501 565141263 418642532 426389505 23992835 502820870 678872861 488967952 766353356 134572203 926268666 363064711 11030388 238502279 878841015 185129514 829352665 959288089 652330341 423492581 215070703 823051969 184231260 542908458 152668448 192324608 182975654 759304866 918766360 620788633 217401915 69604544 243361260 589493159 19067072 571468371 389445124 780333117 225933964 773618279 573518815 644819580 353138263 821100097 768654863 781431118 362509556 566773560 295744819 457200920 515877677 20242188 814839595 804581389 204455923 162420247 374763850 164831199 498647190 906933530 391890895 829178913 13916797 853003228 234054706 457283122 631174337 523307443 189696084 281306555 119778543 328975535 20256525 754667840 985719553 16613502 363563698 90502741 771487250 197055837 459468578 169442429 364063290 154092798 268511977 162620559 712379474 442866097 418023228 497326669 744693366 952730941 337808792 64448375 990112412 238689651 492099402 217512935 54740181 857661326 681696960 611400544 193428777 761892025 990988879 846420065 788187278 480957436 632130465 584843226 31098958 324198426 343365216 260843658 588506043 985528632 523723532 690772170 400413765 189556099 235872240 353813006 829066328 986539278 155722616 739790939 282525147 962433763 631144033 692703239 859225724 448630187 681543448 864738976 849920013 176226155 768016074 912425319 269922169 670834165 6569218 591577200 97012659 433624249 296800042 337623673 971435105 988464386 330328522 85036285 166377347 27737855 289075928 849017370 332804872 844382065 34323921 573215223 226471244 672594687 740986090 534676871 174393398 90870573 167841867 138001002 918195800 795094320 252909471 535035634 890309880 512541527 998369038 408722044 958797264 679585989 965054487 848819470 274603308 745501077 56659970 773807623 542214195 883290916 416009535 989089707 996830555 563338741 345799648 628490101 609240131 653437446 341414894 597442260 577930935 332910244 995441188 554970332 800008596 666002163 272550543 628099834 296358157 663596325 122237252 577519473 441535284 146376630 423069932 983754006 632777334 629473631 744216543 110598377 155171924 708121951 128599762 746599844 806437348 771320827 516732283 80368430 34003577 381837835 900349159 877276045 851303878 122595925 237207899 895263899 769484171 665713194 315614362 146506638 508797326 256653384 974916378 277837122 733835164 253207068 912569357 170450814 400106198 936282140 550021216 964934941 985659288 23667830 637167003 771122065 68530484 403783158 437020750 399956508 765911381 568960562 48196481 826244529 279864332 692456644 669514788 477433048 645231289 229657099 946410954 182806952 65445337 793401640 134530266 759295150 503310361 969374566 552411038 496573346 446981689 204609823 137554733 166116125 324308515 566628758 807336091 620595915 3808913 725071393 977990031 900972474 247539637 573073895 349353178 728395430 84240019 884095383 326001117 133351134 449887116 43065946 232597353 369514743 553079937 34258015 196702776 684358021 563152541 388879875 761723864 731539491 706689088 270070757 828330505 835687171 49345069 259220016 570838037 588479448 258492110 903868444 797980722 22097163 652272730 391138174 123186259 472666221 671335447 748649254 40083440 713887466 303953129 305558622 152617940 854345187 821575226 279026390 259969640 839013901 995579173 269870047 857777160 751075927 13505958 353394112 423996660 210526012 456066889 908939065 902398048 9970348 85001994 466402855 396395387 694430871 210034995 154141379 361161194 279315314 110081535 283375236 44638787 919560756 149204452 781813916 974934159 863470269 214602558 302811337 345569106 774544716 740005432 716538550 234416150 551994315 237182520 558834415 13132211 691631115 83988650 735233279 414304805 959030899 888699507 936320939 634172495 715653356 293540250 89132492 218696064 470100868 684595103 599004512 422411862 438194061 707047026 407484944 955791994 112566126 149565469 446987274 172670764 167249818 32074603 30072208 94901182 601921104 120932505 750627875 831111564 930658984 517313882 795296965 962828324 963999668 654978786 88169840 306275612 263369469 962753800 200616000 216156326 17221545 900410579 498135340 956247037 548362439 537723454 881429627 101301648 224431583 614723507 641421280 828882839 957541621 541786124 929534099 317168371 942416248 460464129 162455261 406434710 810266415 66310641 81857137 663542093 520617144 523502274 818535066 576568755 417204384 928552148 209650770 726566139 732905145 758158535 689173484 161457389 937696935 200980208 10994855 777164371 584383411 219289290 576260484 997813629 377847975 314044102 933045212 321899786 202931272 213116686 438014902 423036273 997360731 801322904 856755993 111076977 296421853 674217375 17067790 419414476 441159788 508336545 534809490 344616240 285314482 500740301 668666540 219960159 11565191 374991575 624401032 200456803 930657265 493741557 320527700 785941378 843770098 433754347 35492567 157042899 229040372 468624380 756344612 888459194 585465784 495227085 881800518 302207435 98621586 232302006 674370550 548532395 642357996 62356576 94360546 374362152 32921687 295555753 881170750 404633712 89915649 771898710 243031087 19285949 800177614 809897138 238499830 829407747 416207901 815107848 717858697 670392938 12239289 977200894 828768212 745183639 770508006 906873626 346680663 425983527 68514282 315759705 604241644 947529010 514299729 802348724 300376632 761815353 462003185 81810428 937026244 397160462 298850484 495137229 903521788 485531864 651253618 579654652 415384575 440799403 457508323 504188005 123311801 697940777 254547290 93432847 557908275 851739256 335762079 904324867 683619110 659024591 989855425 237767315 6628414 796337284 981739375 28829532 818871190 785364597 128846094 367045906 527029649 344949860 458516294 357016012 421649312 743534921 915719640 645351654 305142980 895078028 657900540 155706517 910796910 736599945 379095593 310607698 219585438 600541936 154234289 34241823 293806148 486635719 322822131 67391790 423372601 387895719 339781383 785206868 772195293 48476708 405491146 234341051 322887955 567431852 152986881 144047087 567577237 914586168 726455886 58088484 847087780 778321969 648060302 859445841 230978448 395689058 592278215 218635237 153896788 274087659 4855631 248607979 648648986 289611322 706612823 986320531 548987041 128720136 780439926 702164741 428385705 482002504 639792552 1886187 953995008 436114346 113479611 129876888 636394826 192511064 709470123 568445161 33433897 590523991 86884069 484983462 735315272 871530298 144874298 910181363 536105650 56740394 994724962 470425799 166846042 612500962 986796168 580864109 366093607 755038070 242876076 291444335 170858388 991501297 543350855 182000552 297394132 293422162 365106768 428468011 951806055 784709822 835633380 317514693 306019086 38045773 899539232 505926761 647737170 960753304 527362916 84965055 474787233 347047037 79561422 931288912 865021851 187898885 610813785 531329531 935796592 248528923 93608033 965586519 897144377 916801292 96205064 560530394 601601991 913090414 512960636 678298775 320798202 88694449 789758868 374627297 514815158 592805666 320028309 977836561 613548621 102730453 269954461 214864162 597819062 724887594 188634149 38955543 862081053 289929839 234545882 917593904 446636707 16800697 507344801 658351824 44597675 606718956 733765819 798424124 698847445 940217007 187439956 735262013 45961221 765165949 186778593 832361785 181422730 519979100 329721605 278692761 478832053 674126480 464582721 123981365 293164147 854989645 299549886 981100808 629726200 641922454 997148105 905713619 11071446 607056501 803772341 463930290 589304575 911761674 114154172 351742584 671034520 60165757 274027757 958170671 212329962 183551204 962535314 242073029 127861943 742535575 783522364 917713572 925789898 899003529 69171906 804590762 411287914 972573059 386846255 415880821 520190267 551637349 86752774 491709586 558860502 276399068 791603372 458644159 678535449 952517012 836285364 980226908 356394930 397010309 891276525 44240983 518414447 731237292 662040150 78787202 679609000 469603190 455067596 281070250 797924537 444475814 763330794 525290197 969737403 338286051 658705548 599460065 549702433 694745032 153455518 853914274 482880498 322444846 458158520 439302996 980126465 37899286 602792451 121462498 64917432 783726707 631497565 273912433 501832812 597097875 898299817 24723283 676799767 409662883 899794470 656448079 759675216 522191621 746443692 989381141 920157897 294353184 417163225 216341165 259873323 249966864 955533112 736426186 604357031 86605689 878725404 144028361 577382427 137380219 621988052 919940427 154732467 923514779 132141389 191132028 567812255 330219473 938923676 6532493 539643199 121992953 226173887 179935233 609199731 888756926 435040402 379770930 930494101 920433175 561115573 923209184 602128352 521967194 53842299 813542585 5332190 260466895 778871974 430002717 406766752 136210153 480038626 921321810 968490783 784780696 199165328 572485891 767913457 645539001 279606387 316173704 924016868 882218010 682548020 320655065 612592575 155325011 84633066 772414794 561683520 49143854 329921412 601002753 325498174 514384266 801164090 377858430 306164171 166223608 283578082 830808551 776831303 821588595 262353682 296919002 115660225 975560851 885939127 624617905 212134593 445065865 643407472 46955153 172299160 1078874 379147860 102956228 411581080 264728369 209012881 79523807 502729970 151225808 897690085 473914509 295984579 433072299 947670634 418580297 99593256 574470951 385123669 287770843 129445926 738042915 68242667 672261082 965783768 483106268 484628853 921101441 692534574 544453366 270234890 258632740 490539133 838159765 275363285 214144940 592559330 32782038 38252106 915761403 929665551 950504725 612548960 903847811 333960456 424657792 552422562 804836586 557104751 290895421 917553856 211782033 534594651 692404354 342721409 787383 448245574 314212467 803497495 207470418 623997898 593485593 803708798 570452145 595127394 172940530 699308143 203056242 925046611 406794113 86017539 332028361 639445849 457885533 696469649 262834333 589233215 755013291 431980657 368252286 476246163 831139475 943308007 367647299 103870943 605630064 516867394 621970630 149287801 749135771 459268679 340701867 12485912 915555070 18215874 858833869 256151321 431687266 976330382 363690151 316996744 113434666 353233661 961570123 879888808 418271596 909176993 310267933 673392261 998477019 422460276 505391404 189468818 68491220 681140678 710101345 731930221 313223413 455936397 834408808 836974747 977868302 999825871 363144886 822638375 872227851 531935297 720318511 885183632 245769593 225062518 966190842 440114562 512825953 414054928 216434805 424540163 37617159 180168832 511587109 898357012 377120336 896374085 812550055 15487946 724333844 554752556 384677455 580420988 48423155 607105115 432319040 643162038 114726683 235431413 969926796 841615090 711929612 596776849 254166723 477708891 587049850 151024508 890245660 402056955 84698557 148341935 949108306 57544838 742038589 982177878 505624390 914339359 73324395 887386992 662791482 581538867 586622854 586369901 288383685 681839616 555555443 410594653 475185121 271393970 598300410 117384090 166451614 772187224 883789506 411174133 936207879 87686061 100070652 632974650 265200549 741122836 663979008 362149171 988353882 942817297 81320349 692395302 407349012 457429502 314826885 699068040 392683701 902474594 467229178 578016877 149295433 970872266 594747780 11720904 403999276 398353022 776090571 268429840 593873696 690940242 368351404 965090356 395574098 651256877 484350551 662501227 133602876 664866742 951425489 243079242 724126750 859590649 72280688 878759509 109187336 721186558 866000627 732847243 402608049 183915553 464724057 297971368 654356025 844735530 379653658 714492863 113804245 481921771 856055820 211374125 104979089 118051433 585015778 308227367 226694625 283531735 898942263 316333696 966222390 523129104 841859646 785741888 292466350 548105121 254707571 439926884 228936001 444898168 284443021 41042853 86884051 634708256 435773588 88458098 406829696 959055398 614409372 933191061 917129760 473163980 970590712 144874582 808925462 549632386 522803826 36909326 851501018 174128108 983492912 402673626 836421820 539235468 673180548 604779670 196953283 426852170 60854303 203567445 563692216 208793554 506972181 539516247 551533465 650143669 581248000 493471531 109735417 259777254 990288756 720436444 379122310 234938659 760295031 44589886 657950030 514084028 926713192 331532065 502444093 541553120 938410768 582529267 993809196 856973406 368158242 72026255 947593944 673532551 709721538 81543345 841666928 50741358 810598615 516102544 17007662 760518512 906994546 526631017 131839507 88534912 999621398 85291030 688129452 686700608 66404038 625022927 603592817 175357771 967536856 578527099 599681729 196524915 365093621 609063257 987434215 571315833 83992119 105138140 65467967 986691755 768457528 921453161 576832648 733753055 249948658 314037268 57343177 250859812 397206781 100499397 621687245 154638067 289150811 196636548 307895752 438974277 619229608 386948158 313053946 465622591 344691444 903873823 35456568 943533112 229532155 208285749 194810375 471877890 54875935 43518796 48457179 403088698 474975500 811808339 830201128 754611142 399825804 522878108 253242055 730851857 22602898 118009515 496354505 795816874 407109579 874488088 848255114 315857078 239484046 906423655 962020276 983090175 182364608 474837430 609144416 610121036 26865491 778655642 255719116 381000874 359037757 852182974 267925120 713291157 471882834 743466014 443946235 66107852 793433127 193623931 244050625 650581362 234023931 292888056 216091658 151998365 251103254 342026234 893530816 737880265 919296719 644505565 93756491 198140734 532753870 683277405 291183801 450632718 925605681 668851083 458182100 460029875 134481060 898048476 643183015 929128977 63615025 422056982 556097199 125677556 22854188 24050131 308113229 262040203 894906051 935245844 134949895 558533064 810449145 199353197 311418641 86285421 855456211 130328515 391316258 732010117 379014375 477925194 834740526 666794070 702908347 845846262 794660094 876916514 215789206 768062098 423229209 924709797 32491099 8437002 699039714 291440462 663908773 773198870 38981513 22445983 512879194 235724999 249565893 395676398 302252834 113072932 381306261 690949997 485613420 337642685 388863829 10454084 409487481 297026542 893378294 659757357 428210796 191663600 167031605 630256362 783026225 114118898 545664767 953071075 448124569 55543791 587256869 129489620 586010528 141091215 471711779 325091204 353315599 183487786 734662003 193585186 533625584 11464725 388527839 76815177 683062758 944287714 835192300 794449477 974630098 584517709 343343764 449980347 647154036 149932148 7758902 264798344 17370617 945265649 723085329 341475048 755319679 229802243 148896321 967266175 99918857 777375333 586535198 558091905 160452781 133527900 846723703 163030476 776586047 649242287 657101339 595440884 690227439 603623310 752059273 504713117 235010514 926733951 872262656 693371919 189007807 331149167 885763426 500912300 202662 690016266 882419183 824753270 63010146 18326855 506686842 473519543 408508611 430249553 71174345 743918717 326198576 788021278 832243602 71414568 177609195 485579701 303542655 154966697 595784941 600659607 615854510 766129227 607405200 659101920 351358019 18622787 664629936 606515321 962455935 636422143 992828640 574500043 949741645 395316288 852181220 290421822 487494513 812771474 869431029 282744312 923985729 746280103 766824999 145845068 975877727 20317346 108052854 254347776 369240512 847440023 381180275 470514151 462959320 473018675 172173009 327877051 367510281 958678625 72885343 839787090 479990063 386082124 181700884 350627514 638782684 359239597 350953105 842500459 224943923 183931708 449890349 206997053 408613276 30603171 793244119 131110093 264320679 29128711 696636943 529255635 496777777 480091821 241811805 673883251 536002132 667976788 906924906 837360582 830152993 858642375 164557717 998207007 563716791 101061251 14859364 327818840 965926592 857452348 909191930 426190181 281959289 405743208 945931750 437957734 845618785 687928498 683104592 451950175 154767696 877021466 881530137 789164469 460968786 863611014 758280570 48044849 33262999 515585369 972771670 565266170 250793757 494796977 407879202 296079047 664588637 414571370 358586536 340251121 76988418 355965680 65739003 257920033 899251136 177829317 528716168 961601887 642655971 551098283 926862512 685434887 198346085 293982392 549262843 257090240 218301177 375565863 727426732 746985617 412114955 245856805 499750371 670004966 922476135 907715433 43598032 491999679 117489134 167875170 785451904 774451807 597179152 287300047 972546360 263927696 137845058 296502062 490730701 654549352 747791486 744455858 367228070 910875013 106643975 680821568 441458692 840960811 884877428 765917738 8112936 91707737 876582252 466154278 380788209 642775481 192555759 669875978 58627880 51945575 956462246 518759003 958459089 9956338 675275763 195376969 486054525 331758091 463465114 651136687 710057014 590974348 814756104 970351634 65102333 389382031 377893368 396234730 679215326 731424956 535704337 363400942 691020540 726606579 64726346 367710355 457464925 93091874 197816418 57806724 132064093 484829038 133705498 601782845 230741915 741297036 680973309 475033037 529750123 919450313 285292754 668931148 808015852 329161374 591076529 848176339 464248692 945260827 643917417 110596972 222402184 463126060 64446745 891217697 591351781 700663444 495900999 591801983 388032092 20026216 834695872 320342704 720852514 460004126 825344586 763881260 146639438 201718492 544931450 826284980 337947590 922911088 225397329 568386840 968950410 179355843 172149784 281856527 149501300 158271301 466042926 844282762 219007940 654221336 560605631 9885044 743449738 415693346 485734227 944875036 467092812 154592636 635464736 701591441 95415577 360399282 56032643 768950828 571328186 351502240 219433465 443807619 475507055 761083674 222650392 286733521 359474697 473629704 392858074 856041673 366455552 221093759 292060201 838632262 349445131 539677315 790826485 748115820 662418855 213757257 479861463 621957535 337053771 796237216 76944925 586735017 244056084 778172305 92431645 907580278 642943914 121163263 562861785 105716264 213244995 2064872 248838229 442272450 912604957 697108581 743691982 173948752 38681638 25968343 530706506 10466426 725156152 888649392 612735054 778688460 368360279 378064353 380684762 542021144 739264189 108459406 807583762 477119623 520599076 757271463 944910771 112843074 502639916 606120305 809351935 475068181 749661910 602104577 675104173 155968642 512702419 126931457 295810937 965923655 802034300 903395890 908880937 552486437 410954459 41227336 838056269 417725317 947400078 370566418 167954222 592029429 939417346 201843394 599754055 607735250 904267998 939934427 673771601 935975222 591816116 957301035 399753346 77350301 252141012 146150147 261482362 2765667 401221198 882641240 287042103 365294550 298931083 277144458 57775779 704566480 473288584 294805670 35831602 573463440 496325956 634202696 892756376 605518677 59505798 422361493 506413533 80113961 178726878 212166845 451930217 479070102 336588740 712347632 718669151 961823341 436919258 178503923 909389657 280654426 302962996 152252117 220801684 52929728 135975002 360054457 402768067 78520713 969986692 705813307 108478344 892458900 848021201 902012654 890047360 533440842 212352434 373769297 859377067 232547184 39513797 602147334 894007849 537202665 730021036 101803638 214381107 813602925 778412868 22509574 405524842 402213938 821351428 817097061 748223978 402578712 137164307 766151936 483536648 143441873 863603975 978663330 105489165 50655532 820179012 709861987 572582179 982959202 358232435 98766026 554031315 614934359 909658357 199082256 777605836 676502151 7359998 110341163 342972812 288190586 977052395 638975207 762189646 946525187 335531862 745727297 16620900 290366107 471935923 345445800 85457775 690061226 109072949 863160187 141821947 486708820 942074675 460269608 595647590 555787565 342253148 501492212 661813852 397380847 413029239 756533107 388404549 882034400 84273322 77408259 767961381 711525164 224845035 222981621 47147890 100556588 188836060 687091664 846876429 190855781 985335037 989918673 310643653 869294381 770966658 371780792 208493695 987824215 650671688 633118786 959193884 992859111 377214384 297661524 9529099 663461191 7209433 355498765 963692165 508693818 800260002 673179680 600591074 208313524 578305350 588197609 349533643 17294648 815351138 896751499 936035018 518826531 637013377 714093233 563828926 232052705 67751227 817875649 397602675 477121464 246353145 733597972 2631186 254642405 41807237 104319909 82006543 140517819 134414303 716477432 615175145 773371032 574422948 420910693 752433638 847873190 868135672 742058924 207971319 171235400 240970980 975470725 135558805 562932407 893132847 861196190 355392614 690721532 776992962 308779514 940138139 641702287 250671261 612205465 103049878 707091130 228996358 731654546 539307614 527089057 839169180 615598251 64467906 402711244 949837901 454008601 694221454 817587024 600521722 463230800 635319896 488446060 232118692 725969913 150906886 102402093 690242413 486504117 711069403 284157653 3781493 465675377 169758293 898346201 914647192 321947227 124287303 90203626 773821497 973492367 287183240 491778764 793488812 186982153 315705386 672208283 546056051 400143484 989438490 691127541 425350808 482397432 129537201 444513155 97840889 471530278 590383852 174030665 872232506 258244639 230358302 195978180 660318512 474845264 165570954 396484443 964409442 412101017 537309289 284442967 22833088 508989396 303036921 310247246 35545887 687781687 625646794 32086361 428627617 840778290 214716560 816733893 114111598 638937734 157137261 998019467 776798194 210964521 923250305 877308132 103579369 828132803 381374539 736614494 583001337 383456545 477062437 38037147 955094166 528177017 414364046 705587130 415198908 895368911 377016212 843043556 911954622 65424390 586538400 750150175 125324139 401050189 994059193 192098281 579607460 933544770 201399089 794126653 625042660 18739153 234256750 729895542 20842359 995356008 421584173 190552960 304824071 714494086 109199469 957283053 53627594 459458276 332234764 319155505 490276247 482859842 300408967 935143603 715548899 582469603 662281593 193694871 710327692 579831210 958065816 639914581 589430480 107030327 277874345 387660872 329596863 730557283 573244706 912751122 520153409 340170072 101844780 215418712 310968139 724941966 124609130 3098884 946722227 903209778 932659711 879816238 882590037 249171569 880565881 333209592 699965715 610024823 399838799 326135671 502677260 480879751 825233928 849889962 944093606 55086948 852564216 520395514 906478038 918614423 870509595 446753646 425858532 780762167 931891711 586088868 931230735 982017734 318734909 88291542 998789315 475079226 89034940 477798821 816188008 708873380 668283901 156027698 601636887 970665127 801949295 888074832 837119691 280044130 744752337 348072830 224351564 886153227 412129987 362208207 84743817 883682374 591506066 499092005 406385627 374107723 706768772 363150194 297685793 322536271 497748850 592368927 934562008 619298188 35460227 241350198 278788080 762859000 179944507 732692073 354274801 119413157 909500190 20440361 267882746 880918530 781257308 36747820 612268938 613521175 550287203 196813213 879142641 90779286 91376301 295454741 532802619 35447836 854316408 316813047 465340345 438560610 88034981 469871607 439982568 189400101 140619919 620610402 49932043 242744711 319480616 501267089 971751618 235963820 372621721 578997371 994266714 764783983 360216220 614012594 276456000 351507688 695362206 858254127 516979792 953618230 869862238 396930642 124935972 540221635 952549489 659516258 99307699 661719586 443923366 232751029 943687106 812657511 401751747 949706577 232159273 239526768 921182047 762021716 836156120 890279136 166848892 882601416 658376164 709198891 129513736 814504859 358706931 596321375 91187998 87624198 232404032 174247483 505791447 452884848 729115325 669183851 718993065 127965623 297857702 997985691 81229439 498456752 97522854 869989257 269322527 721921209 984061080 662824817 512105279 483533561 868885641 99467186 188984721 548117887 243989473 140733910 740032489 99171693 449396507 506060312 115475799 404878389 210793134 710692767 58533772 76774985 962732453 28827678 302873114 551416243 779478288 250706240 551326878 662376557 711514723 919187142 99297546 288127257 108992967 511932974 738980742 129088399 930622568 426456446 977939673 697161302 710198339 174022097 678335680 909999642 474367434 750645356 934364550 267079346 932530972 586795917 47829729 341597264 905312962 394605324 523044527 617095608 520321497 24550557 272446477 493681465 859011352 355480447 759112627 206945015 137449571 892186392 562112389 34928393 230967864 820272905 39862686 451008763 350357015 937197511 791388081 60381656 439792811 590377845 364667734 843696763 969393186 123956017 142269672 624769578 275539983 755992942 227125345 397018553 470356674 744379271 411746976 156198916 234575056 172461568 242098295 755772411 778275720 764572564 542860051 361789454 567268938 202218480 324921417 627419287 810796597 867838656 546212215 905213557 51646291 277670865 783718427 352031116 230900787 819802529 569576033 548794974 936741178 637638637 484757330 61414009 128296086 162230397 484707463 909939617 693274613 506549410 291235549 725720983 576397561 132427243 660891222 699269727 362650576 835741376 147029509 10850757 894695156 460409815 372885526 208812770 399152951 481409266 384710271 703781345 612762688 136489179 435114915 621492928 788003657 865309326 496009326 321107020 197044104 183078038 323871435 744277062 55920730 252606106 660573629 980452963 630368163 12760330 797178445 104002903 568039257 628117455 968944107 802506116 92899665 803981993 370618501 164026540 825357049 268594606 807712224 277568855 544389254 229555469 304057451 841510899 553720529 193984414 71165874 584405781 57525768 554762839 310075475 142362670 189582610 931635152 681608879 716994538 927803619 416725805 234880141 983784274 690745824 623048428 722011493 411668427 354676895 505692958 862561341 771843764 394639741 881888427 381016649 801814212 101491719 574334663 491660679 172674650 784902748 40065352 621067955 136644565 609048230 983366378 314628338 494387851 378182545 128622464 340879127 110378652 197695672 488868946 38767602 229680526 965165112 387488082 148318484 61344706 326814862 444527261 58360917 499565408 357180890 480402147 991410138 290771716 424133252 24861349 558894309 789657757 424044586 94890359 924429402 491235841 671526607 544199358 237794078 363017941 520930964 969075320 175384767 378988555 285832328 193212490 791865986 443002684 445953351 676312226 596166475 44458453 545118872 404584435 53589788 563047324 608198204 285901999 714037891 880631441 416191760 633170291 937927616 321192891 364660253 110439335 867265984 894202273 966337108 317483103 388306116 181965414 313821152 92551679 891190083 869413364 289609128 294474583 686861791 749957200 923413574 240180723 633687983 587773321 67962708 189747635 797272828 843479865 433441917 392833022 999219857 240588365 903700398 694127235 16009470 29214888 326908492 460312291 693550534 683045158 47740099 311419242 626812670 270811976 220871972 393535129 766174138 280621372 258007974 988331314 845159775 599855756 170366540 601160032 394595916 295563471 297291942 479210599 163594830 98296023 404329235 346482592 689262239 799859233 39153123 433696229 534129806 942906742 346321094 901586237 927892936 166144597 7984166 371017558 511760920 77448830 298075400 739914800 200005441 610411022 147781681 946477579 464188421 726144596 181187449 217064239 802034855 226064231 696898021 99815901 338243447 574905345 155907088 534224116 755251254 811971136 573385994 509922458 9003813 619978234 804581621 321839337 132424511 275989471 338545554 339587032 977799522 651557025 932472302 707092899 145237249 915481987 340514307 309921653 859562241 701615019 40127922 250779148 90947544 50704710 849241071 260891768 396287613 595425201 393848186 335815488 983797167 128077178 263305161 270997276 682699875 435112273 120739525 254969886 56897032 498271202 704649961 680224920 453992880 738911526 941425542 195445571 496012683 424679413 246267933 513715313 999045313 63137342 565241698 300729577 688212815 158789029 427896139 402417261 807623518 30024733 453109764 573404581 169343621 856307164 396213387 718071063 869617756 259038937 762783045 9681410 117893427 314302383 677120967 612214848 821307865 603387118 554365571 289386282 551107995 278890666 362586497 198241814 553961562 714544933 688915791 887159827 465152288 338441827 518927640 20062133 657386831 840363160 899402134 603795287 60834831 642672839 337359986 781627938 432898255 334588100 395638611 445740136 885114589 731795504 136399471 71709616 274977237 687052055 296483790 48287231 144634055 262877701 925683150 279423310 551448252 576699187 295587851 43446961 66669739 741909982 21557950 421685165 100896436 419994282 236944468 826290005 551966353 65813198 739947757 295584655 207760899 972474482 843067057 184575653 938416180 748646021 479770380 297450126 697100510 276530534 255113615 30077540 137279749 27511010 304133532 759061689 292214213 202923263 130310818 549309709 340849250 123665248 436463675 345681471 94598702 817730012 12144044 764661402 366940207 465846385 18772482 73680028 502276155 216784254 105722213 497243006 867677400 863873472 236162006 271077478 458996822 723470088 538805295 220640467 518304876 835155203 497927887 60923561 629563000 423775322 10065574 136715543 910787674 397020719 38185826 475908630 672968585 298600419 408443652 928101858 82987220 247377878 592711048 395750542 934467630 138832546 889825127 417494563 859226769 397615939 510202823 23658334 76981393 677898653 557729845 723338626 639752009 418491336 233850163 990539361 581045567 741886594 368830178 119830316 867770907 465540668 822982747 687536796 115970050 982752097 83416090 753056561 46740216 764160938 617225736 424485799 66999718 78319101 963922801 290430518 420649119 538713926 113257297 965206458 457383906 995728159 572259388 71155530 591877862 564032059 138244332 954076132 624754699 430132612 972368414 5931805 266216659 886618489 488092249 192940633 255557866 551642374 598389020 839482686 727341133 602252720 460112744 210729362 371284895 645256512 592840053 832605423 25232478 399061219 497675167 666881031 863273040 256899496 746696585 891973945 864204250 137038468 243262444 924783283 658394680 51766781 721383878 160067623 405433719 161274728 503227935 596710964 503246539 581898906 598354873 369376357 241793164 88865898 873073990 585005113 307749838 640852469 829845708 666591636 602782401 848995532 494190107 317805083 657239578 714493812 686091344 741329823 856157668 571454589 310257460 356343004 463800511 203133492 407777175 367999693 313614693 901780586 617155455 281981772 51329902 721710760 515754356 699801817 446423338 761033646 205951205 519183002 214172889 470077034 950396014 846772383 637145696 844651469 956098047 697865124 577503801 79881777 711847097 515619836 184846347 743977797 158630274 63561477 797306187 419494100 425550940 128288116 884652547 214926812 824345135 640722819 269252425 455880534 282521407 967073902 412238536 368431124 189624142 63913214 768379274 923792932 527893640 53099503 271936843 970386389 873872427 147833853 995744955 929317662 81071371 268468200 895972222 481121969 762817012 59206731 755323948 377039901 646446771 231944408 780943201 306733640 50844504 781407383 307473276 703547728 693104325 758429340 143059012 816418369 997920397 307097058 131133798 394217725 290555404 536134846 238930046 312126361 999645775 235407852 769082155 795456442 788413439 980035080 225060408 67309734 660847082 556139542 232432453 572311147 708027971 480918931 732360658 278239826 28607726 127899666 956292449 854003056 712408760 186452957 251328670 706870362 809556283 854778184 246374496 8329565 7499496 515624324 437953308 616516638 526750547 813070245 134204561 858866586 607027311 109828186 84146658 670468530 724741237 891162995 7120830 57275199 655323197 29042119 585133433 470789337 181364067 448910254 409470850 254491145 846238900 802101552 738172922 471481810 638662079 453459337 512539218 243692634 146861068 393903060 820446414 602621757 717353251 153865376 482667660 207245662 215375503 222119793 919335709 89886554 636319750 323260475 233381558 611500190 176493668 906462385 313716194 875991145 353548200 720802004 4784518 886857449 899530849 755531299 570012444 463548778 774844351 290347618 947430915 959000814 972686830 472087051 13580563 385066891 68980821 339729163 273131135 511224167 871392337 647723129 936919362 678681139 292163884 493949083 284057350 176217974 227861270 728382429 128955516 626662720 550182203 242554315 895829427 867280446 951469901 341037409 511606301 474297507 563115307 379186278 284448527 179497937 317392685 357674404 116447363 700704147 222168114 167782565 180904250 549612904 709800690 537827625 772818203 898146412 991948875 531758114 124602429 587855804 504230323 211179687 231835084 630419226 932815560 503584279 323684475 76754168 91773939 727997402 64977515 248919085 409601923 826227337 728122763 154415108 113571086 708977815 511169818 218555341 687187154 465029015 371737439 898453365 643161218 348912409 515527845 353598044 207628402 405124958 995664812 307569938 351509587 987409606 63553779 95835293 964848376 419502435 150144058 740895502 306743383 494721782 566983249 855625521 310169542 171317241 270519770 627484839 10594725 94889997 553184469 637016157 900215842 464039794 79327183 199047363 410090802 646727931 696283998 571858098 652839936 397886261 284455613 950814485 415260467 169554895 353808266 353645610 143717283 1031352 127194835 432819084 372844472 397884367 589459820 690224824 464618850 616444057 308714882 50852793 292388138 950479958 372861956 255504017 915662238 404382719 989540544 252881774 177578938 639897969 359950193 232127621 159443086 257958227 904083304 490389308 687421464 94235246 687955962 82529537 948395656 797936272 874179810 855102923 115876734 498319508 900143939 369605882 355793845 420367738 185792609 236767100 87199274 943395235 19784653 445030629 284378455 681257279 196206610 916855190 883023502 845475847 878751628 181564520 393921646 672369687 576986213 177407485 556727625 383892603 189217516 649112625 306709178 787304644 124724594 145059008 778949988 405065282 746530553 366981292 842468930 53907735 217439407 256931972 749953063 735199218 955178789 427341274 436916171 273940517 881888557 407708937 321025851 596584422 180742880 378846443 735173844 292870325 947901356 761870772 296528726 707004623 534658107 316228562 124583736 862742538 214243544 91082326 795210517 441796284 844519535 835469434 161506192 583766697 338846610 811117068 748481178 956825508 238008637 11049088 385449007 545151053 705504749 414800935 172477825 264269604 673663530 232990179 280896346 394511008 891381172 29993443 347533607 413304126 573957232 901115206 21265601 55891696 249519528 103660127 902373221 740609608 610339597 815908137 463120325 612598954 253625794 862153189 963205770 409860271 757775268 144718544 311110662 783723129 872357984 851228693 346639903 531681620 781081275 937485268 120162331 558140203 188622758 15698125 386407433 659065413 920748290 172622126 921174982 671274111 304646524 268594247 352975683 829497110 907989548 485137615 973469473 712739477 621933823 808847530 280267351 8009354 841403016 341204042 2994108 154394645 527349136 931240692 570203886 735864480 653161635 131834364 862061690 930421825 444980824 358317383 344128889 708057944 478881819 127537510 377578127 443041105 36126556 71125896 144418685 810989521 734697386 34067755 693723271 657882430 987260849 244337401 367357745 382384624 556663134 386520823 606414725 101255311 826554954 594106526 993263322 966780501 243652668 610037533 882974791 643424474 408323898 889860726 647394249 624917418 140686637 100198523 756142811 114954409 896730052 544682952 37467149 871738831 702826025 630305472 214079218 474082189 370811561 477685594 91125764 535604190 591190251 340435566 969017812 647331058 496987386 942660604 733317467 204418340 182391850 859171259 265654331 57943014 248541329 409985086 585427952 889682619 402256822 463812772 226434063 251031505 756776197 182046521 647240907 113660841 423035128 64774674 503844895 502040697 890445503 284321622 41973878 215305459 996935519 253127354 880985458 529693450 960845945 470408005 875293216 464214828 180096376 86525551 572636353 729713590 467741706 740229818 418410674 939801527 249016552 398317905 619659177 108077019 254428360 250875905 472659176 269353017 455457156 806317546 531541899 424916241 240388181 688641454 711444630 225144996 836509340 864110474 732714087 884415914 560258533 733878680 366566877 9622006 458827815 186846943 750785422 913458005 877079453 423916707 351551266 152233458 735216011 11828774 673904563 279984571 882508250 767407777 111127207 855557963 208621715 24043978 607743070 542711444 45026236 981258014 567512968 66155256 16459470 151259371 834498865 304895178 704008151 140518410 951901323 85591363 184381266 223347257 968583174 739554807 46540156 598495765 681806866 647132360 262079467 43864698 200678965 640900003 89733152 253762304 578288626 91374856 160544308 920225312 655949198 730875788 703932400 620874669 858776768 751888218 787739033 58834857 423331315 351454151 325630081 705790576 648447303 460558930 584183503 125774885 757741324 3719906 196316435 317024161 13572055 532831743 402169645 344569008 297882781 384044224 593582591 782429653 184010635 568554601 172624922 545102139 582958607 481542106 735930133 355042805 992879318 103620611 971565822 145136610 145911730 932156411 207035450 190842794 183460692 247539945 902147587 550402042 875500301 317718241 630461850 357434947 793495689 921393272 748339524 715886383 930725616 683197930 358334379 713134025 61608274 516267856 570509872 486237534 701732541 583141318 281531154 876340901 681298871 159190067 683010760 238962815 589796762 226057023 749531232 976922652 186851895 726019065 281148434 83903829 564507772 319330960 930192155 146722395 933607726 740176588 257114416 877503515 789926278 349533585 986975463 266438596 398505468 514561620 408931451 933755123 100453154 361196528 854359311 668528272 679865470 412022242 743510939 906047199 793383513 414609934 42987913 772313982 260527884 247910597 952543714 568722327 890831288 103450044 340498817 450899403 109448548 347516904 218972959 353168077 972202897 356402748 931554699 821281068 293773912 970746453 170111475 642024886 162437448 304118995 755901457 354769927 901925142 700550663 184076229 355672474 554051220 847822295 764273681 394337749 297810683 37187706 648330255 499364705 679992469 233726261 544428911 744583828 517289688 315075122 202006226 310660132 46401174 38901458 725430891 987962590 385596475 472253046 369556983 714888259 864859142 85204401 614425815 849762154 768581913 20266864 520554685 14053889 565292743 97427005 480240557 214639090 694341189 563927680 385547283 149457601 75515104 333690111 743334323 246146827 991805108 687087286 198417048 427327835 21892144 240841766 974975164 256317494 999655802 693229931 6673834 312525477 413162546 958427946 739897456 836032882 297540552 471744372 437501550 221171558 555462274 838227404 528478828 916697427 444962228 35936107 707500551 525723491 992702710 485883253 641145393 850376155 232715811 115807642 326558860 834748811 620216902 358863890 339970740 786648801 871275266 105243616 81209845 251693171 230256837 348784757 122044165 213977400 29218590 305294589 919490884 700423816 998543041 458642275 165776622 632072359 314862991 741197833 833804413 480691549 962795894 886278142 183681632 371288789 374803199 11598285 655428939 882018293 566669592 604529257 382074079 567394883 506802241 362583173 357706484 520869494 790270214 660338215 758225640 303312993 758894162 820104318 64877443 200407207 369209601 354677068 873355186 489256612 443783404 911670707 680774241 490363944 978939285 375469533 948594686 164337381 932802649 244100254 431334255 216595072 581261219 912814033 85313586 93848126 343646706 706694016 130680956 387625071 302252256 295155426 989759294 305276034 81331115 753640715 602400642 914126171 449893968 375236623 521134912 980579257 762448911 596801296 74810007 974353398 48037817 422838118 145491486 809985541 903110814 481158081 818453088 245265617 674156049 527468949 651229022 846934600 538220193 313330833 255817317 173874779 466738418 918614344 485662821 730974397 362856120 79438110 8452907 921106795 48627357 452579103 303465763 627975706 253400933 670071388 622690658 652527891 701564918 772501605 749499987 99118295 320721028 386839090 893384139 713506114 78256106 739322749 822928556 905313159 252414551 208538184 635958424 993212476 421902299 952822437 600259166 737742132 804773253 520076457 469894419 962569079 483479060 240892708 743534673 495110699 463152507 541025462 242326056 209168211 587739664 237889706 824981736 423111359 936024315 294678129 828501472 372993337 353558041 608422908 523768895 298785672 925513351 742806910 567097715 400823845 424323328 739896336 538211033 164654278 520818157 183640688 514222907 395666384 484952697 895695346 951281470 675795495 665783550 100039788 593968098 161984897 555321834 836419433 886891071 442971724 418350589 237207962 612527606 644699620 226704162 155156780 882824004 570324314 398855878 606023161 77157713 691652132 260024681 946571275 304155571 916027790 702183222 419731591 937102792 354427127 694841005 579074743 262813829 628247460 568616220 297602862 782536027 669543265 330891254 365389192 733132483 299130540 483262037 738501107 830342879 622593675 220125874 365000131 993661379 794212960 246233723 470011918 415168322 296817453 241105938 574387477 452895278 135564566 145341113 622435398 98376031 700790797 945764101 742801710 521897109 832020238 139513772 366508328 449022537 455628806 454278834 963133167 605088469 297671756 862305168 725242235 380709945 583272841 346988439 536052988 548483090 559765977 782343822 78994318 508726741 194361722 721427185 506616274 643687419 340942306 853231131 702386908 476508412 702104021 374529929 275342846 540740642 622640786 719169879 477663914 601608034 267962289 940554325 757246370 200699323 930745984 660754607 734524687 404989149 987841707 128178696 883686181 94876552 575678075 868441006 655797375 666459187 195425713 849313217 655531034 584999362 405742095 859238006 176957456 542770776 547452359 68103469 892722922 259463339 878426074 549150823 707763183 213302769 457596009 228546730 403789774 269672328 187715356 151618097 126965097 137275898 109689453 832421508 747515878 786762052 572538079 535352145 779232684 562251268 772810893 35848911 215202616 764992769 753652632 35057651 976841958 358245371 223079731 323341722 57145592 404078570 644202192 539672766 336465366 509086931 350562315 437536439 737677202 521328320 440724462 766207703 383560919 213465965 474947412 851161082 535667039 39285912 171547045 769708649 349707162 632235645 949271272 531375498 412423900 881806144 461842270 447044989 686500038 704646535 506997906 719349529 365527079 137297730 906940574 116116263 354961331 754879563 749918742 354680243 179146890 950020894 947749573 147852748 217706924 995642539 381363514 732120646 892879344 765077964 309697017 881123694 723563811 53765430 939584077 130116828 233769996 431823533 126255528 188441020 283982954 852671353 566537990 911007350 754136360 561083760 263019185 212409881 217861741 154514255 753402744 154205995 428477328 940379486 667916137 233990173 601586931 70426758 878553815 187817263 624297425 47118965 526639375 265584314 198688585 672234073 186212932 295264285 350361117 462805213 1810895 394909395 484840148 537917640 423330476 655080881 924435623 811717390 55144309 280024955 252750018 213680854 532512635 583888336 622932452 529273623 551462584 47525326 708781343 645252936 647129320 369794528 490659360 944549312 240399820 892976368 114838150 179130107 880379461 691269101 164040504 499907089 243277558 924524769 772258096 182402780 781243522 566914852 380948035 737825472 270930244 821662548 590310279 837501757 917017274 588988315 526194952 652232956 141262268 361154565 914789486 115373674 3420991 405616625 631052708 527617468 446049592 399019837 169914715 530656819 331302873 923199282 852356604 555660624 168687376 978919155 959916458 700943908 323684525 819044673 86632045 545543173 537435612 81851650 384947932 524625649 141724674 746063880 987189947 110081289 374817080 18623361 873943649 919987682 331910219 610315429 46668836 567400690 991697412 668375059 488090421 358304760 318419700 42427068 350241560 42017243 55095970 977376734 606034663 176813261 310713175 329527808 908016791 779773764 569995527 183127563 495892579 428076739 632418282 523586936 354777261 186153697 362692715 491170091 318545420 983415434 450957409 136597929 447658505 781370059 521201860 724008593 919299329 181927568 834106336 707990206 553694083 635835881 703727541 669134011 771085510 450512328 801532123 401289196 881770015 314426287 500664768 957924673 52011222 779699864 696185000 769847113 960152837 789686991 781019467 223430374 874461967 217162377 758891707 824805977 422235808 544293471 214023038 84791609 880601066 348766969 368988240 449827740 759621723 807321349 533653090 600729993 164373730 589901198 286298617 432860944 180598773 815324064 28806945 342443841 972622597 837349972 404382655 240129357 471715368 423008606 537256184 250262165 287160182 554331864 384343901 736841503 141878734 431456343 385798918 977814150 877547802 276386802 501756154 201155901 783726233 209106956 443748900 563354105 741008039 636931881 508539409 84594756 641164976 936237226 971983312 823288404 271870869 277220918 666126719 594374936 626432010 343263916 429098034 506662347 640419773 842933788 553893426 754398660 415402141 843881335 576891438 99518280 483700396 680253309 933221845 562405367 66085647 480137730 420703213 680750929 690759482 458698913 766426007 671123618 16441635 667350561 997765020 192877148 563310913 583582754 934729824 780381913 368673941 450152884 709784365 548816884 500072936 851451718 922795190 715750837 992582074 696351310 575435319 102579071 21566775 139751375 228344733 127038911 77415232 610921696 687117864 922126299 283683678 181385384 753292369 26958883 111445524 567895282 834240626 152358567 507280690 388321397 678213993 214944932 867900358 49923043 771178029 230138463 668098564 150905103 248659365 115541271 705908082 22183475 528766079 342158633 299350248 391625691 49385469 638198176 294749046 169557117 430924704 279178773 326834963 458651443 270910045 353867426 78546137 335140846 154696148 691389752 761056898 586866978 348951734 611287932 844843545 52366835 146637759 258480059 974531059 510076353 121230692 548242997 229736450 440313775 772573228 511037430 221556655 816502245 168873431 788503497 339239338 536350134 860012558 179461938 994679963 830007386 622230577 939340198 258946973 860679592 304953517 486858161 798392499 834609951 321535667 946172692 533597597 261279451 322584470 64127842 342760072 208125840 507198121 966778408 221400554 982395386 76712666 308162701 148750876 331839048 309434664 71440025 28158246 500214088 922150437 472760251 9000303 921485381 486311351 897808965 227780192 67526817 632993525 891848625 321202779 910526696 213095705 404266150 511770417 499996527 177786598 926505948 45369104 402886402 286898971 541843638 332123929 111095787 133958623 533565786 427300570 266305587 31339970 57951755 825636386 472238445 691401835 639069882 230553309 293877749 652364169 43475049 779555540 415443231 746211146 134729304 380994791 476880370 800606697 234741414 470761419 197002712 668235587 744522222 552848216 314587442 17660853 434375997 297273909 547454013 93765061 780751781 635200497 266873656 553875132 497544331 784033201 411298243 930141267 650944511 245504312 957655769 532302518 247762391 859331895 803426575 532584491 28715019 656367026 815091495 848472752 948892940 258185147 201270829 192410208 10927057 873705065 539559938 777741236 504177377 949822132 17400802 933979971 359445775 675576381 898065912 379201962 856638725 940482356 294959476 851483488 106481534 716922529 810191212 437088978 152291292 985786060 345892265 438058136 123772020 252332030 907507711 456688976 26238920 328772642 16640075 502855985 858051880 227078152 419542398 372360344 43365948 823712157 978227065 838992026 425395917 73090692 345955427 423452965 842400216 530204046 394601962 941533546 637734061 824007338 124563365 937837573 872224145 359019663 206462615 829047369 752346896 878311037 833687745 180349402 794131489 790195060 891389948 306963869 246378137 429040470 211569598 493177114 14194729 478105809 457385186 592151740 19841463 597153 373904360 157002944 353168416 362959328 623968873 400393821 896639367 238608113 666484826 912907188 230504671 701360201 89000143 516719420 525902590 452759633 764694762 589649192 341018170 891550526 444193487 43010753 670534214 374884394 683693478 766527630 794704664 351831323 607588012 473061698 695259522 188510835 859350175 831850611 612678084 868177130 339960900 100002042 573300625 609246984 701395183 443134522 849870961 767687375 308475051 621697862 12526252 233801746 317455813 87714186 394784835 510937019 467486919 842976696 356043868 892903470 584261521 685221908 212946688 562777909 856387204 180596127 154805090 421958348 519520051 557430698 330062808 929589205 858616547 994965084 905533153 75568274 762285737 559333420 643626131 194119705 985374204 98628381 797389851 701701129 653371301 78040480 727869344 163981380 369599242 615289442 610258731 623847848 466699185 712000799 567123409 963723364 690941492 733584602 727190584 631865490 266607474 184276109 835362474 493933382 543714200 929527528 105038297 708714678 27373409 729771173 442376629 903224971 577450674 273736168 235203334 154529350 345994534 620840347 858547994 959206327 291701775 616292969 749090528 45125703 304198275 708921901 15302273 196234333 534232025 623444648 961270308 953165441 386431579 385728554 414115524 119018554 740022635 961234873 620227130 734483355 634105534 701829257 612456417 883396292 508654532 101773423 33501689 918469747 708467630 973133308 43314837 100996338 317171389 180405955 383453680 693254 350695967 367846330 4455039 134564632 206848762 378946359 556965703 802796451 439636975 186226329 420962901 871018466 382583622 652046640 47828461 898274422 174787090 549158042 210885756 750496014 982704470 596274867 195203196 440088191 135601972 200819699 35215595 360304137 143455681 175214198 565110398 332622273 161647772 684134599 282367978 862333851 162495396 89107608 1100982 678752563 667132638 253319910 626823930 46348732 245638722 3435532 496146012 846316165 716332750 597143508 420163577 657140884 264210115 347389007 41693191 799071546 335711345 268483894 841193899 313704578 431278937 772549882 810879168 354214844 138990914 570904765 365060756 799895870 520718946 988122940 943291712 634848051 640611354 208626327 599350008 254948338 468220930 549943270 600354398 111493801 519199300 333030131 104639327 540950002 919112790 415206578 113513793 750165971 585297773 537227323 238767310 82195188 190334971 686794001 306539419 862692449 154922140 843379081 302148832 178819733 347031588 942357958 97960741 900213066 2514832 705471930 841809145 89190051 346444849 549634852 837078327 412535103 719406027 689033669 457943633 53956469 993432091 800585423 299870396 667983350 975468504 467805801 205732622 394961369 85078922 750998644 275792098 555779055 169222525 970253003 807478816 732257286 589030715 9911553 200596379 802046932 895088162 95862671 377622327 983013798 540984928 77793119 721753396 538718044 532255392 979950582 136248641 167965446 834571594 869105860 982533290 829532478 422117696 725545666 571981165 359444424 699784554 699594895 574010047 298742870 808994118 662376049 700172150 530048780 904895616 193644889 433880669 841382499 54314560 625134963 508584220 504620659 641112445 517977565 694506780 149160964 224202626 662119977 998846644 62066595 996158500 278110417 887683902 202421202 149760706 329464419 293775736 374696158 455119227 787788422 439901534 682174086 463760221 535423744 378374483 723711741 307068855 471566397 569941675 794075081 81138294 594549613 129202939 487591269 828587434 756960415 699580832 694107122 93768945 946342959 945720113 134365389 999705089 864010492 377490245 349980781 760857534 56086798 276522306 790593974 856529848 576790561 746754548 401116354 525183906 838963390 542947366 559285395 801095896 2535262 488842917 393431357 183203072 283869069 228737052 239773512 115439884 725786533 585797679 594892682 342996486 989637889 242161877 282308215 947064809 132859214 112953148 977557046 101238282 677314942 762949021 19274932 476333795 622346508 291763318 663779330 773244210 775921120 446852814 400011394 475723689 912444641 430911213 202668787 845529539 150848508 499135307 10921920 371348106 34969399 454651412 539570111 723839279 811091865 810393783 339456578 932186733 397310280 319402576 212723443 786249966 482862724 694525905 373787671 517200397 229810949 146879076 11359887 293617201 390727335 507987514 838814055 617741263 589396176 60343177 602004863 432616622 207546296 486923412 718673981 135469505 810257382 611232108 527115017 684278532 197442924 520530617 437692673 730351494 995596693 191923832 800441655 736184475 181105280 77753103 916517722 696990153 159734386 59283447 939896077 373080824 83475706 773235666 440352987 801485225 838596619 206245800 854718776 983232427 16602957 599388378 495424938 689852578 550698630 97936541 288244903 436001238 916132567 570323872 766348478 140751819 505946927 8421373 411718594 502569919 705714932 757802987 681605585 399900312 917852589 936307435 374498146 27399617 239520847 169010362 264893761 981705367 696629671 266794637 514864841 329050300 997423684 425430156 588879965 212408473 38913085 370486475 439810604 789029345 132627352 732640453 748136087 323379916 566897872 731735609 682131100 117480707 987834128 157450682 673257459 404152030 508265177 230087135 965995206 510662457 556200937 162393359 55676556 712003110 303860333 384767117 853940341 11858337 547797804 986822468 215594735 436271577 322331114 399082176 498242779 866797539 326487255 197291695 373686929 466503392 941019992 162460950 976077248 897190112 657685162 597548303 641931660 550331022 271427013 497146849 356120411 997121267 513424849 234294983 958583323 1409345 908152879 796284833 666496207 748177029 724672681 290224180 90573650 825388175 855539160 436665324 740128028 769796147 827561347 863198934 763474441 239436077 521662433 526948415 983474680 907331976 425786566 121951794 695706256 449217753 702955735 509269819 554695158 289486317 710303081 616028947 145181176 931460320 624476219 24970376 877467710 632544626 832169879 340469828 90925732 464839151 347750532 686037235 36051844 124882595 282645365 558714406 532536281 572630880 530249069 134038318 686494565 666827485 876205511 781493025 400506533 391138426 829467890 774107964 519188538 762123291 467825637 134557620 437410393 569342809 694681389 593462455 770871502 689940630 741762213 754322483 38107076 325157332 693329296 488379674 857258685 738120328 566305326 885391952 247783407 20699782 754299396 357038772 184248524 544395116 558068834 554597204 16927568 362920298 539398637 617812097 808163224 647095048 572213072 455153946 591179468 279909642 10903954 446394821 354367776 897500420 290082051 436877471 165579972 525371496 159337309 474744658 214392989 65837996 239025756 354260694 283212681 511537608 248881892 111107023 109773215 926732548 797737769 385820482 825100075 290799421 181935764 705310323 448730114 259081406 229203075 435981652 800560744 539634569 529360038 659818516 751315022 56755667 215652313 854445161 99567079 740833314 823185296 910646286 213976823 278979114 891346220 538184415 177239429 549010463 503745609 896244813 858013361 12169657 701465047 839081747 788376637 316176579 150736649 718542757 719949493 188397359 223282506 989975059 324663801 976954490 397732718 718059744 524862928 822530065 725312840 425057289 276488124 194976225 269960322 959262621 908596928 520568052 63683660 154323529 127495338 236920609 1243482 290862093 173924442 149101387 556676550 402424143 683223642 995549725 594742638 523616946 625311820 515839870 653258207 735013361 718199434 49358029 418033575 921566579 21144785 823417724 506732604 338967970 920397490 755311076 66069791 75092418 56994604 290027112 626947512 767037797 284744180 322858543 268834410 377434779 376772035 689404255 507325681 970120904 70577686 366357888 665001009 676459797 183935954 611842354 743970628 901802628 615054983 102123042 604530098 759163337 701687411 44453891 470969517 38153678 35604756 879154497 684996274 277396789 772358390 712283168 807951442 939053780 480905453 929369078 249631833 40333860 945393898 811226925 377626863 267957551 20856180 764328198 943217277 292153914 260897924 408141354 422630932 473482713 523236277 137666909 178227582 577695217 431270969 574377260 298712588 809786233 432470894 557940742 717256612 245683055 538992439 666499107 920847541 848994895 95289653 171163537 203613443 550156928 58894874 696327090 299378725 161531320 728518420 736649021 199949875 139871826 563623943 339616928 979727516 889798674 644170253 891003974 899319491 856991217 950953340 861998365 614765201 323388115 899339986 672930210 366348916 68420916 389404389 615331123 208785133 699614606 163254801 334383539 245341823 805512855 909622471 481320953 317428155 133023027 853107920 16826107 393988597 984095947 327438161 962464228 527167435 51794328 990272666 183953965 963262333 966983586 62670212 199240485 175553099 451962015 381311676 315063986 779922156 876585864 35517121 616270671 944401538 509263155 855940284 21945897 24773814 205569667 987554392 872946953 17469841 404591702 761720786 856895550 818116200 444531601 815098048 495721910 902342833 549872101 8143986 103001359 458406792 599664480 165092669 96310335 107712672 699454853 116985330 601046000 27981761 655887422 355336387 593068105 994047952 137681727 694131486 993916201 551571015 466551989 758335070 830184090 363946312 520791120 43018625 377497791 550854744 83997018 175676130 718784023 168693698 537723792 888412748 521301908 781845273 868393186 400324716 243329359 757893287 844372173 640158011 605648867 126608544 391999515 900848527 617846903 893296191 489645782 62475843 734234270 793769458 561492492 927396761 346887455 542177670 870998072 668463445 753937993 955953160 517023129 311906760 788539347 610860790 445425249 414486363 39733472 196444707 656238132 771889149 606332403 945744164 353675506 205689498 62689884 931618945 803842534 912499396 345278719 819207631 82999521 84342311 96111193 460688016 684375586 143798952 960087583 251313197 828757090 167820321 56249273 866106586 197347464 660015654 149554635 818242031 798275480 906481737 299612198 324339589 465938129 699815812 157937774 809992855 741870583 675332710 122411669 786520040 73210836 865903361 204012449 36527231 783355401 716334398 367649019 114870416 658089421 764209261 205884944 562417212 967123376 822489316 67441656 823972725 967330461 38841251 451993042 245440663 368671011 36398044 336112441 94268613 167562689 35751326 957866889 258638655 416431005 927464372 534749734 100203608 682254768 914662838 914683018 246805265 531372989 51626156 153792774 12868769 400597193 875459907 498697387 215333014 300210425 718302721 807327674 394389441 46533385 69716486 125003732 971221441 166236886 316188124 788454249 21747124 360024475 802066660 766795272 914652691 776873184 18987584 303575509 900742647 170096879 634682457 26742629 645041149 162037523 155430103 979907362 370036574 679807584 356707861 633788032 385082053 186632636 237536816 28726894 791409267 598741460 633704389 113554294 670184319 409689366 100923240 705220499 218882081 326860935 376452451 345005146 629607808 285558072 164661496 386037968 907137334 166401656 80058903 199725495 682444579 726565784 309021965 190735039 589261065 558887310 168503718 916734285 447611202 205921086 654098013 580367053 483315889 734924771 548779890 69365815 523078567 865675803 447791897 12900412 881883679 901654655 562244880 326148029 607733615 629696986 84891609 837607320 594711905 185003954 192798876 24576210 125389793 339821323 98488360 211274055 411080877 560704424 61298086 153892154 837073383 845334574 784379771 557163610 981209028 76333000 53649493 67929627 263202304 286176871 863125414 848145683 996493144 35250591 791999448 373352392 350614463 869784457 448783851 672251248 771311063 440422785 557487936 46048318 418489321 417314326 985148384 137589183 173344784 955879012 461911777 360079798 815565376 634243602 959107320 187219305 871623164 424402127 219094645 221988520 968851136 355720053 27059300 892472380 470125690 617877522 839078995 519685258 487073014 720432776 105327925 535730130 294154934 123603372 703780809 261392549 622076947 30646928 187626605 94309279 691629644 269586298 67870259 555453565 55413839 703812282 900278810 947282014 799002282 466542926 723532229 323924660 567232068 694404609 66948770 639648620 959346765 571665516 775135771 10632379 133285017 222464772 674421489 218693540 661340459 858902043 606940411 979301648 544056739 565397856 559886743 210152653 864323271 594473842 402122187 329945563 421250174 126855276 708658854 691832895 997772521 786704942 724878217 407289432 482613179 943168071 436904308 15968801 971576908 735580422 137318614 562722818 87033701 387605186 781737463 364099567 12257950 960449787 579865456 149353392 530940101 430766045 601306318 284667838 280781757 911264156 923976767 892955940 419356949 971951887 805640324 785777840 27352770 173904441 132687858 256381827 720585925 642435642 84660978 996711267 165783692 218299379 9371606 419218625 379171120 746628869 379272637 593996892 170636905 80401605 577223289 5958276 748807325 313195628 175846450 451375196 826663315 448260196 921147741 773673032 226290027 661213552 377171962 869008553 194961397 359069135 769870556 623332085 597381740 870149050 476627444 352939287 581169057 286681304 537587604 502926787 457165194 807061632 816776680 550595171 527650961 632084466 784119547 221500222 524081686 310125587 531329292 530545333 372883053 880021287 763213386 679825021 211681757 217326026 164164462 376239998 355015731 747690193 308574375 367322538 975021366 359716145 420795336 622010220 898613750 727975832 95632221 424564205 966760387 708130765 372532528 713646131 22149469 823856009 284406559 890015766 253523450 609599208 495441644 922176306 212799015 380712646 494514826 93882296 24234265 735373421 207989592 347223092 416883875 859928813 562673374 731499394 959887232 95060851 898857906 664607335 300577654 738464032 332454564 928805910 552258597 963200700 946358374 210975620 63118542 270830542 687102547 454167203 565183107 435654714 930121145 19459498 525984521 397549638 185400235 719111663 30311369 490271501 800471002 614325655 95034732 955457314 393303378 233214621 643390918 565449802 707267545 468750602 875340905 548607756 533712384 64476326 466190749 258328516 462881968 258242824 630103190 525693125 852031717 947655320 721520901 23391356 509783394 424126046 205910081 22692148 766676379 445152309 227494493 664991005 877671031 185990583 429085751 170395971 50531003 221781682 723242388 558402365 817999433 406262274 140871552 130311044 561996129 526553637 350838842 823931304 958625194 194502790 149502532 243214394 597177963 548345421 506707363 490734091 46991555 286010233 397088260 842658061 490097669 727872937 493276764 461463783 350585007 79498088 30795027 492429464 10972450 690917351 709539914 906988329 368728035 477722863 952436681 820486641 913463136 92531432 833449892 163716547 145850958 413155898 366677120 629650698 971641120 54345109 395757060 339798803 486381521 606119162 118604009 154197035 77216402 285019859 451128378 770582942 151716709 98085582 119398434 543691535 377038434 523655678 542948227 851323876 776424997 489255111 709243550 984809847 37449918 23221965 769094318 454519035 165858811 929232989 933463592 302488730 231502652 244882957 180578879 236675540 239569106 907581525 151410471 11376183 351899229 206698026 55136944 173082195 769788231 324605156 655818689 138160711 47235449 779653459 372494606 430332268 173809964 561579647 166297465 723418133 476701250 813873842 420124761 985311999 727714688 462625886 669982600 304052601 591771126 506931713 208841556 216598895 754085925 789434653 918412015 518810789 874037048 807848294 315008429 951256552 300623382 359137343 312005198 997566645 490850836 901462353 621457429 269888825 31968744 216876917 375596636 763467549 967964851 823455950 717591596 782307460 489054890 352426858 48612857 946441509 149996580 613240663 919599022 62806824 83157322 522558457 248964686 362555184 253326088 883666786 682608999 473390213 741189838 921417925 951549415 908133864 825464720 766534572 508356635 919265135 276897506 555243506 351297422 323627859 722278714 250297310 760149093 215118631 93660101 994627839 467752505 496067526 921005254 890515295 575589169 52500750 629878267 195878040 410569101 972095627 762519815 343235020 16603915 863825190 796282044 983430242 151158481 254838391 862815647 408743103 172967784 485630593 946403815 143512421 980491985 296582953 390199269 183738128 643362535 406375763 806749485 349345521 800036338 699393561 910315376 447176890 500448747 174387037 215762924 386902532 886418043 644710030 678280588 64388104 868992632 94279898 42791462 449654704 608033846 160170708 949222842 253470547 205199966 606763962 74755879 695804807 569539048 550202681 264458099 229982930 744987992 589482699 191698802 539242518 300228687 762750723 326825191 806682207 423849445 68819333 126923479 944397 200248535 210994801 263665439 433705441 30710505 237526842 811096219 170129974 583905807 227121313 613978149 601150050 778438769 594502411 763694508 171004363 862056147 135214721 851477430 309936934 897603449 685343415 337871353 451453279 991191662 798512294 986002456 701468454 838787984 274265076 42907812 377625088 183055966 373652091 335983428 510426066 457382548 38038761 705790824 505247047 350031782 900031177 857701352 635355465 155369725 487284247 891049672 872930246 723797375 835884743 149144486 8046744 403460005 159993728 316223501 964427906 328450690 959058156 120125456 401718328 65959061 472002498 177051388 845138174 73867783 168822585 244018803 289480632 199917017 137952239 670496396 38923820 300490213 496577345 760760201 281510171 51797368 183415050 848729728 276040028 716695220 708431261 857340890 518840186 712846474 862309053 394565287 888437915 571636119 830304234 248100702 929864298 371837840 860919756 543458291 662418889 264922825 272356658 336859279 158130982 653324824 402094310 803544019 88674096 46699514 10472906 324577534 714418885 37951024 820108315 505323687 451612447 9762140 942942977 928562422 773289710 967512611 127608537 534701524 940574148 462354087 606254358 97563718 819872122 377258880 299187694 245818225 564072185 939299387 511915889 533836419 340157679 659520773 699039442 585036680 128031242 222750616 249402575 40691789 152707846 141787182 416740223 886855281 745135903 60533624 794890050 946292367 391158321 927723112 609591990 34247218 194410489 418185088 309380937 112654022 789941304 728299795 582532927 500418664 976623545 255921062 278966615 61867113 243545145 780121969 152749648 708254189 882113744 817921360 665547381 217463504 534231640 83133089 435600255 665864512 980851911 931049196 169503327 737965532 19086523 928367889 793971666 422225482 97373643 796312881 589034457 957398945 756849883 80785129 613422101 618874855 808826530 826734804 600833674 859121926 543346669 150495326 233966771 128655928 861050463 360751327 554504068 789746424 458340667 278718893 791019767 531644693 757919539 477136703 644933165 392205131 80221546 212945244 821518134 778330637 168147794 193466139 987147389 588716345 124905985 391792039 686327529 268876867 229885749 715352585 930693734 439964793 861943357 760679320 675811948 904476676 727753092 555873841 713319001 453638951 261308109 137197631 724967142 90078650 459900678 668851138 587489716 388258555 60472382 836170489 531382442 922271144 639910350 904303274 960328391 862266788 8495164 99076215 797977533 305313074 955235524 944684097 941054187 256608132 452992389 994327387 778657346 31431452 672638284 766887321 626237788 951974413 662114449 920203291 41871 183389813 561428337 331011246 758415097 653589447 679913469 789107489 924994117 878534356 136667521 900031148 312532188 237108550 406024818 155144141 548421730 717535492 524773568 690828373 419209211 785054449 314069815 295331634 798197840 936534056 172768127 774689955 419562470 244160695 158841682 510128169 155250107 288212922 801303528 504985128 503389470 266753125 505369897 420053786 954561945 892435420 860261726 15722321 993066990 896475116 478808046 458697056 643835761 838010838 501973281 939275451 205368536 937426155 950078332 164961067 719950897 261383173 849587284 822715181 194372272 768994392 251795791 304212240 177593864 697276427 292077907 91561288 996806844 206265097 974782458 21448005 56635987 394918788 524900653 96075163 575656116 232735128 8750390 869992919 286160844 495170251 198069634 378138970 333558167 893999852 866369895 919206831 394806245 743440646 190593906 477444697 420271605 113378705 772533938 156453921 471641743 298348875 274357529 819460779 30637261 191792962 451299975 315138272 950007187 189812833 314454105 537975545 140853552 722115938 884722473 521144616 311020596 567756201 314771493 99617556 546749246 676057154 46016419 213214304 997163967 851983893 120303016 499363279 482941200 658398578 788762699 413213693 890122723 192975678 762731492 332934838 228402965 670084566 495362366 480428036 715382244 939133305 269305161 980161376 3342861 497090954 675057744 207019464 131976156 530879915 698612374 38431207 63585079 52792250 541120382 417949999 886257308 413927546 869559432 448269918 956278046 279810650 269619143 866842799 71091108 727007059 835879339 750287927 923676030 959872186 870447340 401181813 889051619 570294457 28521070 761373950 856469483 52772846 68555320 66653054 530822345 675482953 7416491 602936136 241257790 933211357 454211176 585037818 686641834 65974210 771642770 771301456 263134258 243998653 374782914 509175514 599478614 156952232 975282484 428507572 431884977 198896193 476404074 352859834 82261801 501533276 640725773 815870603 968099252 797560966 7414338 636151060 441953009 318374973 261890820 106280521 463240169 865287977 151620178 217914888 64008878 930683578 646608216 521551540 644056990 575884869 652004249 482450128 919316188 132772291 620134653 62801078 817619314 992076560 461073866 536708957 381983108 382723724 444298308 413022351 633473225 260809832 983777573 770728780 907170334 283041857 995959395 972393585 166494004 715191868 249625469 226315032 935910431 769881943 886530404 50121628 183150163 326735423 620712730 484478039 319994519 663063484 278171031 446389689 886644502 806333660 169447366 835022376 789602853 957495762 666210068 209106440 477313818 223271672 426661395 566392808 456820658 236826210 241679946 881400961 977166590 790590615 806060625 447477682 9627982 541771554 894786603 908182587 107252035 877488179 48416446 569989193 512972187 365800555 875212218 969068368 698552514 544051680 900647774 233535015 791773188 989229176 459158643 428186301 240338660 395091367 796614119 265067015 88390697 296507292 993147168 918536225 320528417 268347744 545760244 996617490 102399130 573790700 15862295 93362653 744915670 801287396 18481067 730082468 599199259 400289669 754702242 965699873 571505924 316499036 664453787 852019556 743380209 233848750 443674597 745413185 525322958 187113670 391658317 186374702 857027878 501020202 237226619 595312072 97340814 309787936 226207231 68753361 605447820 461747159 978657150 351721670 226739854 314107730 539916582 661277137 842878102 338712248 839121257 48040955 17235527 32205907 119801607 821223165 749640823 28093485 219236459 342500074 373419565 157673060 775728783 371360591 444637363 745262241 329953536 697215603 593719694 234869309 228971740 39152798 177832769 938483489 821417569 762154050 852557472 629299734 867634131 503333858 448862892 298177294 620348933 290200277 866492446 846349136 927730162 963882827 429202498 425979672 511983608 490267282 437246498 809337852 779522910 679824633 335409850 702974008 592087656 382520231 750983705 711367179 848294641 820697049 605378092 45428020 579839097 756790399 219473339 215365746 150871711 599559127 434437414 625792026 699364536 946132069 998114614 642411926 947579019 768270167 900191992 369052357 586085193 69777227 100325282 605266911 458395692 134381936 744717757 652965146 202198964 280363122 748905274 645330226 737668260 184857625 917666104 576064463 285489970 218434055 239525256 643828158 373821067 492558643 179891575 957746405 48714085 932307270 115792091 174687203 939434236 228940447 176325614 806436652 879993761 460742261 851895978 600050323 831330895 482862931 584732641 622359093 873359388 395996141 752340608 491334648 345309854 421353834 499346558 576945518 587292821 201551036 104096857 599691585 118905499 993995658 647223992 87577449 398368852 841023849 408351583 494617244 369962285 304751105 923932532 623711147 316477333 395211777 391998056 468594825 228039538 134671213 917768186 883598742 922155214 164197300 753075303 193085204 948066032 486991288 77927216 840810194 1447969 503467523 968826523 864201643 523450738 123245771 878388810 717377392 437079196 784973812 84007808 619269212 215976005 92396753 343818020 269476055 274261613 651966991 59595082 159321018 520050509 848465427 636879348 933477279 505147102 963067824 585579437 672361207 824791208 24889308 797849433 155801556 545159502 556898640 93466314 238559115 774470994 65699730 473866039 163068295 772126873 818707772 638719522 185739722 798151827 860401036 634627894 833321041 906726498 391001808 428878206 627538870 238684407 334264526 759277753 834284013 40700241 188116999 840749700 838694217 555308510 357165560 695239711 414477680 564231992 902431390 439062638 541741493 483587460 599740034 453703122 86524062 626300324 481957787 812851688 229541174 784553530 429507360 295508418 688932564 952496492 796374339 377388712 231010344 682679940 560748739 269721973 405144523 850822548 193059034 122495665 694283027 297932117 271705615 356891022 272191367 706397929 562860609 382154838 520819154 725406258 994540744 237105126 520072947 33638142 29568488 727270283 589318489 655222700 703911386 880496376 631510400 636245364 776498657 647847982 178005460 986019114 873457948 801674476 234273537 718007981 13503594 897630586 411520186 205920746 219143786 758437816 873121551 148622641 589693262 868199457 702333201 667989883 521763803 431107718 123147542 366452550 168123107 386908931 173239963 762284453 535083302 952903277 892462113 757362352 111032314 101583987 300394823 906814829 615370867 32780530 427223185 156589489 586803434 46924188 24829558 738495680 763013407 527046649 837150313 524923921 984067923 90641097 710185835 635541257 886468968 629271177 311912469 664127168 843848669 857053687 827620154 133076410 373613257 908942161 191215752 661703473 725398196 964932634 55687652 945208401 308942136 249813675 229266492 861830975 300455182 439406636 58525190 548141486 514168924 188682690 587886343 742050939 146228432 427840120 492493298 561002594 816831816 502662351 325235596 722006228 861657280 475036151 580355111 998027261 759777774 70516152 145109327 921184653 927209668 569410276 533367063 460889285 591675603 577820189 254893623 171809675 589596499 577128257 889050957 227567311 574609755 797061732 823911814 565603303 651808143 226334463 61138808 446040570 937040444 103957257 401204256 539866378 61953341 908792424 95770139 963898657 556645708 605606862 694239799 750112172 488851429 816315454 4471244 876150555 91642100 68478654 515050111 814507151 70391070 284465342 700843878 951490549 40214701 711730283 588546764 933121928 477346355 891377828 509767052 84388294 808383931 463352741 444986189 969499597 512718666 379892118 658575195 315243988 905822980 81327474 270108496 22545883 329631276 204410833 14943902 787812033 259020924 536116313 819620177 915358027 92520282 886221017 69229919 603716027 777272279 864548350 583666297 545712457 439878497 213738099 716515514 558876824 116807383 419853731 633710058 103702937 99619112 259561008 639151532 493041377 643589110 189893791 643163477 19503693 760875827 855013537 544946682 919988718 816326005 302810997 684125184 563880132 260697911 116218913 17734951 299247188 70270211 247360662 592320539 88696895 709130024 661718832 226711795 599311768 504488599 584211168 110604767 490427074 491659388 208108552 225246843 375457915 931696900 620052070 314437711 504519079 448736450 433034604 369511742 143005816 666570034 606731012 716826727 100633146 378897588 760974765 163948135 838840715 920171233 496586633 187311310 821598285 127783250 247324313 893928073 589312761 833831844 491091892 171682165 433388306 264254927 6895453 396345515 766668015 113058156 129553700 585652659 311841140 467980083 593802924 665538465 965243631 880854263 806216898 624692107 67134237 459957624 335702747 335415999 423336025 102244925 69598838 318692356 665020241 212447629 54005804 665175733 514043638 280031285 155452580 210397712 925091187 591832186 66237749 941648739 159809599 517075316 562392530 309712164 845073986 809422442 980642707 959259851 978843264 151622806 529467 464452543 26457209 260625648 104969652 83611742 834707937 665308614 491366058 635669161 810135173 697377828 511997286 977267172 870583428 375426340 48224490 62761078 656243677 68459931 841235579 964402463 410448917 197969429 213011711 798056071 293277585 866958736 560604032 679551756 594745448 531859799 62411823 585026536 453106204 109327371 555922595 388559594 754888631 552994655 788636143 393072346 998758671 72764589 265536604 73527816 656767619 900427010 776034488 674305427 457048650 200722359 169454204 723319879 557319553 504443428 309429708 474920306 303465008 187438310 500595163 197511016 688322444 418970685 9286930 465851623 949510239 908650890 613106280 2185530 314801289 36094571 834299401 989512641 396572040 533314762 473296122 692184967 16362442 677594937 137173479 705646072 908904571 843154683 673872869 406377442 164970391 965718626 589023772 501316687 282692898 254936103 220973490 844769139 276706201 461865287 822978460 353817814 774104243 574987269 864747773 10901974 796553794 213475774 313265438 447321346 916979576 994191969 487799311 932418768 339352493 617988393 863064518 631177721 698144958 929812149 370059531 577777067 204651973 92392397 964027747 250378688 519918159 85363955 21404269 878691893 497662233 393962591 400701957 555546827 376041279 148801620 799613040 961796146 587849924 871923375 223788804 953163167 498726559 860053979 422610755 617180907 303910055 922905380 633974499 579948323 66951476 932570952 726339149 97071234 657596925 122540323 740916575 389326820 834470993 740934302 857569209 68349239 276937818 195107790 353770291 512082198 644303577 61165846 825148470 494992261 213666909 25530875 598838031 923490408 793313579 312711312 667372720 144964854 863256114 911108485 240469303 285304404 639480735 870164487 219288033 507048030 819407958 729009901 220627411 133828537 823165568 939217263 254792844 380935297 93547250 901720100 471740677 561273487 464092340 722691942 857351704 556109612 4764297 885496445 56221475 109249017 428154366 591716763 489786422 157182026 487170126 822699783 435458971 441599751 121232090 823109147 395579031 371783247 97668521 283805187 301336616 691023112 476501594 967579838 838345315 43906527 184857751 470874988 959441082 846789151 934673085 295732731 223797365 164668657 241310867 335326658 258059837 228965637 775232359 531875751 796721444 502019354 186565519 107705658 874509914 781133351 212721276 548120565 963648640 57435491 328815709 974708981 581300645 770574767 358550204 979976038 734871020 104245385 169074442 610650180 567314698 135744480 853797098 369058673 99495127 427690244 136243404 553047358 216507910 536984828 623151624 930700830 801832859 639768123 761983585 76697046 588351874 953462858 548840547 591172944 397030331 397190852 216919782 582979983 831189301 290270928 917327743 230123623 301623748 25937574 30986928 644924286 422576875 99481044 752602334 815154373 955262907 698527256 681710955 743059638 242569347 718952185 598096798 946109251 839039997 114098214 410881999 695016519 952711219 10992645 559212780 970725860 734754851 490894932 835730132 93128440 785155284 176769152 555438649 230988398 229872307 712263097 257395426 331448987 220698190 170484169 380977265 449081419 892534370 114985817 826566275 771576486 681702944 273777891 403739439 202983376 834022236 790665025 274040536 45394804 264695385 852444147 110804534 802392897 160100438 336068718 940567968 488049402 810935909 513692851 108280153 325191005 37183430 221056585 423549707 543317361 252239862 591913471 957230574 136518750 120544249 937376647 453372464 540793546 547643205 633854067 244172856 449111031 961033897 578969454 701252083 173216049 144784693 380037875 718142277 672047787 409130085 692729964 303721477 666274292 62957802 777850729 32944 648496533 586377718 91034311 845488931 719604279 362175322 189281029 443025444 684490138 541741869 11466659 47230308 235947477 626805748 373256684 668509964 603300170 558187509 470598249 977646474 582821381 510102121 417803709 154599425 732908235 336882498 27664323 357484741 350914399 916963852 612618596 694981860 384681238 497860197 812456306 248324586 415558369 332292831 830127250 669906950 167171085 149768502 616654825 936405915 487338240 517808738 230409005 596884623 425662959 742858504 493358848 46762815 905494902 672009698 149231557 829649833 698672285 732873777 620362101 238521458 135118312 640567694 782368925 552713112 312395523 861567641 284219560 832964907 961836288 173330164 555257245 153786793 930694442 695510868 348285803 651828309 48997170 137824509 545646738 32474235 592149665 283649332 451470780 843585723 310277112 36054499 325387000 245303222 374820300 899220661 488073133 730882606 118743214 250913129 280424617 859769437 776567366 622871253 981555878 461943594 328160240 551902088 624970821 464823340 863905585 789896614 608434058 820777410 928868427 549264217 280866498 824276486 828398222 295900201 685231092 351559759 805124642 144099618 883691942 10056432 682087210 821593798 934724657 5941444 628557783 709101496 578128837 598547509 318250419 860501806 743141018 14649936 311993142 398920292 116714874 902386902 571161641 558613235 21391985 137634927 675322750 715688060 371537811 328371003 12402792 548697691 614179045 522337833 508746724 920643676 450467078 373594719 572420805 757359914 149940186 408948021 57703745 12329336 370490468 919281031 648637439 199841702 790364991 785343125 782674531 34361206 433438617 493389846 740535254 688446212 49333970 434097788 329368452 496687561 84460923 522644843 690238732 220927249 889248962 598032901 52960962 777668128 690680679 318916524 303533989 594076743 131758746 364106905 321053312 534144321 38819347 15280379 237390712 755657723 6331497 83443001 802533752 957802269 945394944 767926998 699589081 123140779 441378104 386789342 19022021 786471183 606232737 881845383 445766105 658093114 70327862 342728047 748621835 994140642 211390490 397990197 460601071 545370661 966352831 246416648 346153853 395765031 720996045 290206141 250557847 805460619 822843856 523309883 749424498 937787889 23074812 83589199 804374722 787970719 230782557 315518149 376794428 53876547 530659050 788559714 357529988 681596221 835275959 889738675 629094510 768633182 685445008 264082535 887457648 335194565 829625135 73820102 108907751 95020785 447315425 285103210 987255255 486344279 882821052 518219965 561951404 430867714 155283066 668547183 151325905 712271406 274745742 362624988 726939281 752575711 634744099 327152330 70202880 469560659 193328533 381166974 939543241 767973684 516210690 359103156 295598784 231117518 42748759 986891883 706725214 479191820 114763667 140947432 762258794 960155611 723409490 406246184 940571220 877874691 355278290 459730553 263532678 87158823 14494042 497211870 708320137 817994221 187559348 356347049 456978804 779850800 328791224 219584107 500429574 694183409 202908287 699537040 901938120 185125926 384152167 598120438 629241638 2892820 723075639 904865621 813836870 270091677 512362493 577010248 991867850 496654329 587833665 990122175 115666126 510988833 144172990 917351522 934906998 18262665 704822802 436998048 428522043 437985124 565196155 235563748 330948038 18344201 261921495 191496785 515089420 75258004 518030566 221789979 642710271 151487822 816194958 592104500 68276127 636430208 677684345 69260267 833785933 801910497 276963029 385556193 409432182 409845284 49123054 481617527 453628491 622307842 382927178 272707359 479175835 990582184 737323296 711543788 885121596 53651388 907778856 944484762 832755712 922039321 503699874 13303009 790009621 124718850 179860110 453054241 546108391 427014132 185612236 221479182 61486020 182657676 555961073 232505796 162740974 321961100 906084958 990677192 858575511 380557824 311419843 393503258 341080541 604217502 173623363 279720574 548122327 32032960 891886328 201907079 284152868 563838520 952902493 562580815 730521495 738553995 976498077 417792172 563574936 107056594 42553968 674644895 123231256 756112763 115856524 245152925 731494200 450118589 551031369 18346672 821364115 42952083 819511542 564230184 504559584 527209192 298930827 313970396 523828230 174383777 458255889 220673629 47771214 224080018 669603118 961644521 673224795 362993880 360833778 97326259 875561994 30646621 965582502 677677864 617139401 335386725 722865565 147287602 590997904 399407451 988913901 281312417 810713600 153515240 823796585 65261484 264822930 42271013 659126680 302767014 126477646 919743159 297682517 662535172 890993548 652544576 509886355 936929602 121208233 541297585 995927927 792673370 402899662 492882304 110290843 138749578 877298578 776225510 225653084 738709748 462607272 827388291 165044124 834001892 927402530 945443264 353321645 859593534 344388680 972790496 648342820 786024601 308581003 314820633 657895126 231117214 45541730 521828479 358193416 965417016 55741573 753530217 477067783 74361773 864031520 227371549 559486239 902345886 832071946 553320332 840738357 51339004 128464913 211434951 907836479 91988116 6382539 284362105 127089573 603961477 401463498 687228162 993459390 739849839 169886175 645716287 74382245 732136612 491197780 375048630 213071748 378267800 953977147 481879092 971532195 866533762 157624148 898348927 50818401 895178358 660536632 988914563 544910468 743811788 942207199 771648000 589453222 689460637 784662657 947502444 744791845 459529046 432737499 383200424 222516178 988249404 187002607 127973312 403728457 754335043 649288151 786801538 239554437 904050180 737075164 322257089 116451701 749368957 330577248 286719586 295536292 2667654 699182401 190473829 124399434 577428927 791937455 983700777 719412274 740170299 199114019 946234405 180593642 125856836 468553673 151159804 36082350 863005625 867153582 906897754 191611591 927452758 335492081 692607478 927618174 519378970 715081183 410221369 81385723 175770520 527910354 210568262 830305885 653197663 803442855 970474951 886877934 128950453 640953999 88113093 101952363 903410859 255106849 754878809 183740613 397660541 715310121 739986370 354661111 249564271 502357538 674697021 766072261 705191678 554729683 713243920 899488512 762035831 122697607 606200866 216425460 84560814 926460868 195945009 819210025 28140481 667525422 416569412 387106102 831045889 75967074 908925214 484181700 383374948 286824294 86155391 262558970 80049263 823947314 887344475 692912163 489836230 275574513 453807510 453979809 712253239 622742580 173137911 554845341 864086563 863959500 443259815 660356622 655942052 657012988 12086679 536351096 841350343 402968089 809955634 453987249 567078714 922877552 318770912 695695799 746100711 326107689 458461387 993014882 74448950 714039965 494763609 361928022 37734125 32565331 896779491 462517622 590644817 336321685 686304828 855330878 801336307 333829058 477363585 420328356 22547550 327432349 923705306 361172453 54744397 47674652 667108145 289220293 407224474 747607901 432015092 896316143 263825852 664637249 159305885 250033338 624935083 936307616 330644415 122563035 440265919 554977103 315405224 182696985 119132028 247550105 150897837 788882669 876049488 566213431 715646309 59684849 679736411 452416632 786992593 571290501 772304323 852685775 284452704 65758898 478239783 968524024 753304823 168742256 370516088 921063830 932168835 671984026 312417504 393071769 93401936 108453056 26428625 970072033 19497495 646890218 875259595 1668609 60629184 886488071 598511918 688776471 127092612 735788537 57135804 298122743 858904603 303790982 443539938 326469946 604423705 962477845 314778123 219231323 90607895 593818027 296653350 873502678 474297336 679831617 844051388 547288411 424022118 585313421 249043740 873304404 331007304 761897693 1783032 347825286 841441835 813030668 296825509 337066189 98574592 957744484 88394659 285534117 144976145 466493525 979247422 916983211 46379538 895292290 520402062 896739184 168941628 148748168 666419662 828984847 792278012 788831830 127931729 469307341 560453247 914165822 490873873 302190557 837471835 158959519 570263607 581016645 192986547 836657224 920051883 726930306 491527102 631101878 113805771 846067871 859170984 255196473 821149757 489438512 554262599 319660996 659571386 450353310 62326723 89196876 214919326 139997726 693405134 296117797 412884116 259405196 134569246 611803598 916799358 197942389 776006829 957126663 299681931 738831080 154370006 304241895 522942744 965656607 175332189 7919549 446330664 56818257 982662096 857507792 826884150 235506514 159604366 866476510 570620163 416002980 325696945 293051192 935241009 378698275 978851891 660425111 104439716 57076993 282870184 429375264 123019252 460739542 369054445 252188742 74672209 42835573 265459013 330095064 99985983 178321421 750506852 295081308 121306243 132082562 503774083 73667389 390318634 812533995 607970779 40472350 65841189 723965374 373176423 680583699 408692919 494227011 394015874 166413537 883965726 690564482 967504914 679763472 886380314 933829428 483421511 254152525 736720331 15518899 330531924 213422893 821774924 327314580 343901566 370748547 553856241 837816882 639391830 810812255 599984691 940505659 103072675 907815666 479349847 666408756 471248960 36002932 230702169 545266352 58634577 312521997 31044327 611977777 582591473 972410278 683219279 633513105 310872151 38761303 277844655 395989946 825781797 981125967 869488312 322737456 194068836 871873605 168708823 948956902 338145760 258183430 591071685 694951410 498198954 749507426 270528538 682753677 173219545 177872390 902970172 259353586 660527631 41814042 943554852 632908436 532933297 447609555 96900722 527106719 313744087 290178912 534940648 244526135 79494313 829342601 903080073 487354595 213035008 250078372 78705592 120670915 885279949 686398520 154371427 801540556 159891995 245244101 993739677 405055431 452704372 741748593 119690429 247105227 416361925 182231160 187091974 353696945 635659220 393256046 670704084 15216998 87468677 613168756 473983183 144538909 719123609 443214000 422120780 8128167 744396267 211826317 430047196 291170981 446510664 864272977 969621042 345727083 525285858 258502488 386468648 427913281 17016545 470061451 894423062 847512276 685159185 316128437 328036871 846700609 847670976 946210133 277661245 543167560 37718920 7045695 610385087 3129457 768286417 90482185 609536540 730124555 715220015 91715798 630103205 494516773 563717303 985946493 696172848 356893092 795184301 372937616 115506293 130277522 455065672 475148771 709181703 701118819 590389291 320280975 930685595 208543920 492408149 429330685 9095462 710182851 149651568 219291150 298271158 557598282 328341203 150444491 320869444 505698163 836184222 448963085 710678002 352371641 521034878 188992859 508483274 934173111 613617950 131318164 372930643 176696492 138893324 15804931 838789211 974756553 392989867 578690736 542453321 71163468 896419206 199352818 287412535 230263367 160073860 204413028 829401220 778491934 459466067 317310040 756682362 248699678 722640985 261337744 753069379 44279280 869449786 504123818 814560564 502915826 19948781 99656949 655733023 373066735 736391346 173974136 381519531 817268685 618860204 697838667 956400139 755771830 820150352 623031604 651048244 674421763 148129745 256150474 979917343 403307467 617391304 878831211 883613859 129954916 999504833 647402443 801666412 493819619 657780346 68362946 720640520 578982484 312860697 467840565 254654612 697549343 533810400 532449800 600435531 662855455 926610397 26933789 963261860 339667581 466335429 671681292 187531507 208906608 402278884 250910327 155946981 804512688 916688857 242797658 684985061 950960365 876142330 463374163 924453358 599334980 665529416 406027547 768406409 930181546 700062487 975086353 21171200 745574061 416017858 304167789 57646733 528540476 366575057 73514614 99809701 939630933 565778721 308668030 925530938 186960173 282127006 897117376 590773522 779107106 757039962 353906621 24416983 995552032 351320091 164156818 527324799 436631545 114743465 379932632 720479167 87866617 736402659 478799313 777111954 730926661 783507534 993173410 819089711 561443336 450395307 878907870 862904095 505333431 47985446 444500759 437118220 11019952 157538152 675644357 257732414 719113858 73878390 258611778 345122711 992566722 909238720 994431479 755700200 352313673 79376660 158429108 525557368 114267871 836395703 194312021 40275283 165446119 38290381 313945188 191607956 745831926 129095843 385115210 326536678 944205808 862202380 943779305 180950555 994013086 245230174 893416402 816526036 844547980 790938050 79787405 60409695 239703643 909184041 319675846 120113072 991807819 842851565 712165524 413499515 523506228 420372084 236812701 858577810 37903119 7266236 115666312 831323646 438536059 160263284 609282911 684772544 337641651 684104532 184316538 444020416 926946060 149794248 101299459 113127505 633421524 268081574 423132967 27094993 245840677 70822597 457582491 510229625 498659550 362295202 445017728 566180318 835111105 447538035 867697782 845724766 779532374 648022444 359868061 989346248 145105838 433510852 122288301 282269512 837153609 548803732 955286022 506021745 842125315 136392470 490979388 34064786 879875133 742302717 154254604 306472320 827594858 477292386 429697952 967606457 170430316 94353851 510736624 604881045 288827764 98297313 298283183 521884406 874222418 706257371 287281036 362839613 624872336 572390536 205620584 553606688 15458575 534020479 177474153 183970833 939966979 401725216 839181694 58423607 819347488 609966864 660333818 641789341 706605222 78589193 799683921 276694344 705517288 978078933 990834881 30032316 344560107 925371387 623386117 362851094 553352520 863921591 926115300 112445002 80918821 304904397 858635664 56849922 724790916 165339144 289922809 619125361 590189529 77944590 845516829 103310839 571685252 511411349 444034037 924280833 449749542 234684631 936106634 813049867 98707343 83173214 449373293 578269989 285426665 137231865 350470742 231999718 113381955 242115826 837245733 68117239 811286620 248442948 460086427 945581302 688643640 901277040 952749866 475624748 918998886 190362150 562205111 479894892 539737693 787055449 956704088 60458708 614269297 814697748 60517119 537840032 515098354 170418329 931669027 622718138 405734514 50936863 704719599 923261586 893120576 899908584 246274834 171773641 469541401 966369936 511480344 428717603 872281296 199344809 744791168 618088135 630411359 635060607 35018081 426140122 886574166 575146471 190807473 202236124 967642018 338498127 842731047 309144608 803899966 213392383 845488401 604505330 360890302 934779505 266494780 671892310 476170860 744194257 695567761 707886632 917450404 442429081 586202240 93828502 962386090 482805307 313792926 480872474 168897691 616432805 821395610 293473016 969005742 128906113 608894561 588167829 743628613 922586511 675564528 518552716 728108147 184469001 685955660 582502801 16319493 425429039 932755016 79275731 145019100 881891451 660901205 923577315 727088211 278666643 453923699 86971350 477717768 83801615 928309474 138647630 492912179 763248619 746655642 632432944 474905708 161872303 173386231 126619187 495423601 632566227 545285539 429933333 323277968 917463848 706741750 267392037 402751033 925496658 685002243 473558168 128054412 367248751 89346130 952298426 922075614 163387696 399631688 194420506 623547370 811539412 807804271 669628127 505021500 978121548 901572083 657115388 754014447 683140293 208080096 796435217 533012005 515749319 374813156 420498347 681870120 843880550 913144797 945534803 56509323 339774110 96917114 918961036 940917630 939363025 16247421 272815761 742045517 497988490 452951881 532950567 926927229 906128841 831331924 65788457 421301213 761956239 885228786 693073426 122538765 847050649 508180508 213621474 570457535 487169025 571386706 696773649 867732268 837855126 778752218 8972315 797090364 804094674 953646935 341675902 266034600 419003777 486216504 726425128 408633736 231225841 78483570 725120620 362193304 115556669 168891302 625794352 16441804 432334569 793479967 283071403 835309802 926390044 798558358 203022154 478120706 836671140 24365654 322372453 22831042 467682570 489652480 229104687 521223297 672999713 547401381 313989216 621131154 633967251 681180777 339589749 88231726 454121706 897959951 535436108 177706743 744287692 708989293 681352526 209592362 348604935 731702845 843873391 927926565 721756022 746938589 197229206 695225295 236036355 653628127 91060223 245584702 770031851 572614450 241476424 131687198 593665771 27201560 380233235 380764584 496222314 194326675 875096108 223911584 549044598 280059197 406535444 954673681 129940432 340022403 245585310 279095245 78528950 815458435 892418757 69377133 854557784 631551668 65460091 714018332 935690210 265794822 872363956 883881592 569695398 846131879 684433474 520816119 678532989 60336166 910585664 399363415 480112043 527684121 990523245 253939840 397296505 163807980 549931960 970458939 989461285 840069797 573770750 540020239 351674283 295999363 591386505 152307835 461220615 813694568 994309282 848153361 849766798 739854949 250646066 699612760 383175960 20936543 819471539 332377293 811901933 731516444 432553820 619972701 362037110 428081756 138423367 834546646 933513927 338610055 856247741 518376059 374198580 665882848 515911243 796467564 854820467 18385228 134667203 824644115 811423262 69589518 433494844 993068258 658903358 77192676 343666013 715881934 431398727 84660394 544487535 971596988 885119781 335491790 294598447 763756282 906809958 759860049 753920461 336359972 544781361 401561652 986384337 170086090 311244077 428782867 445265793 809783010 972070056 802966643 602306424 170961553 357435867 422926322 797959836 99792095 461844362 40403145 314471284 697985229 751375894 728565269 361492201 264820432 78624015 86569176 447678173 455393601 647571298 80388248 59623750 705087518 366467249 741276064 343976769 684046625 204995951 393408661 875220310 439617345 321012521 214804585 897485034 205795107 452224643 916009586 8316535 240232793 719747255 416148588 886134031 356508643 949115928 303020206 760194371 133829361 761009774 698769217 31409117 815972515 534233285 120822079 783325704 532948598 385256927 552779851 366905112 266552774 122586944 338137600 899702898 7309254 976369189 670674720 32888452 843402230 461738700 962092123 34622489 301195368 468799837 945437486 664414835 411577918 17734597 314282591 835715375 838948835 129449307 624872531 887172798 575785618 816952252 585460572 94735081 30531833 508029091 763726033 5699031 444721314 434808485 693334546 262622652 663927267 159473154 866308858 404600716 917309734 834321475 383964046 315246083 305062459 973358931 882869895 278172015 251038570 815336820 915871910 546798572 197884289 819533838 618546489 352924029 820088705 164950033 224083323 320770981 314629557 763653051 470843299 106295384 184612946 670924142 905476943 536749042 659119590 450947459 76159034 227240868 565675531 450055096 704923480 742247415 618607653 326763290 466316151 223682358 971242996 587612109 806411388 793322608 478578965 596711920 189929668 952638005 491834591 384668525 132904749 6448244 661910356 670065763 668237415 473796592 271787955 275882469 952331013 253230429 472295410 396241078 538162897 700139986 381731154 319671341 909603458 878938656 63182299 204605620 696013784 71400761 22786776 10461070 959246134 11414344 164141411 602787437 912750330 239053343 263321894 774156261 702473399 647391674 857131425 610687797 997617243 480991602 116512422 634072777 135865126 157718136 62187273 353781048 993672856 48267892 762323890 452968570 642611524 887981521 25715402 537903600 397160698 265426661 318403813 627663321 981368398 235518121 845971190 332274716 711118314 417517010 655999242 213957897 150792295 764951217 247539045 218328678 284730294 986873583 279453304 810568229 938661790 349060330 830606092 67654758 139979516 454804402 114776992 987806635 323010890 727877168 322966977 817634514 554477679 219577438 829337119 910165978 60569315 816629167 670983988 784215211 259225875 197217133 516672349 59433863 260024638 1547136 690667332 311026073 519124061 457031832 309167303 743523756 595736739 71655630 817308986 29269788 611975342 72344517 714813852 871748570 248552680 683345382 831719671 781446701 347263786 574773170 291958934 599799690 403586404 948312622 737733613 650860869 223129809 109562202 897829247 823155395 990526318 980922665 515059839 177729583 575748741 956007262 224779260 358211520 998189168 802844598 496369374 926745963 663354468 544239460 132539017 6085721 326419699 806622203 211982142 244091610 226760809 892545313 593130353 41654316 522011431 579932493 676002872 21093359 976323376 124794500 254438053 951115426 414136651 586352100 202048829 838942399 311051804 815718693 268600660 810303618 98545968 951782940 835642904 878517132 147694882 243478357 651170986 891982881 364281763 444754772 394983297 764828980 845304924 117727852 562447783 496125357 337283526 639647207 63929259 134204842 434658552 430023932 321960689 717403044 17070235 688883671 432310014 190048077 578557712 241036118 302392537 921929095 948931301 240063413 145154331 652671770 617825812 852239873 110548632 984218435 616732215 772820417 282098406 931403420 221053688 382573672 815500035 237746299 873823 391360957 629241746 267456127 737559429 227089588 988413904 579230036 691548475 357621788 255818130 412573555 725383420 935034028 926787077 326977523 236911082 385405801 631450344 56555260 891677265 849830944 166976464 2024788 27410755 638973672 599985978 4416061 314000348 603126165 131231362 740897003 6052642 762171824 222503202 944072202 624028185 816854796 129689456 847818304 393535839 438540526 824582117 228231626 610456236 241289415 709729770 230043285 459976510 591770441 993175655 615110258 506550618 67673956 825434038 535987487 15527903 243526627 913487793 177252873 494018213 631665613 573870580 984310942 646398987 640732876 819259742 893546526 930749772 555366313 446954089 792676956 82704047 844129749 588567529 832831383 760896948 255207156 798296215 84647495 78266792 135208087 770282550 185264366 712103762 113634904 10934305 93772976 872074499 80237863 40014995 15618733 992373499 935532368 921604099 192368985 849852184 596600876 319013068 316154030 876485553 753644587 215123731 749880993 667714620 770297234 926467676 105307154 857306064 22355520 648497691 816240888 55306150 516984683 152720100 217097034 767179667 967333318 684355976 624991845 140877834 506615506 810571072 334184985 790889795 874635347 524035080 771092364 753186635 488186686 90083247 733753238 711097829 963440499 339662981 598113817 449474658 640612273 735189771 489069320 46173933 630237024 931036801 988549854 613748169 155905929 609825612 936572046 81758632 458212633 468439334 766498435 88137859 55967249 656093819 580832363 689443640 417796569 1542535 341588872 188930815 565206406 131317738 703672885 444208047 694437797 216366851 181183601 279030231 617209775 69792153 900164453 442632652 178036295 563180201 489231774 349493315 806327428 750580592 1193852 202133808 996557011 779075735 245631685 881053318 860774048 833451147 437317849 245654691 832173174 976509689 474059595 883311448 177766714 565809746 288477107 943486222 292123234 347638649 362537406 342479060 632336371 497920680 916172874 48759084 146336072 789333445 171650308 320282688 313251604 272281695 587483830 380505363 547264302 499871165 218260536 952040752 272261223 860772645 106822020 472461163 138290986 88450491 894969854 576649120 712676095 66462272 851126903 736460888 82095109 933536209 873466102 845718868 257846169 365856019 464446054 458928792 749618287 439123107 41428505 44186767 162454652 506871567 437549501 565096680 194696279 86613833 623733168 860816552 826752110 430687545 29490618 872422457 297608572 447150438 710497258 970111636 868745198 836427382 92623253 77434968 215032604 440884070 507528353 71224143 810598997 56426844 291824982 447725538 121913792 740779717 468230390 124962304 338090173 570603954 170114862 114126882 457476796 753732005 639458256 969080528 308061178 551197326 529617418 687816259 229652547 549697612 146482530 269672653 651544304 716551876 496635972 974217694 910841589 206165331 930493186 57623312 510704215 808846676 669110862 2354471 501406325 446004337 293827249 472339410 580986206 912460038 50789952 616813779 353078064 93815152 11633980 317888607 44961656 675660481 369989175 178971488 753037374 73600145 619702833 52257658 182906328 303009640 957292862 68001523 407097719 37954978 974856033 151311326 364496195 195782827 639840167 913575328 541113823 903236513 515549209 649148207 348149560 182800609 538833680 459214815 808409490 231739188 728974301 814556097 582521540 136950761 432808930 141992270 642240201 618004192 224953744 501914313 637890657 254851533 539192543 654888709 153266267 287228733 141571819 748460914 973879797 17588901 351736399 364801751 868686316 628282102 627668711 556212632 200075703 147888496 305089941 824660889 682430174 810830403 821196341 500689818 350845561 247833071 999531779 240906055 25536081 538114265 889925974 172118441 902338328 103747328 419439702 78639074 322411597 138357727 96669710 452323788 76091023 127976324 731192643 330556729 446917594 83483489 69272842 345652601 818332367 350437999 146676946 196712494 118488331 729577400 635455644 248800472 511082296 170649255 227140131 813801289 253162893 843631026 148859554 623056504 843757805 487194726 20357329 773521620 50832412 905069657 199281052 58112001 261275780 769997956 857914666 610048114 590937826 826663231 628527600 510928122 313729401 490455136 378604120 170043541 659035255 612073441 691656306 634644860 807181197 734029881 313328861 352868293 778783284 175185069 520165749 28612310 81246339 711387793 85110488 481440301 48980209 285413607 116533668 842177327 650098724 894005292 287688822 334494497 946515688 295280463 556156512 282549398 813392784 314081798 407543856 480423078 446534529 951456383 544773889 169181726 133800036 222990604 522658717 642601979 259516177 761278973 419993304 577414621 630874339 744829880 865088886 392965337 699978769 29326140 928907508 560672982 554189808 724052260 299561103 40183155 940666700 772775063 913806188 302360906 335519249 38853106 932134830 558201231 287902560 379343875 540965141 376937453 767338054 918680242 185983753 411850221 592924123 600935721 999443279 826976134 978123776 4242621 257748450 600379570 191974524 497496427 996773865 767790721 953919983 693094312 282364683 270214884 47514779 386634568 669859271 958009283 842039165 453749022 974206087 977522022 777228932 213185856 35350093 146265375 640982524 13217968 491028055 868671105 789516097 635480334 554622728 902573687 904058834 151048428 698988314 695118150 656903113 326599463 739146383 61341093 839083481 611240921 981697681 292931749 373865095 310107812 659552480 121146246 408896652 402895504 384707492 508254982 256265923 81674392 322088286 518241835 821636164 265627198 966375485 46695431 801177772 467053221 673529274 529498288 327732148 408397332 27899038 448137062 961119831 297019069 564207479 553684469 355502360 944090517 234351377 302306042 514973374 454916024 592903782 662588476 160685204 882114038 813100403 970699807 468269301 146395021 480233865 825574648 507470964 221192202 992199204 878368324 303397640 214116924 295357712 638909409 535124452 773253657 520883482 175959949 818770284 504236926 94471675 570694242 319645073 167238954 520679580 798506924 793880186 527238620 686313648 815636466 569499639 956936167 861523541 986493682 210879509 850010908 262703448 857951488 503845547 141476320 650498511 216860584 594733952 511214886 556965829 737119255 939264976 482235316 183296293 135241171 170089328 289121630 654688224 457073973 123376575 928127071 697991455 321626190 629596654 592468520 87623455 595449116 266040663 292923369 350727521 982393203 841862026 157334286 274544473 7681275 469105254 754732322 373571409 857182358 364197280 576895388 174822277 457151227 191515290 396603404 918157228 652982148 360117696 712385412 778459873 345375425 158511260 988746043 580957438 131062445 578843389 334357144 373639872 126033099 693136874 836345977 885618256 246251650 421614413 696714683 164135406 489831700 213740695 401853722 904848801 823162647 467932939 313236665 586766121 610795158 330931586 191491994 409255912 973790431 970481076 786018703 244756544 63440133 388671020 903906971 538214164 921562461 505379977 538068246 279135893 79088493 619089118 349863784 195896040 903417490 752565314 602613713 608928578 710341824 317489572 100294142 498807049 309169841 932153645 755045914 452147292 910656976 701520934 582831800 308841825 458332687 943578012 125088239 972127706 8615437 424810148 41333398 228735668 693953854 714640995 69557221 65252396 287058379 396383870 594473685 988305979 890554704 648154711 326194023 575082602 362104650 592563191 400214298 461016252 591995899 890673296 505841535 219722029 277198539 705092336 324252475 650835954 858947602 153166333 212900738 742851109 541837036 78201272 401887831 382728150 175800946 839496493 649606367 625802859 447387028 784622594 367131643 796595243 221541036 915026907 130263161 168928094 195939377 323790154 353115035 743278546 914343511 656828954 649734467 498004190 813564264 950231644 725193938 926108904 669415130 366535748 345031227 82414376 714579542 412120008 445404306 380653672 403467165 849951612 431381452 241219172 528564841 238599827 559814224 56775711 960082142 790343507 325673060 635672192 934977807 255215262 431745828 532594254 470426937 813271480 908363035 924195132 85468098 313671495 598972486 837248182 681209899 662825705 362820155 100837766 38043610 644901953 288498827 810072758 573338629 155105344 918021631 214465020 937718954 849612026 177905133 567502401 572202494 81042747 13277898 274284167 642105600 946550158 58114952 518271088 586157022 943540583 972507292 987397294 508874813 401580618 346340015 561780089 152042427 769420371 976625363 21778017 245647543 125663308 119452977 961160040 413338673 764039281 808267870 873128185 190061410 194034387 164970602 942271164 238573368 762213018 119315232 490932517 254527986 691691036 718375984 247603068 778902000 710345732 445919369 711231223 118596064 223294123 29090932 53127819 44778925 372909471 343018169 664280365 871692952 660158256 695294998 427078815 714019520 738652720 492063984 404334922 886961304 252962504 219165489 173846005 190227422 242681956 908870989 745610663 236314921 835791623 341433539 544042093 969901034 882068888 836992992 819088257 76482535 636196374 678831087 20399034 225115906 802747336 476487770 555802411 122996958 124548513 213866907 465336184 14790690 583858725 523558064 436262429 543583076 694310545 37919371 617942464 877832404 656404144 839259461 260144733 922027713 971652448 789715174 871022228 318483624 12688253 486231878 937794722 698196182 600002062 999871293 496694873 219806363 788558074 574611294 721178439 216418822 650507135 99350701 529844839 219650494 118707510 290881514 21147398 155725746 834489900 322308361 919948212 621895477 91476038 932046952 177924736 13697732 961253291 991920475 129833319 65075939 334565793 791834686 340954765 499616751 98637195 430797343 531226373 713496186 308127138 948418768 331700645 68104639 298275440 421532332 782279505 788653184 482593848 806913585 153550802 902545236 592821437 62485430 354383390 182129605 77212277 841815969 518072045 868939898 830466733 400690010 575254409 307841648 84323716 427429605 966201730 421967440 730497301 708244378 353155114 801269526 840005356 987388935 661536670 833725805 250360167 406764551 67960505 810816295 686789623 860761406 936144118 666382902 363083251 86090701 770410076 453790281 632477527 457828191 833934380 391311855 813799264 640973742 892908759 48153695 918491693 970252511 34224227 962205591 359569098 896462049 983760663 826600013 697223541 330089027 420853597 823767791 863787910 209539718 524541465 754012362 145266876 994509317 94271425 806309924 594911563 840165407 390897759 477150605 414397838 667966780 488919344 481314214 888722614 558776597 962281655 925075175 715024075 88236021 549493342 217443783 483169524 996037835 383614823 45645037 984565978 577443442 456667528 488591530 211858302 635435100 680236820 357355641 216461864 406921954 385910279 805815576 740878403 620976008 275633269 502137054 674712087 938627493 96529135 370366103 674252486 616284359 555026509 52731828 835647302 465657071 267225859 311747705 880478643 585977965 670764600 912304559 242967166 617960777 224881922 705480216 610175211 159655832 835839313 679508304 633706055 401718556 585400400 995079409 516620574 854304809 677835939 206722464 862481140 833315458 484809291 322647044 570864319 980188980 660578805 609145986 792193899 564620111 634513585 991546725 115551182 213663657 507955063 555919918 791930620 208525703 585825586 406816625 741430059 239434411 26070245 764595126 547833930 83148377 380774853 579232182 851357585 409332054 57185665 264265564 536312288 79412894 658522540 87476680 553128539 39933368 681999647 385907413 55057790 804237021 422846949 219303527 747016067 55053388 426551879 500327915 107828775 392256818 112517480 744671362 241622577 339322328 660112666 515064093 760503921 343027626 219917837 808256550 663885443 190199655 51398800 847045737 965325617 592793787 559338787 653474324 355166844 581398997 358363911 826099306 783585302 856990321 911533692 535643228 152759711 170318570 897704576 127688569 138381373 14485601 877665508 717684393 397124484 967956770 381269316 715596974 106792345 160375240 834619498 486117837 624078547 857878099 756694689 757849673 334704857 918582824 817091685 385021024 756024485 868466052 503076129 266955281 386864904 436246956 161619795 419117124 701761596 386200399 822269380 399937500 730215044 830627268 833804238 563359734 286040676 890662944 275753878 80677830 306082636 446416355 207684065 696116698 95947995 546703205 190237692 643891720 444963288 661120945 842613521 88954368 423730153 597462405 41540618 725411301 271340342 283390369 792189709 155090055 612665208 13549283 282718556 861737024 95240606 838897422 541626341 395017035 121514167 88287648 705218061 176280065 147217356 633107296 714833729 839898140 564071181 135606436 666919167 935428579 527374199 75716477 705591165 231745460 41414352 369085667 781887488 185925274 109016423 144116005 192300236 450766345 206371445 553427940 178289133 861187830 71654322 604226726 759217392 894515943 808874309 434490502 938773932 564663435 514328773 481811447 626870594 111719798 913933390 479831121 197911040 903179696 112244268 67659617 904711103 963511161 381811668 394931826 84646281 807857022 239707521 91788330 260657281 70096697 780604196 111286994 18045728 212898894 604767645 168684963 973931368 365199700 143695394 681116680 440096552 942078953 29986682 535948297 477443823 356640099 790759108 857602834 412844611 62056355 962648040 169497070 807143025 826806894 377326688 873183115 32678329 231006941 782499900 304295137 215989885 986371054 401471046 570726504 217310683 491035544 458820408 111792202 569760577 212523855 513446551 296197314 563305382 940443647 837533127 415798055 290441210 117923528 751676318 126339579 197153734 112553443 351008743 317804050 523803348 253311677 807131719 803673791 275196375 55330023 310827978 220563087 979826241 461314098 327042629 245240324 836200238 969975711 774236970 914569526 718779259 725265260 759016718 345702543 819156400 183605427 884599466 981241439 456129277 175375763 836341397 788541528 760873183 499656875 151268486 797355869 327283290 26935312 922788428 57839231 290601734 39525945 365135594 495131412 534235822 897865317 245002665 313936217 328815810 278472990 392177503 434728710 63927913 42442803 386049647 423325752 923826510 705540015 593932303 975415963 465901385 1508785 586624707 757146161 65884617 169566091 136729882 601161599 821621078 706534459 384216979 35774368 649625629 518391544 492440926 270971096 46298557 643652793 621330850 659054673 292049562 737762096 434943763 406431077 200666605 919005935 183525894 556783601 81447017 465090981 343124062 203687510 346242085 364178847 852911742 62422529 823907184 289948003 668021695 77152783 404952898 887203094 433281577 627084108 703798673 398449217 351412688 679872870 674869956 13127714 613289005 807217941 778805995 997877143 388966715 41876972 548503166 752961694 773221065 535438745 566043967 261355150 202011165 8546179 579608220 554514086 218898051 152664929 228482941 16682663 835638425 709398328 495848021 986210542 334215368 466786533 283279706 343770605 637443835 882511248 875190218 154910894 893967639 404738147 970194088 676523446 336807318 473594053 788333385 861540147 391551300 778943460 800508259 235387993 285852804 255862302 734816615 673302386 584679589 38190915 700282593 28857779 733639882 271257301 412538504 13079117 144208131 252398905 712253246 414556578 606084056 700383224 564440425 195013650 66123395 632431469 412071503 342652028 766555180 721539319 702911409 887992722 533116769 70012688 596692878 254017176 341694946 80527883 694949691 918956004 150888986 660035583 85315300 527419865 37080663 812457517 955222525 977394092 279493773 414829535 977943163 80912591 597542822 525196105 141437045 591567563 860380278 772015441 498173340 914728430 911832865 772418775 33828879 366254490 208861821 76348278 494154674 942353200 671055570 196877212 980935251 806332222 856007472 900011373 179943534 858315318 337973073 106059234 709707956 959398306 197412033 600245207 617146705 405612191 299385351 930718253 276747749 17290526 994628800 660171459 190107588 86021264 431491455 541186200 845357940 93496830 706825444 286366048 145023501 781006308 548645261 47640954 226782017 748034155 589067342 100308842 936199476 210751199 873798513 714442184 680743041 33678361 938389804 845181741 71374902 460002448 219450849 166551464 949173984 738895170 874620501 438688269 255144895 952587679 907318960 575252324 831482952 769988259 359733132 7035261 36057579 72242024 224317426 569329068 357487557 873200667 24182941 455035872 68900987 100262159 839632267 89753008 284802288 587132224 149538200 739746460 150160521 674279115 112176521 739926345 574462606 794752172 236310532 347945953 13748688 705395169 290328714 665823410 622556578 311708894 842988479 502596206 427800840 226671614 511649675 666960659 409384753 398447010 794456806 532714225 172635154 704241709 576977442 934932474 337619590 604883311 875937022 437576844 407316721 376175213 277242090 406790616 615036019 34258467 925526172 729117027 833445164 481367437 24268726 610537579 692676506 567159981 889055458 56348472 33141746 986057009 658627394 591109853 468377066 437736838 468944511 994191121 930540801 87716237 479550785 377156708 449489499 27358930 973788159 588045666 41700888 296429629 485530721 322105912 67333053 590043184 28123629 275489433 330964459 273218556 577886553 451728131 575928143 705297930 99110451 638838510 434476215 255121675 406266277 972056472 470932381 281331691 690041159 270228908 994581079 501792949 29175117 406936001 731699602 386766883 998597063 176973652 992497972 536867649 629761906 457871112 728274296 251421417 188039 607515977 219226473 224054557 435446741 466792687 963389294 711249173 804164057 175069773 371094278 162677 759526296 674219947 177415279 793068539 40436725 894314798 457061842 313726757 809782553 792545342 672142883 889940830 251201226 613714331 617898555 931486617 379647416 653434239 720908811 46750274 504469407 866753528 317581108 763417399 871621643 766671305 31799968 33336420 273467264 214475329 71852033 209135891 908512759 419570494 601313952 657056083 918773385 381436607 168527349 85876994 585794312 103383774 74518383 226386369 802157447 143884344 734150611 42463777 831125749 204013467 781890105 80275697 954979402 86158463 539249552 655259805 973812554 321581929 704975314 886185782 356129674 438966387 557657034 346778381 367333106 63648449 358861054 892246010 612961314 394923172 795765424 143117821 908188977 896635387 739901366 302056049 878910723 539814981 159382677 313047690 837256237 741319912 473188135 732036858 853172808 105393099 864771743 291863277 288738015 184664997 704667359 604936032 523794939 127605058 45854695 488582721 813108226 350621010 847532807 714346876 882810730 897060416 813547159 994872908 83704430 771125231 753172523 691646334 85235209 918007487 880683339 760462994 814112321 618475595 215720853 245663103 281179181 290359703 990916489 56774902 384661141 526410847 745902909 204553267 431199883 340681836 543027224 523750930 863026038 708555397 915842023 367888938 122189200 36905397 56198558 575906728 628539794 244527726 45217698 608458743 333657127 88340009 136323501 814361335 481830682 807155578 872267311 876704565 438910039 170367594 152972306 753378852 655591743 533577957 437510215 392018440 945604174 18722438 935617312 982613003 331888627 959261935 750378578 895562800 970856819 347885270 570431401 918332616 260419007 562006110 635809036 888316920 720397082 907066363 946943797 314675713 958642978 709584823 151372460 73279084 478293194 898342333 237561563 74294542 198830426 907655579 159966726 242201572 731360627 831545572 22674453 399031847 339011878 242073620 184728614 672021392 773789789 255334815 757716832 364968628 420862178 256991174 764974173 461184088 572696367 665405269 759625986 943416642 440892990 988008083 261226730 447564072 593542210 199808786 382833522 979474273 410818153 180298233 883364871 538611423 665511382 628716112 667772267 600740003 792766859 242784323 974501716 948565867 184950538 129421153 947835261 656417591 200754366 146619644 705096204 506185925 638585911 435365456 452539831 400101810 932652929 874691253 989863967 302826212 720746516 374871851 467704630 762544294 716141047 479213056 335807456 891670679 397332962 847519953 352539494 287447368 634991246 98214330 131553276 947409371 204166924 703044339 345400660 836473589 524053459 289252544 892067873 890501695 679957023 4690252 37468809 816202411 962278094 191951483 643682536 516822671 418603552 449848266 441804001 720986374 77847998 306420610 511522748 266404459 178370434 316121430 73956918 659351891 588956662 16837985 238178340 52474620 1544263 895612728 280436304 680515510 211970629 273574437 688654228 113492288 27783001 393509125 960681323 745564464 723651464 995744404 487434140 501950103 592277359 778388955 590159437 862449268 879795648 125253830 890823515 548467299 854453711 846836727 812480597 422041227 329114822 528148311 531293522 30921301 495920172 548366173 667343315 112838904 282300546 823653429 66330240 29826021 16577236 708070705 473444253 290564120 337302294 678699493 609115245 640379582 170630932 779660604 685280159 244579764 373579407 387694086 936957444 861426755 461196523 678903887 916032354 641092409 469060408 133668943 777862315 965054114 578277873 204535927 65421495 600573713 223972418 616410301 201524210 925691738 651917015 827179876 908756003 968462359 995654627 713810004 383044932 65409527 753765393 517461193 848994386 343648551 749876543 18127659 229969079 358726108 459722566 158675034 123946183 733366493 684293750 540605401 622679140 820068651 114695790 140030915 655810616 723347416 322559257 925641956 993726452 740057446 548962425 984766025 649594780 72062121 234354602 20875352 638900136 495996505 389796827 169302943 650244413 775378851 934637144 259769759 631310928 455944557 485374438 12051724 888141313 83754921 140446527 613533821 586903575 309827258 662934038 152828557 63045582 793242341 642048428 663067029 998794915 848512129 322588290 213915742 232854630 449110313 92317987 517466368 437543100 406127768 991407967 611677370 557239461 232223167 871994575 443809817 538142676 105976456 721828136 512712555 841617721 893251109 993317450 309780966 702828778 742373290 761633326 820187739 201258684 53424281 838737373 268855633 692648065 762930783 704332122 61278590 99451756 231261717 244953896 712345969 733620423 979700672 492498701 637963454 506861714 830864771 477778460 839107465 904397182 848793947 641009264 749394458 275392056 289665952 446552314 538033495 794286213 858215318 237845832 775451993 626666899 372335424 462382031 997552717 584424632 781849372 136529549 526465268 802036397 329173454 918151142 205217963 333849180 56661695 794515270 909716488 839719887 187895576 633288705 541659058 763463246 296122767 502650738 278436331 768188968 317050651 72345556 866862616 622982536 558278606 719037367 329639464 512210631 932049445 93595887 240186614 132512246 333151031 687796150 219129358 524832115 418700427 694521945 681499580 139530824 218321787 655677085 636860135 220452049 555477317 715912617 157902349 643626416 298645026 523013432 920823816 166358590 11954640 804934902 215121313 814966026 416076952 132335941 495207950 320002621 982195880 213198521 158227405 18586556 783966719 202097092 662772955 502581501 308654943 274305226 930532867 694070608 385953832 467798521 529542884 713785889 770599008 783534403 496120872 737895809 416550825 87525352 96347839 820059651 349497502 603805226 879911038 177042297 579230290 855261087 127108433 463742368 394142814 224773875 943819766 333940805 548213115 69000526 500723080 806045832 681884783 327733826 937481758 837314979 797626546 11568966 790801557 552585120 798329821 91421773 499371899 47269436 846124464 944530709 831000940 805327654 303230521 594354309 18664343 470895851 283809268 986621481 338997542 808195776 210648357 419374615 440388679 509827741 46566829 501689625 636211023 455720095 83109050 865921255 727190684 751562007 372085326 478548816 761180070 141319135 373842319 582411045 818929241 543390725 261917957 479814075 514525096 740020581 418461870 83888083 818770004 404816051 753154232 208762576 577381720 372035674 698975993 865644617 556554473 785561769 147264042 40583138 220487271 953829705 221241352 816920622 815073701 269345068 28933586 349026286 78844982 668588390 393250488 406342497 416373712 28836196 339363228 88143562 756792327 891398435 386593043 372309500 948254270 689258010 102334265 746252092 280682411 517720997 107728914 803479787 529651021 214748906 374407002 861787340 797459180 427148768 505681101 924821824 462036017 864846559 61264874 467517814 118901996 729042178 676051948 844686309 972984569 784924000 536393458 77661862 934722241 39392851 350023191 649028905 807139355 759287544 276621437 384127680 400472270 149624599 936608704 192825067 584330904 849970312 515368532 325246972 70016963 186181410 514887279 817447421 870609809 353125402 807146276 567154121 708865600 614251861 323860389 856577485 256572145 973538106 932825623 74806959 419575236 882915186 782934052 524737722 370070456 690511209 992132863 588196873 569242820 575387758 287211649 543851059 992215086 724484406 470719535 255205755 393803974 109184241 691905591 115452285 464338552 662789055 960302693 692339394 297126839 503300440 160934502 88655671 563301121 207254 64306474 186528482 286549186 627976776 503084001 72435233 722050489 455246131 712402991 295760805 473623105 377580694 603680794 553729690 990110911 557182358 413482127 920723707 364162933 176479359 866131083 278927056 855314627 350096518 404065850 793367743 381684485 376246172 627481369 819426631 155783936 422982446 119766538 709530752 148023071 713578619 111831457 735883600 564834639 256081541 488527662 912712167 798943465 926980960 736448600 525896000 575206945 99649409 349416281 737676507 582323020 155137446 507895477 176204871 772166839 731812366 905578282 652958678 379045226 623330083 865987510 952155166 625100358 694153633 668881932 982113452 648509751 387837452 499192267 313694444 306305819 850830492 74293109 277187326 950428764 576293270 73546873 749451462 40461104 60708652 737173446 66767715 650102853 99575062 91794846 715929682 280065246 742194999 45565910 996769666 613153688 977092688 381022972 739418092 315793883 174663422 202194468 512079033 362516093 887824921 664669968 609805184 60059773 800019418 643074398 280337394 191531966 320746565 156784682 178528777 560961906 342995268 489899937 988860430 606560266 574471173 21910035 665926046 661440341 266414024 839672576 539136503 677048643 814691246 865666750 462693140 977815266 487190931 461733690 971545743 546795000 162612130 881638077 330397593 463302701 654586453 974854900 118632720 835260832 688297032 453598386 99793100 77968368 91534877 199166883 849183330 29150890 843150067 545218108 129411779 532281057 529939103 579613197 502229932 943473588 15494297 153092036 846401235 731572225 544024270 334569825 174208214 88291494 240953016 121424406 363968050 471732964 839565985 68928725 920392919 130782658 908335715 167919272 175260564 571194957 725312311 762354288 73500667 21446524 70763334 909838980 776941629 488211035 67137867 975675980 2465897 912509658 126015139 341330848 34646555 386888153 185854055 276518135 867917991 291860846 656052529 607060593 227061115 179384139 304136149 130692580 480153860 691213424 605525995 413618018 962638438 455747748 38001655 963226227 780426871 738013003 164551412 893897873 592930589 132725481 285056934 530366682 863729591 177363709 441753293 146188700 751542239 408357835 513002973 715500389 737940664 744474955 121473470 97069483 47842913 835329129 983238929 665544237 220814084 695853029 549021227 556764960 26337178 437713519 173481460 48889428 59400202 350792523 393746750 894591404 468214420 775852171 689792821 556681340 192932435 936031644 807238658 128372298 839436127 567701496 691226739 693455840 224338108 370320413 187209713 560934394 149828094 579236975 634040841 247532734 261383696 302645174 253870714 782319952 891287021 298815180 620461093 675746804 279631100 746183693 421394276 553567954 84488550 107917515 129692481 115065449 282058816 813370347 237739998 370619286 503967406 337305507 17249338 903356583 817989523 977750328 203815795 181522829 587270263 824150420 526788451 424110410 161302874 914649133 124104865 441180160 733881758 771929715 161458470 561129759 639988262 50016843 786117795 891895154 224126921 188381068 890888628 336312904 467701845 369290555 708703369 21888089 642786307 494676984 735557068 286209910 374869050 869221995 40668198 343081275 134139333 456551163 501708416 959213049 496405433 739976138 418740723 54941426 258028727 103201570 977623352 896491924 637306669 201045454 795376285 169944828 831281768 884410584 568161655 658496957 396766773 88489277 483741830 212442275 924032003 550241060 533068352 443503694 131524041 686634143 450606747 733966095 277378455 542364588 77499483 357855181 458884102 199154246 251122264 556467265 691042561 723238449 120249042 978306045 347344967 765898593 33685656 244256005 56639315 348423966 770287623 384925965 32716508 392650516 406073105 353949136 155737982 937050927 535743624 916689040 104588583 642420685 800827257 807653392 411120443 500684709 977319326 800524626 348725448 42182576 196336318 413954822 147626621 104851178 674454070 466897049 341953829 662194412 197532648 434323261 624906029 962794278 969081004 223050394 97155252 876763272 611998115 612495356 520230705 76727403 239072344 730036492 250019934 618989392 724282411 937812817 3034853 512476684 892684449 792032807 72055499 361947650 785504805 685849957 988750134 643954053 748530212 455547049 553012915 184400138 400244954 371734466 537760055 524977050 777058563 344481102 824719644 486062421 527878709 882734385 292764842 210293370 205104799 573749335 527419047 934949845 235734077 543453010 245159157 928421028 620610998 495079830 308499272 874549171 670389302 566355242 983183059 239319155 514083022 532220516 995519142 22951755 295550972 515279486 907103771 114486797 828025076 867031312 739145533 121341434 59158838 519734369 917175359 867759961 999807137 187415921 345680780 221052780 766635574 421139671 530262796 810878602 690989978 936501981 777817074 214791430 151718660 339596459 442999888 14659711 321826102 669509683 252393706 179449209 399204745 348956879 22774883 126037095 554635670 587600369 492881338 477813813 544926598 585287755 454000292 46091325 312849675 652512677 506387177 811839278 332715784 58477217 508959675 296697230 6161659 407872836 196094374 171272447 361412330 168040515 322081816 113583816 706882713 854958357 525459949 835398210 240977464 459008841 28840313 954549449 308014097 579012058 900168961 781101630 137585229 77838983 289715149 964900523 181388524 799030292 693004807 363938245 511205340 237412963 368842443 720411090 554091103 138502519 945183343 270775402 126736289 922542237 461454892 53507642 222865615 935625434 274990077 84092318 916152262 530113976 301929452 853644357 141277528 2227579 259891000 914615905 449671741 81426750 460708763 986193809 799309899 688362230 764848103 429327081 641083914 987809931 406208439 442012845 395129261 637124129 615465076 647642994 774333318 330764598 107257421 769907502 351212129 885571693 955958650 794893295 467445879 792593299 129631854 829321630 100103713 963013004 651071655 57970937 120383401 255964703 329594620 864294197 194452877 7375388 272060401 395906329 264393345 752634793 692354674 742514981 682960544 492687058 854145541 699533900 989564347 137845585 21133356 426276335 436986009 224823013 292796838 221113648 457782054 918236786 949920610 106906379 169324153 580755407 350926592 297111874 65790771 693266872 470934335 404706354 691398703 65070666 361630359 81706474 565009485 58726974 472661607 727230931 78182423 665466721 328174196 175571630 306795806 242335416 248309456 327520701 652830313 516468166 687905755 641842535 381180066 15739296 74481387 23780501 167414230 847169197 681357499 211515442 183350772 106065753 938553298 481058354 74673160 893800333 753423385 4300863 632331833 71407548 705695970 149842544 710716569 771727283 472506685 458291187 610154186 509147918 750738234 236184491 696132786 108784798 713752444 161795897 256067367 21174216 604496210 345497275 28573754 200275150 852763084 280122376 279024951 70281833 821587308 690343844 769714446 387021765 566043694 943168820 275782673 281170096 215473469 464220770 447312001 376306250 813805579 825310504 339244561 69783663 479545650 970976452 923746367 548622434 658977875 916451384 273797458 262351122 215510774 499548034 57803210 386995131 592125363 109147912 990731210 304792810 576505101 273293285 964111295 819915815 665518137 584985390 598459557 193266694 417354044 442645232 851591526 902951652 603513031 435652269 654156114 707765950 781465185 882417733 549276927 158101347 692850872 675999177 877060282 140739910 528831020 973645098 47368856 56037926 890557050 19353912 986103753 824044019 330425876 843382183 523439814 648178597 245757053 198843847 53677080 150146046 128495644 550149767 322766900 742856822 12600983 121297337 899192381 131867721 726823187 160216547 526488178 168605503 781321312 2905507 875061211 562626599 801922612 563834704 122960272 355195028 23807179 528334739 161809986 687200239 915003432 559667589 881076216 357962266 349846042 400948784 957534684 481003310 6268484 593818001 227992854 865913135 535396893 948771135 230216241 108690329 94368502 188593107 264102244 969519356 522929178 588723833 890350006 815876928 83891993 485259618 24206841 922725381 788904273 255834872 226324611 918475593 875286892 586671193 515486293 74354522 799130737 352839823 617345283 858638722 470331290 447756872 670577137 976976651 998214335 341966561 963832306 500434925 88483480 607359003 130945330 739131845 913630057 290803310 536036333 184879702 714317591 10163617 554722369 427207537 712975073 450826123 309915434 281643756 994680663 982219833 936064276 16570225 399110938 360386945 48083865 379519410 439967199 50693576 97704609 13651860 628308649 853234446 429576119 396531725 955195656 14550310 51390957 366766404 777976190 993064392 165276016 752362268 945149691 922852375 359162511 357908228 831328374 224665395 649435937 548487335 80164872 7085998 237624787 944915223 799924497 167003332 382035515 460836851 139117272 608718120 767426160 124344027 542849880 452129317 162491734 397046516 131821559 489099833 320391766 640225822 245441595 248218240 644918482 758496766 494118395 231110879 40173876 625013145 438946967 364707325 225053231 44434401 980924307 832622391 479250528 934766700 166458138 987350648 645639976 223861021 300155130 891004203 680536018 491417499 891213239 885635439 645761710 942177702 4966156 302897265 290386233 643847000 5737062 456017047 495914003 129092141 842925899 120911110 330882177 377076512 245957032 346144614 364350167 361352983 303467140 146605537 457508417 28014189 197423041 610982499 16154249 213353221 968731546 441513592 86253585 133894271 243723991 377147405 708454635 220446102 777962032 625815998 80074370 504393895 251009722 814475041 930172797 716525687 866401116 215662914 528517168 441687874 73152638 862479127 308723466 74155395 279253952 809311978 935109354 858428627 820655508 545637096 115059633 448015487 40631560 324421727 764166870 851923495 799122208 644135143 140921542 952365929 698820468 556796364 348574442 585752692 692124553 913240497 630947002 252381465 370039038 200118864 268784551 736424011 818966351 631263177 805942155 985136169 931998857 63148561 495659079 218832109 998885097 335411944 342272903 973372570 221052188 184755181 291538656 131307948 324421345 376985380 990742161 15391817 619643563 928815755 518457889 269757835 348787383 782403013 652563442 624496608 931256984 709616221 168473490 221571986 725739946 39018807 403614282 312046415 855172039 950583806 714796039 139187746 462815111 104930454 409332357 7748701 127472885 683100098 604133920 950627853 377314384 102058570 302059451 829541935 414541504 796586563 104481472 750448798 264220810 847218525 163738564 639191917 435792312 18547460 289527434 257379293 689386621 358464375 58128472 632947003 150805753 978934643 319279115 61851219 568732708 645794248 60019720 812116186 968472449 86987044 406189843 898305289 927308942 961707097 753572692 885406667 802272810 373083434 409664414 429152370 314253153 648404576 491483133 557729925 502938614 118634921 579210525 325708524 648729959 866041107 922337599 800254710 193825707 132153830 155370219 477344301 119171573 843307861 690049851 220577537 8531014 215292856 540780842 352975695 226918589 294058856 314416900 213307934 528102354 705642687 639665535 151212793 615271969 82428360 532145818 246007558 479897772 502111788 624961743 400261158 703544818 141239124 738097514 400288140 907644637 305578769 559604582 319738613 94464774 333221578 952676 156788220 185601186 985911926 4527123 616547975 117433167 649708101 447944257 834878116 393790925 6990885 676278711 521510517 367133660 174532744 831705965 209082785 685229771 190122133 804113559 163640469 770027612 455549779 538485229 538415910 626755020 593808609 209132545 623920831 598080655 206909191 450299408 291613915 206271670 604313645 172809095 150728004 829654714 967166244 385016512 21562542 869751369 797429969 180464043 163485476 928763355 251198658 523894212 226963506 422010142 700272271 544473673 501203301 737905946 634076650 473861087 833617913 852895756 402835248 948677400 297566485 277979436 108794990 502738982 870576886 827097204 490095086 124219365 627769264 913367437 687980653 356978496 297335619 647892187 214918300 358165974 983219317 936403641 242578241 616294084 395344765 262222258 882682698 873584536 5617385 637758737 870455305 203514458 751835262 992585308 862018892 800749306 956112741 151271447 499500223 655111751 808793834 775899172 516029501 372330784 260177045 362578001 491146100 433616443 334833403 815023493 887359890 781130384 477186024 266875317 70229885 237663304 835458604 303743867 884126111 444405469 790512755 861227876 47062982 960551537 40859980 621819712 632801390 503222187 593225072 333065176 648230375 996586712 986774642 738291724 58009869 945146266 465123470 903615209 784199646 407076473 778010181 618663983 360927944 437223356 187538437 846702138 459029911 796546923 841952801 89269132 119877279 189047956 643158093 167389944 811118042 309355295 304132045 47676354 572193090 828594192 636882627 154374744 824571662 154113933 361045598 102520725 658508120 22581495 890159913 301271291 690104452 950004776 320741460 274210088 806725063 158985620 901225582 356262932 287511603 56877384 766753931 213231714 309644058 953788197 8596923 143035699 30198757 47157193 410196160 513288818 50577583 291510003 633580155 741264583 558431403 152797051 717146465 449456074 96371192 431118810 941347010 27064909 246309879 653557865 943044370 593958970 786610113 902516700 218729084 67957290 457486047 230415464 467241772 318258695 227516726 165540951 561312321 867850352 945774801 405780497 878135888 221622003 964018733 561886966 429461384 956279334 634919251 515339056 635682809 203044901 296448380 475366087 514511580 337709197 658311638 735635313 561894349 195689883 881145754 814872696 381909567 116407657 855639240 447491869 96872662 120773380 518372893 827052446 211078572 409410947 468032697 363252034 439375200 576891960 511216026 842499797 706542322 957363623 923428161 559056702 73542136 172454039 485100625 845754911 24487431 288961342 860232431 262256063 79493729 710973564 120014291 328111001 746858451 586368219 92842598 48056080 600210454 393039498 587633372 676325924 486746926 269304174 181271709 242922748 101128376 82395209 297462769 404184002 416214236 671815110 30369310 434573324 919241825 686712739 10514919 940480479 875909881 999732491 983884135 160725419 840226369 888146894 751035871 728469468 680233223 180176522 546703511 960966420 530133289 850652305 352466109 645084426 930898377 936846270 93225847 396482611 128460089 271993420 195163479 902404375 473335818 853383318 375440263 32833951 18686455 297801884 353263888 723204656 384193093 438996975 994823764 836574364 569385959 405843918 338833758 207791404 688476087 782379349 271290599 853074889 835896591 798412090 561838515 790373109 59104678 683949015 600596458 800214814 632594139 936872583 712287409 803002285 853634135 757211280 368017962 707193117 175855964 215012416 174923341 783737659 151634484 706485022 523822146 943943320 321866431 421131779 439869247 312478589 161904486 244365667 824667206 336497212 442375784 539704785 813042227 458961680 477116824 695205728 515302566 211558091 334512399 370412190 937150377 982087995 599452290 191096004 228210121 125855651 908948078 54666388 586078346 390968382 11518776 309831253 489510746 659921678 6337084 793616204 820764581 10872864 124534652 641792464 542231223 191886195 959200440 385252788 183935966 465133222 451993891 362944428 834820267 480577453 747796994 589284378 313614949 883398511 844783377 192533746 114687711 835884462 56979794 8147667 939199251 100521641 966470361 910536355 855808011 856715177 37876328 587168798 185495936 140913179 907383330 279266445 273454429 355367447 867499091 319501955 211183480 932539339 229547305 124469429 38464629 527366 142491210 932275913 936940139 493568442 375324935 961803061 766922913 347623733 318481125 473403374 658621510 192475887 379010243 435540299 334034952 633011943 759416710 264637318 148186574 402929348 53691238 850211533 146553232 630325305 246304646 213630438 487681253 214734195 823374533 171579839 919799017 67055078 723905000 505850772 474203121 315446994 721518342 204890407 594142636 788188722 773190445 870469405 132094673 427822545 945003093 405002850 132806822 795060062 144963215 174414810 214622706 263946838 659898086 964715084 229048159 978110839 298682560 670055952 30459287 423360007 478266638 581940246 484907297 735804884 893493953 371568936 451242474 741269985 628745633 559582846 537654068 673090676 692591521 122579188 911473108 797315474 846411843 655988467 679381601 149619793 620745376 348790962 897484836 730881712 383754828 574547847 117860291 904992793 405050148 638272182 782882776 484281566 938356513 8821466 666024019 656264306 98869858 668260254 691719928 395122697 995783115 901207049 297075278 198839024 334536935 911516618 262501624 415938901 770080770 849259422 442150362 404744411 958094783 31689061 580260751 303148748 155632923 493231557 203320330 526101626 954447599 187653002 565131321 501088577 934713845 607847213 394248565 381384976 49120335 80709790 155238015 923092376 646752234 82323157 122301075 843602267 49461706 500169718 797354970 506733947 827405938 891834986 105146808 554153436 280283691 20926685 170248362 954954611 950421159 145585052 720321848 773048786 311074733 872076897 641913694 811010957 264923546 483672147 628030117 245241826 341012196 18849242 844430868 458072231 743548534 532541433 714513099 489823663 579827400 955219071 571018537 652212873 234901648 695727562 617975396 482634648 894763803 851448789 662929923 999324189 443181844 338694287 420413333 384142247 287803037 601399538 507191622 739204845 68257967 854359972 509387028 630143432 867079049 746130760 108693139 269809925 137589496 596821623 169918255 963788719 219690903 779738910 245698064 324836604 953825901 571489138 823353168 167643514 934584342 512324592 534412285 923646933 781124745 824014423 149046401 207857122 25923377 276447026 507568823 718706743 541253119 472452509 623606814 426531740 816647753 156002958 644277870 96468572 75574491 514951084 250448391 555832635 671395126 868917486 803612266 372272471 556560059 687047987 592737499 965664700 547034902 658631562 92175158 461546511 51030159 800409492 437083674 8397412 261498328 535624462 897813320 449716729 322747268 799866395 998802011 961689645 298995519 636513831 528174306 560318592 724354859 988951479 10372921 592467336 874673517 706195880 182877546 684066769 266846153 546815045 884353650 82187847 918597999 850826634 507361569 858333505 254121440 621159831 884532076 645827388 64519079 102352577 385084392 887572617 214666095 339109352 884146197 491359563 914375267 969353905 515838289 279954274 708814085 490837580 938204295 670587376 956109961 481451702 129305199 9211239 5217253 58819685 963316256 723512221 856050997 747340365 577996195 88081778 620873261 402982572 558601551 688094802 495046234 739008749 752562222 668923756 927537202 556147237 185302840 444043486 710213773 107322896 942012753 548571055 955511215 622116593 16552745 656454712 276051195 573310991 104147530 50027210 811969197 774176089 385186593 938055486 837084992 375281214 292585916 516742111 430760207 671753988 744108040 8800898 848074028 504004547 479388166 71780751 237222346 247752897 111204172 992257821 218458477 440478862 139046974 811705265 931683717 516478183 466403682 963312061 933533108 847281127 145742304 932225955 899331233 452013367 938463232 818969117 974007476 953885406 527061758 352674640 363272695 460105283 320616963 765175480 740500817 531696862 686610140 297629949 463191165 268022549 982892643 580722925 914875915 18084086 324641067 625996109 172229342 704389852 147799411 325835826 115395348 664265437 428385587 713549381 734551791 821359821 5285050 6240190 127935864 980180324 947395259 150955607 300106587 89254840 272707704 209746014 387932414 122945318 588423117 545946250 984267470 39739707 912779245 627293431 114752109 390849021 596754591 759834273 204382688 593183390 831566611 448665457 520927248 41990840 208104438 383893822 829519476 137639469 732730239 113732247 88170470 420674468 826131010 17915176 443482289 339291319 507577828 228415870 54048271 126893142 834008709 356001413 278557115 868090529 611306711 151660738 108007486 254046714 759781079 561400190 932472635 170466279 791137187 851141665 490729813 802931454 697434029 973490097 568118628 55425334 365969265 202969383 512038675 176482235 897238018 726886586 206007092 931209863 639009386 109876872 990854582 669547682 676692160 955692545 972198579 796092583 718895903 831638268 379515426 815702302 954707940 528483821 463206158 924713132 631740810 859127344 942788594 856888503 690433910 727883479 936412940 651513253 630168216 768294988 133845142 593265496 351239746 285373090 660675159 380479739 819814344 357863180 230264362 141944871 925241952 111960900 113280481 28381791 790869297 319078547 342309630 319038107 442402461 607172124 351860485 566927805 32742506 242935166 356868932 942018643 581307527 451230318 750942077 652681017 732082261 173669182 281218436 217360222 2592870 402393352 874804884 798523512 511387624 899674344 112080043 720194342 869712632 333621906 619002631 565716299 57972625 627360404 378159420 714380572 998221663 54595934 464563117 876064488 542176904 222505284 847081561 33931547 216132588 751928289 35562325 447092104 101227789 285020967 82595224 863810958 508798070 68900690 533439962 398487110 263093262 339805341 501212392 723371851 265017142 821170017 644067887 206964741 924352392 144200498 629928068 768966962 660119220 129539643 65105051 193216605 846771725 859746343 321550986 561661789 181111223 89707215 627013050 219144120 584257074 675777234 980838533 673773563 877977973 104331070 636968450 445905410 588216978 46326398 860542977 141542774 433553621 973996906 953088195 698116771 943142458 357888777 255626947 750241467 813672971 133155046 715260542 771979525 854467061 202011475 814721290 138659262 320092200 99433125 229997232 716884016 434821430 249234038 167128599 668942454 374572848 163577690 115543665 812544550 902778451 59354087 5097417 104463066 37837036 960663599 125324844 136391667 577411834 964938150 415710189 296551109 267384768 96590678 159654111 313518110 339130997 946880459 909661273 6381794 594979580 557440135 656669392 706466365 747699322 315085451 826981790 550934236 374930789 617504215 235996059 658131014 471093502 721166241 51246539 285975649 209244333 502257936 618564679 638590000 322793888 44552705 180885604 124179329 305521147 862501083 670461447 733497366 387779763 818788927 132723978 627337314 260028296 253060545 696624909 303978119 352326784 907925965 715585663 871305573 274951245 182808761 329703011 131668099 87859874 964749200 362396916 123309429 931920213 364863563 184498782 746862270 700433769 436669644 853477080 628965628 824458803 104916752 425087119 785165329 540297355 820008431 339746377 20877381 952785257 825720049 593560463 234030754 46946833 453601389 446740822 69966814 427176063 69681956 250554236 411052333 711885740 981417859 929090440 269780379 233447961 852612919 302005482 657877351 556031330 898768374 902533153 777694436 825580926 521666528 269368677 794497307 156332904 378647029 292747648 147068090 806252820 160807869 474354001 846277728 109636355 377795714 64754550 513294679 159041594 352685697 657798427 66780931 3556310 621983417 51871974 532560598 485900265 781982360 402848020 59451039 685008539 176748433 985597 324889515 404476109 112481841 506193268 951628629 413269140 684566699 387505445 678391539 654690729 379422949 942887822 973549440 196883713 499874864 46389264 384490008 672577472 316626782 651982657 914207753 223459638 886386106 198717602 148149081 47671808 272837076 546901284 101867757 604792440 961163075 386139209 16190476 333864516 947822309 765467171 854581579 35706045 973306724 170472319 435017659 64922265 714384608 140709109 585300682 475549252 708802650 985690396 802251938 849146966 468733725 307287710 88160504 936712919 943163912 47010312 93856506 373680721 403887929 676298106 351940541 382185069 347613017 629009816 274040018 413720983 494161832 796507676 791294163 423838389 435237546 637220801 294463703 793371371 723912451 702903940 266201978 256770479 354818345 977030234 908855193 307301240 112078498 57582262 8647217 594164329 677737242 757446132 113182841 895325920 107426746 224580420 544597785 21335373 928961645 799034555 784509661 614172454 960651695 74778981 814089543 871728064 275258182 860398418 630530502 312006374 619322057 754261684 67611788 631778762 344849688 31342282 308766757 723961463 640609931 539815491 985923290 449581753 830703443 277574769 957028349 186016575 531077230 328913739 739312351 712361681 40212207 648382141 631277278 978206026 29265369 315757105 533787743 27993381 970573502 159470768 725984573 719309310 777798749 138486996 512833257 656989967 794130822 475228760 162930862 704398825 831237973 818577431 758941385 973311431 281903991 622221264 221002238 239674604 60502585 738647982 881827883 133169130 716949120 1197317 684456519 994372386 898057408 934338887 191223975 900613020 575008979 909348837 476198687 133924372 664611341 934688289 244099330 393825804 670682207 803141321 834067931 79862052 403321653 519779334 782641638 484679139 904790156 900526485 146954489 345952726 121937954 102897549 927357445 85081036 512028742 504505534 116828061 893394604 862912465 773538397 488022794 454959796 595890450 322499567 553045320 505647643 38631083 163585015 344973186 358306965 801066749 803582189 704087583 49101363 632350194 480717607 306018731 364926370 345133366 749127556 741801908 378814031 16334221 328369154 654165596 546207072 712599073 418895599 138583942 112282204 632959525 907442318 708613445 208769339 489221331 163139537 309589994 410057152 35625681 920522891 299207913 702751084 118004665 741442319 848474627 253815534 701562491 179685927 466494423 378566212 584398507 361608845 171713394 68600032 478661499 155373165 984177793 401660692 143018050 399973802 585982742 573929256 263692549 551249159 114251168 402572172 131298727 623540623 735687788 794395673 267595913 474240899 971801355 298922339 891489743 461635666 257335443 950452271 743922286 541681837 714519963 195172640 899746906 203572328 56140158 681204729 905353819 869114903 294641664 64514802 577439191 803931244 520248029 954006149 150169750 917946393 410230613 970150571 626960787 773496522 314432491 910961860 812429191 492013882 611071889 844696780 894535227 533028140 559885943 329233756 72335449 473084709 284694977 219825543 566842839 158423112 921119194 657466200 144491213 995797219 615805237 40108235 739553337 367444475 903520158 189822067 318049419 965990900 603183950 320017703 570854230 619180998 118781670 908756556 241416856 298182343 5375242 101879625 751003335 262093899 862096655 179920171 455633721 682396613 857527480 524477416 857731164 121949378 101155864 853327046 583712811 170314685 17288962 253605948 83638287 847382691 434926941 498583488 580432897 16876469 900663313 273824634 388280106 900425312 379959896 704847610 918773986 974386201 498712855 557843246 620935749 156443970 541742442 915402373 536931904 817242939 783736790 674524715 740362502 4716138 762459866 86923106 723417210 766615403 37375715 20344923 62985156 256099677 134462322 543108269 893694130 281727524 694878742 451802631 651289979 619622214 100852811 685117187 455214851 293681331 716048216 539510399 772699388 426875849 983784809 74373350 757849633 323982723 457659838 40498226 402751649 271449336 29557950 946676841 917466916 725750636 585751755 34776473 814749122 508612080 608506126 930167706 892554449 363914304 736743486 664584635 780621651 787661360 923615151 504588109 993017632 341660386 929776970 632308636 302626691 885251856 871579232 993104446 383328050 225425884 125361312 827884847 536052259 367038826 603354761 112254666 410033813 476800285 985438846 139923949 42457152 204663640 406378876 186230818 447898989 885198553 754621769 777463543 204360277 127824122 398893949 30641495 210427457 906626060 315049610 436447234 391704718 689964695 303106031 696181638 903328944 301915535 341731996 539590054 804025843 511307397 304225845 213973889 18239736 133012391 721703548 98918402 573043241 876047308 756004811 150557472 608622027 765389891 601700914 797201636 328527366 306208224 517237537 738036762 789024575 445093032 630499224 155638505 369172539 668953282 959774514 984538704 768776691 313603128 505957812 884312692 427293089 335784831 816520538 709403831 961593018 341029682 185341737 48189232 898046199 835340870 957513311 443422796 837532138 506314652 904580105 474127444 956800038 942520959 286311686 675115455 856212843 571779779 307567059 360824048 171530348 200727932 981055533 776090517 712508500 31316999 264212744 756593866 477951026 624512937 99649356 4731610 992123329 485046450 524650727 730245987 376285675 271195694 468820775 82362330 328900312 554615689 2945873 890857201 562036037 388317207 291765802 936136385 117748349 101488417 893046865 798652809 417329737 261505864 375616537 88347557 131853450 553888049 597332840 706859802 862515690 912144484 202266517 622927044 62842022 221734701 87066706 102812299 566262452 394221917 895373340 326978465 52998549 102898500 965308448 405414325 273585317 437027566 935115626 896941332 983225688 138881168 583210445 566754097 242043987 633699970 471653552 503593515 727661343 500083716 126116493 162860193 514674520 816941214 138419217 382428979 623349982 412624867 76805575 170622537 703648537 408561960 459623039 480897388 561679889 826553558 873666784 742336439 411843651 982918984 996993441 282068961 173057504 733225483 826668983 304961314 399986251 411722034 56791499 483414414 208177093 414943709 146114057 9630541 983772484 703538469 256402715 493873313 594213975 746439422 29741479 425318937 430793877 542137572 76171213 894935667 101812179 69949763 968525968 790096860 8563089 941144432 532072761 240444906 889896064 737290177 998780594 484130862 809466661 469163336 499544740 65643629 112253515 757548632 471997964 756521727 634385272 508611149 890059464 403556662 222301276 110673902 111107709 396619513 338278172 776731041 796042772 793707213 602605193 769863150 144768430 473253004 643537112 729317732 155257186 270364892 908941591 578618687 610284991 651300252 390273815 988604856 930716442 936758494 49239899 894048245 573146127 785595920 148041322 517196845 356141820 323363481 569280261 143147053 577637866 165879039 531321138 156654389 858015130 480070236 188123373 432380358 644240658 942478641 751577853 212325226 760383842 299474922 515314904 385839098 821003228 21847122 806539175 236580097 492736664 964877743 762366689 797915772 897784394 862740022 3657746 321382248 905138029 91046916 110752125 86475831 912024600 478037949 970446162 620367975 294378596 939573071 227958392 306411108 12557574 683851076 561384544 680121878 934987908 669304780 269935718 909535465 664944067 269986422 395358576 156759231 323204435 799546739 552766056 199455931 116438804 139593693 297735152 404307992 603330093 681418945 441536275 630654989 244190847 739423654 834790208 669058745 64513791 460699394 538387125 284120530 283097829 176918215 393101739 265630836 152429996 806965974 4601493 902579382 422161787 258998378 519100080 892140386 545348469 680659410 963928157 341065561 819002430 609993151 876147128 854562666 481728223 825655442 639658616 862182073 857569476 391778629 497202577 852735631 502280039 624383769 828848175 614457410 375800503 331862918 118076242 315014007 609616137 781057273 428932713 695629941 743373356 782127610 464736947 779820890 879005835 642693153 256499431 239917106 702778336 521796616 112504338 938438662 9664489 655743904 651796329 24959731 374219421 711829863 543263467 761172218 519222955 555046375 928648373 950634822 688377019 863837820 914242816 926204918 717997135 619365107 613168295 899796156 4903788 278324266 438972019 531217624 674624168 710464933 947455110 34535199 527133530 614435417 177636948 286817121 698428600 578556554 134628737 472143564 510517843 71206186 251508727 517371560 390159286 114738572 385725494 557265394 562719141 324179683 390870377 619437163 941850988 316749363 964555416 7649844 725729116 775859501 721147534 25575297 540696264 338860028 976058064 704626020 537963272 602896545 6495278 516396682 819299434 424620416 659540366 62254096 362217700 940279282 393896319 643780160 169218122 287782369 14511903 358549403 231490439 827005902 580688382 526716211 912220662 65405326 337748361 132266215 877048432 975844002 21943848 383977051 358626171 515940012 673856311 929514110 627396793 598887788 248725000 372599096 400470622 517837862 927905867 632721398 894841666 12602751 520307930 177651370 619159857 123303755 917342553 548908193 664704604 264018745 691286537 863610317 641623743 575124266 638209500 251956717 678073358 382078698 175932725 722740125 381311309 643047193 481889719 519858163 659352623 201676748 178173635 218169392 672544339 947330128 752704736 558909394 367863114 28299589 324026888 170181241 103707822 374812070 620084138 440954091 129445294 418866966 563074392 846447970 581333298 155689507 221110508 276507851 221187340 44227502 707577499 853296388 332930651 293872776 984626145 775921345 430393114 41231929 700121490 798788977 580217744 785513414 79766466 454227411 699529419 196052707 382331103 582155780 680602766 890230020 794226786 383667693 654426953 237869010 432928770 822816801 579137617 667805725 129015883 512140882 482438745 968698357 704371118 183045806 698127685 716406567 498230215 164996829 926534313 277951249 488918583 263627360 254085868 858604236 18311252 760892581 468329435 675194758 657308022 302393051 734093156 809782840 606511810 932438606 493317587 309507431 816839542 581388988 960770471 574047455 230820460 729202612 675581423 839765401 320995884 167017332 522198218 826235516 724973157 741452925 236623919 711238227 447475336 619419350 41047081 637136627 683205109 498131232 706390180 949239329 735200774 387444602 692366104 839477185 384166461 914332352 155570404 343809686 562695586 561838214 810244510 144847964 114633747 244893003 713048931 758027569 182947909 553043181 807208810 907377169 458817243 757834321 60055811 804748381 318094227 328012598 183482943 962807295 546621426 919891947 201261976 960242457 726917614 336607360 282906871 74261190 574919532 617649832 497450674 505660781 277014423 889697886 709361773 538317327 114813905 293987463 891860313 328652601 265337711 234429537 240705767 818579683 856769261 374441900 680238726 568478973 156706871 557084376 544263969 351410552 124730323 366929595 802375314 764854570 955558368 433474500 278255610 182979013 363576379 275602162 864850780 706655883 67717736 87569358 568378903 30260180 833572421 155974599 797727956 886983817 445159229 934350809 90404961 457769372 766229117 663019522 693480992 470102264 831190047 585229807 857900242 918479337 995228408 979029473 350239445 812822967 26514112 238902844 273984520 647567727 515805756 138527672 396072803 101568161 4375181 479014001 616747364 124766625 578441284 265092934 339633605 39406492 213443785 497569755 524030907 44849096 241520485 752209712 300279353 343607915 918186258 567071733 577927279 278092877 60107977 929772094 917352974 849196936 170032561 750970189 487355923 633651195 436771984 411064415 919972431 875934808 771381688 712117339 667718708 509452755 817633221 935329185 526429924 56668193 726378103 125122990 214753534 810704861 133597189 889539727 243074600 840924484 369071341 911546972 230611693 702657426 843125339 57110383 629910812 76427181 47529816 276559388 832517067 868779567 345617590 162016229 541747688 574539758 194518727 270772345 426576571 137718427 627264591 125688607 431195030 665408623 111740025 211202453 345134202 739678950 731523497 467524810 386375153 666568811 296199367 814751012 910965139 749791994 558820631 346256439 940782229 324989742 37131436 216173153 840885482 283922221 764134768 466023411 589935056 311887761 353366915 260432795 254429611 551797377 757669279 728170530 101649642 919614476 856712866 139932679 369773945 861372309 34623226 371887652 691992579 899740076 358329025 509160959 490937290 929598356 140575653 688562117 648372263 608812023 725559844 685951414 636240996 278927545 113362709 145335696 672082234 673563037 748466272 175163095 695892033 193327974 809919497 477980391 352342586 648468543 788542972 917297719 943590902 95197273 874551298 505133468 471709454 720940633 324831878 391086198 877656524 512456204 641779078 830779653 643264579 179227254 271441533 435228827 96108608 608311709 676144243 708832951 647962314 600366460 592716230 562452340 418076774 962213479 54497172 811510643 870934752 606231520 100228558 784822694 686912137 76754216 204863337 399603377 251885408 658018587 147965243 569370595 503530920 386908271 4838861 889513722 638996179 541124438 503591703 390283334 489953255 16341583 399880726 553877281 477943945 502468348 960655646 23271950 390701859 302460073 423052051 616623006 572503991 740552669 503906117 269027432 93771652 215776498 371571312 388835208 440738376 180435206 869954187 608352795 663716226 820899331 55754036 227120364 223378446 203461118 446033128 736097925 755768021 320567239 923180892 504469799 873753393 678998113 172189788 635972152 95617946 728666838 145850339 211521929 268800319 190049750 690883100 64763066 937860939 502632062 575248408 625270462 305108854 227498256 763236806 485565166 614780421 580029515 690938499 607404208 996686101 914779821 328938994 913376568 417668471 597465849 12156966 616266364 206106566 953681565 462783301 640833571 424454049 315372878 290769646 549085471 911559522 475575419 269647445 721832860 941539897 965071783 793701303 806252735 327618009 878292332 312053450 375679712 956458604 499186698 167693152 470336598 889635849 469822326 831637891 996122145 829017080 478639313 642418250 916837218 226548822 445521087 687965589 969782622 181422172 799981588 820580568 995306439 419373138 471356211 863450321 719084757 453069730 24324764 883921869 474927810 690674699 821864399 112284301 355152704 209410034 988905704 643436339 366747133 609704645 456277866 173347121 337065530 75708657 840649984 732223046 876748010 3624138 95829596 240975398 595409974 698521469 485791339 694579330 94730495 100647792 609371100 214767758 681327625 752203209 367338826 928243640 488040444 410881554 561275753 95043445 514441694 152301972 670216634 324603192 80175626 787845807 776688474 707098998 551889483 126807353 701762916 832647034 100510558 698522614 82993411 918276985 97957400 618753912 998181564 431599451 452511769 910834311 29504429 410774329 667537848 991904664 540114259 26923793 849815232 787303214 904738522 685403558 341352994 787144963 648399667 358137454 393253522 691034872 422872346 941601836 765675312 438957003 782990158 442882877 564485649 719594365 237188622 562774152 923912432 953392438 560240671 972213074 240002701 501713300 640295807 125597686 919768811 838792052 385016582 366135793 500248627 258008748 342231943 296657585 591563208 312846655 697092527 690087690 512776187 953840181 715988832 111358752 176276037 817791048 427246074 441333059 13350135 315256008 618771457 161856077 291369567 531108993 559983611 310991212 711898347 838800669 243105071 206472650 783024075 426479277 32706178 699569100 551078988 325491926 379416357 689382579 924936996 939134399 479154881 328105374 563604824 942259962 584002658 531452242 305667160 906136980 676514317 997629858 145697090 844026741 476146095 502736016 425280332 235152659 419805140 952062607 215271904 617309038 972188451 129740308 923988534 961616275 866380834 514635156 673201467 405652499 996222973 366775144 211736018 708894734 167824258 161755617 800816130 426772217 620881171 24691923 538868121 146955297 111098945 893715119 916732728 715279437 1551549 628475472 964827982 354359052 522009800 393969985 437748103 95341974 965493342 972854986 394842815 799160860 744762648 699466750 61631221 671409061 371773304 303851995 45837099 960409932 689026490 109943117 748926661 261295716 942012624 391617047 759413321 843723900 397671504 586913395 648230213 787827604 277216837 371138651 880397931 539702211 401019633 581995406 76622396 967169833 657464176 17460079 444108670 679055476 851730967 844255209 359720953 90361792 330908543 83671553 655075337 346211181 57050857 883518255 796280946 208823501 899640137 355648422 773964958 248474638 951160386 488074343 333591043 218446263 923239526 301437135 88744717 899744359 821985352 122248244 42150642 607556228 563780564 87076058 987288449 531531606 620659029 219355772 474257055 994011097 53680075 797884231 614424523 443091705 686184296 320977042 736191368 605843078 672876214 327202349 85009652 797718405 194531765 199917432 801443335 748974736 853970725 28916995 769470100 501548259 406191592 728732536 89041990 752309200 739728352 568152595 61160265 812464970 394157108 85975184 536028151 21342524 594003427 467170446 282366516 701026841 511452926 249975409 766831772 539287654 999966833 864274754 84643911 220206673 245450659 737347153 836546262 220605453 600689299 407209541 318963964 339764078 955280724 396056178 450010170 416034196 429987308 854334758 761595726 322320634 363233729 325328376 115927727 831345690 324425288 985460198 374403541 663488811 782297743 287615171 218274272 793341880 248296066 324720524 791977827 332689610 640089319 351434695 154379801 306288899 20848 602838212 128430874 269680715 544215013 272172093 709238361 535785778 778392969 802369929 654038714 250630648 668925411 763151348 547271481 879549384 290135036 54662843 35300305 970936553 53813886 679030097 947883035 908519525 645397011 725906892 507936806 469029501 363282374 648483625 441619912 164569983 739627124 928328230 50723678 531055099 775441394 656436603 636265766 908415039 362078829 499949444 483108044 283978970 383440438 483648633 432699422 985882815 389987954 501956837 10103533 768758145 134979 760649184 317408375 522738107 955957166 207144654 806075404 225236928 173513782 757698082 177711447 72406252 509675784 465279018 625167064 703961115 957623082 521183519 910970796 873904667 451970572 890341747 820213000 986406964 710554700 100100953 450163406 915959598 381288518 921286548 239783395 614376974 485537376 897881274 610605889 306418114 994788860 960328742 838543564 925357132 34126244 740096312 865756019 726313784 757640960 648707604 178653332 104920723 498362909 356750947 147171971 889165206 241768666 323885849 257232798 538152467 441986450 260205975 242155742 769342150 691602319 738691475 969823580 417734488 284804281 520125138 389926740 61262477 864852071 234669830 946045980 988770770 447398688 640674010 34752687 108402337 91032536 341011376 716987557 578847721 181241364 638707507 109558046 418376237 68433964 575431646 191760301 248899831 113227895 786113772 305399237 836478031 550204518 466139583 65207790 266291646 703168495 171163696 951087043 407519759 533875198 890226988 425639205 268047016 140826066 315398490 966726890 95686743 464504909 103384819 899899882 10236158 349881784 775942509 418630351 271250569 9576295 797825605 599624073 48285539 790269037 165622158 256828411 703946785 453840053 876720997 670680341 716512222 955262424 85824451 505772048 159794445 127408200 221538247 372021441 462738360 454002646 378076248 935795076 373207833 707051116 975235877 174703602 563107230 83833379 714885261 862110082 52219102 161127687 451984830 240389750 392348925 405454916 704708856 150031725 211974464 220485580 252905526 15715726 469495082 64106136 802319065 908492290 54478090 660823890 958569175 760305303 4239221 397297031 476564893 408495031 633705594 650570731 684632036 196216680 963119454 421227459 300297009 142953865 666028584 232812412 542685904 396371465 384616745 51401483 537278047 487349889 770673248 575406243 928574220 235054871 368280935 942015171 532530293 508053763 183028992 633723547 897554839 203196607 450693411 947495016 841541584 594981923 641687039 114563240 713214213 358356210 693294090 903441355 87718588 442998712 847503549 946027451 935016042 90856065 254661116 375027202 990970987 15708748 671067452 522014240 923338832 867821672 33983949 317439753 552520093 209837605 930430853 163438274 669733692 465398285 484188457 425139267 579195998 570246398 740088046 363738103 444167265 846873569 397044847 513855918 938585045 624073900 564098654 292841178 990440127 115485252 710307974 325892084 199861945 395753185 323916919 328225510 956704754 110093749 450267373 623980722 342295738 723821599 280102537 27789165 713672171 961554893 138773323 468897204 534434044 761193161 228614256 750428925 259211901 664209430 625302485 670497920 130817597 165639379 831235252 950189463 917997799 75412767 391201962 750079085 962726729 747000078 965653131 686794907 628055554 677780670 79710427 907842977 423432862 712538170 946853023 661337819 630391191 584377588 482140723 999112847 626611794 878035620 164411689 916053565 791366815 188516331 8664158 771972614 536755486 920079196 993929141 375960197 213231687 205900290 180829566 187826248 419799932 386849861 555296884 992842295 303254561 399131585 879494779 745565628 506489380 779072332 459013674 364152966 628910689 272977788 404020427 402897786 250421415 593362961 588179456 189329293 688344943 100819071 98521713 820568241 989214245 745521664 338976342 605013902 80495065 304839614 541969190 250633698 212442873 485072235 90492022 128104693 93230847 950855953 266575354 125535763 545221026 40060924 577829488 653891316 650468555 461678961 441919280 746164052 774221132 576256842 636571002 775448856 53403426 137011323 849126062 372787097 978473423 695877188 355820323 658301653 200019004 816340966 329884419 674196814 98910553 169447261 799471599 601541136 631166252 516224558 185320943 737734524 907710796 581553670 485429989 371167987 540175614 485567577 426118878 483145974 647837437 997494403 339407093 91818355 515053131 341703473 328788120 210960303 397013245 980377662 114469532 105109552 738588272 941555849 404075544 73822261 9148821 799521895 595163949 420408460 331751947 582086712 441748025 539594453 27402687 324517674 935097112 31357751 24030717 493590629 702609509 39485554 320845276 454682103 741246462 274636115 482685312 418860230 114044893 243839697 718074515 787501497 585279756 734757466 647697301 121841061 751042381 86109939 144705063 211288994 168994850 612821256 722846519 164924314 671489093 575215505 931797106 915432527 440615214 996694580 412131993 649811359 896359227 281373243 263962159 517082493 729031667 645366184 618429681 839148919 363077770 790681695 688107446 337807499 349874048 741158990 475917347 183864347 174025199 172976955 277468543 64940769 445772875 656737476 809948383 512545246 302661682 712106683 58858307 795069235 58629396 417133353 371896909 461123000 618839556 570683874 748284930 514815410 492685736 58975328 321763457 306033297 69934518 858403227 466542233 370140505 421447587 979159799 211333241 733568489 314931173 607068848 237947042 694238601 710810252 492004775 511505727 65158187 502218630 944052011 759585830 464347133 709392660 25756938 289609245 656802047 67552652 58773692 653664641 144808612 868220439 945102346 263800736 653838445 387188626 659985534 26230499 533568902 333410178 224521603 543932641 34703947 658845305 301322157 132305726 755908723 585588986 433785330 442714555 868568368 36303840 445395791 702330919 251780392 846294114 361511376 397323142 805917078 374562608 641603625 505640185 453834849 732155901 453496730 388758254 767649971 104294564 271095943 180158846 7956442 226546581 189297175 217632217 438182145 26917451 332525489 184659583 914847045 606077173 95014535 382420305 709330941 675126163 416655210 859629190 824354183 563648595 864547394 888030331 972620404 863535727 155632412 242714257 463814796 203472172 879344015 278224976 85791078 827172172 80868817 373114221 185739126 159884734 995914594 498894309 36776151 717064757 426146530 689001427 790877820 992746400 728956326 178190685 840434788 849395189 553855867 597719514 836322186 37707728 911028556 456534570 486592023 462207651 494156002 508022418 728575780 580931504 762316100 550930573 322994443 666947689 37182215 544518613 307451894 723889051 299248543 730253368 412968805 377360970 839962211 53272737 104165972 450870344 908096163 429551225 765125510 866082641 202119781 570116473 424367246 127189255 733447697 702120723 469862540 743713256 942185063 287855126 412506729 470869646 508215739 674235447 533157357 929973389 588224966 786299881 493962968 332585812 440269716 99454993 146060857 34580179 623100806 563322655 207627694 23268619 662594157 722362300 144817996 64570942 695617575 424691205 923475856 401203076 678555258 543157426 823291672 865486923 907348415 129283110 837441495 700829680 809765769 717406463 129648875 509478821 276922769 423673981 80819103 755678442 25501990 693492167 623915551 112301636 706577891 820306419 177813842 239572343 898393428 167071852 950729660 997378520 8168432 993505221 508065297 325225447 470945652 877520308 131847746 420034494 186615883 26176669 803835034 578638332 904499604 816185947 794253127 36274280 236065583 988073261 811526585 296074100 930565815 581378784 404056505 72840190 532557148 18958373 634797097 809573757 299396266 357138479 817284600 873116284 751616247 132841025 483586193 196408837 388680630 894237635 872823587 28770526 637711962 757579102 111761834 976896755 483370071 48154440 453207371 669268047 75520257 398681131 952869476 991795114 14888624 700362606 957150973 880211623 376795668 468586801 447606002 701300432 915715554 665031099 267339646 483013473 467287846 518177514 604531638 537630005 140524308 920524262 610983775 928411149 533746449 889827400 788930127 711892688 259737843 220003132 605634346 9518174 436926384 525334759 995329956 529382088 982618535 131601732 670686073 621286523 236931261 730496373 729960669 311335356 639229540 617058108 922498743 790440158 150699031 752989970 964787643 900187724 782097071 930413240 191698312 394907105 467120632 449476433 84225539 113741527 640982219 910312426 295158867 10720664 405176517 940138607 449617994 599448918 255511199 310479178 545243695 46791087 538997939 477214821 473563240 621183418 518957298 77655663 159848431 319074782 625260830 339271295 311570991 446119057 234340880 62547076 172213943 288978148 789511271 421441521 994568776 110600612 232681922 549309472 296193532 530661055 370545687 838282481 863258601 519959248 684451762 553376558 327032259 562275333 887596889 234797163 893896983 916452844 343565022 913404333 224267511 551898978 426785876 157647873 381830634 732972061 134609275 778319947 565397983 751488980 167432972 835346152 888378037 261921730 367610290 964419543 392925948 240214895 372087066 423067703 360322957 997702734 528010605 397379417 177333669 985809940 580802302 479340 319473164 656271368 987159299 555364390 211179 779682807 810655919 778860278 92366704 739164403 614612131 220543201 680248691 26587546 909292265 598974243 674621355 41691818 145283546 415047013 818360368 940280268 953732225 556417561 341168168 447168619 340868190 516419884 812782716 374597835 808805396 994087640 657275139 920950549 315071914 659290688 406782176 482843361 840986427 369062532 727201173 745769240 496452224 49572073 398333741 527297816 267909882 881584723 218998327 470017831 718988379 767449194 796193887 524547371 193162062 987572389 682725880 434785702 336330586 127585748 191886088 443311266 217651899 248246434 169604981 671517484 404940547 692913228 914779297 538064794 459721178 599331770 527297056 224548738 773051487 523111580 825432597 879612380 831663599 351960176 449394718 179742322 737524488 241361401 381069261 661499428 662090180 421119400 576690891 383447473 599924102 974062911 900056832 933122832 161447123 214914462 542450097 835799095 69302801 770240240 508381737 758475356 102322817 859495639 433788599 857971560 966288362 627843476 831187103 205960621 360141773 777898665 334436340 288832276 451014702 99537003 441092536 276063961 715062826 804364693 862923272 406542708 935369091 379660706 262537562 210229664 610504924 324534234 435840442 450087780 459487625 49768576 879011821 357961406 637439465 714952392 406498605 467652953 671279760 694267981 774937976 412067262 886425768 330907804 594926965 532498854 534782565 826524443 679565018 97618856 193911834 326338083 190971626 117144682 174976605 105106983 355187550 806772979 195526303 763321796 855419370 668305366 190569790 999605454 988677075 816800361 905068350 607902544 31663111 695399981 564139569 573563704 758854295 153558462 658631889 989130224 378791601 210334742 123820543 999493546 884455021 695617743 140751971 252713624 8439866 706987761 137342349 852152065 677488370 152979252 919291950 528267729 634400090 745858465 445021120 261149196 9667097 501857706 63211475 797226181 715958702 626234920 625779272 274346487 221868325 201932625 591528279 913353071 250264189 558737527 826328212 582764659 793659154 343345254 149666567 99826327 108606383 487078724 609831157 727266322 459757916 942760404 259325654 760144554 176695771 967527185 170080845 592223152 920803949 824366202 573893934 757651540 722044725 731917625 993229801 132760127 724869042 490575630 649831991 511886108 553666054 993484225 237290054 358291154 149424850 855476891 589677462 862881158 767893895 753903091 334549604 475594294 801049429 951458067 264980239 776128512 426606547 839532156 461003978 749267266 350373250 695378525 48955678 623628444 498805142 506216125 35260359 785255457 710631189 926011556 225832410 922741222 184722111 354199752 278989447 25797480 717848041 63582047 116400724 124883804 555216935 864233112 22696709 615072733 817350967 949043320 635985573 24279673 802443561 802637543 253956744 169379209 84191648 339451821 812693013 678364616 515131102 117656682 234862125 133791571 689722313 523898718 959446137 71256057 227823053 91630416 240648313 595587105 181266922 569069244 519299726 417143013 366925544 506588173 10477352 971259863 9954959 907518317 813075363 545347292 171628472 257213329 256058492 57556124 783037019 931810723 98530242 212901553 697512285 169873608 256302841 262045567 115248960 991948525 281738586 512224932 271998474 509692668 261632207 981815440 279905453 255457226 844750452 433241511 206519739 101794982 323919511 159310485 324982314 802651747 682243562 725220712 101469098 583126550 970191577 100141421 157249738 343825925 155262258 261369620 197061115 489129993 145474091 891545755 688785337 580466009 943661879 651885217 906024405 935606790 824526333 818979537 893136369 846414012 992006751 34121408 301641895 229025487 381185819 523951573 221313258 566194157 863191455 981268532 78286801 146259742 766414520 685634467 505768657 517074562 989309110 117203869 531396990 984957181 454198334 728635444 64963761 74496615 813207063 134762974 697021314 276207391 308953033 146974779 518860475 507547649 282335750 669205233 133502813 480144531 735234387 591327713 798926388 82351599 131453669 545110698 872570560 618105772 181147249 303698212 80477846 875995037 915683764 334617023 375254858 424346907 41255918 897550078 775047212 794548589 874199079 367880802 912312824 950078063 621292970 68727343 46595934 370592529 574864488 967586827 461452447 576243495 985710128 189537254 912119963 69370229 380465938 717785008 611217861 22330380 309932403 876796473 484829789 822168381 62400988 422068525 358978301 168911158 643279587 619341997 240133865 352336110 191569690 302759646 736991743 975271531 859865211 870015056 460598246 145165164 910123961 512594799 99337698 199454561 544447177 825989451 999633976 983972489 106273971 82706602 305548648 276766032 550832783 710965137 873536947 610220691 148999583 924770684 740899793 432574555 10519992 807382233 656766018 712305774 892886732 957532092 200714492 196009060 484175184 337398362 619703548 787090432 763665482 783727088 984800329 9489561 766321380 275720074 299859497 284478749 60978953 113093453 848262970 731107372 745265179 92624820 647087293 379614109 396251726 610738298 64963942 927264379 795917298 886967893 317711598 582058657 935506729 92297976 627576422 848094084 22224394 717687 93386361 936606645 266963797 141727236 327541220 874401081 718788337 728678727 445952860 634698067 825692691 652024946 478719084 24424711 726468431 630487424 177040204 435749618 598162442 368192563 270525530 507848294 222113543 180571386 996266888 797683012 21782776 703074323 38656316 6130565 470100708 534292604 314564434 839078127 723453057 260070039 62905725 915506786 791701585 224198246 331396794 432897323 70319000 330075248 551498782 428089734 386733711 902014805 111360961 800482147 653082501 327000227 759071407 484605870 611751266 682220655 398080801 35399333 554654566 147351770 372419133 820606140 766498605 703564324 147828636 682052522 591709114 355538523 892530274 487392486 293593712 946267325 151385135 817759557 317569902 433858201 306979350 92371515 60585897 194829069 842851895 33357977 723923805 480753322 100698461 166995905 648367118 309401686 108185957 656551359 341059051 129591351 305561297 774431323 814787260 533277141 550014083 137249686 101980748 406295643 858189286 445807712 904577252 997920457 87394344 784865016 302371554 612981657 332015464 192409853 941389575 928230653 571329961 273864419 596068957 182107546 421481651 486862323 815558443 828722634 710734264 429192327 601757081 517915252 347782217 700737805 816668138 433555470 980554372 300521364 345164874 887504039 550473553 301982772 584215067 893305515 591474142 120143820 733420329 969066843 939215535 8876255 119018616 204336961 40448518 829207161 527607336 27800639 524966658 92129232 477257449 262522694 112672323 274000923 909447179 117935000 585508688 315095573 14638178 296885219 84254365 818205376 106374812 974011210 375439088 869157040 601488976 282934176 758385768 592800060 152773887 581583633 628884745 458688875 206748068 181691140 907448917 902996319 374001205 730638542 650517567 733349847 210433822 153825578 383196563 14518549 953724409 685358542 27298294 945382533 194934876 227292688 528059687 306725208 890150901 57655737 266965469 539961846 993146178 30995322 174725289 736400376 972978857 876924268 558941724 780216020 587817315 471165302 117758451 444964427 293823873 819748450 765250985 834045207 926319691 781099944 554326463 729356156 835680510 474923538 93510120 450230784 88050093 829004165 485068082 606899026 921411858 452826192 110030760 128087389 468375784 49875535 45952190 52580448 476613008 848865933 607561526 556053040 734234401 392994765 264052540 406591665 953191339 48025017 245498937 501027442 654016255 866325504 615420990 132827661 655617350 433308588 864361435 36936201 819973870 228296423 104262003 647040605 431134879 671025203 365494905 512569363 410965178 834363492 651026226 959956325 34010018 185654668 445025246 648333978 659059757 949764555 712172764 673924112 300453855 950494085 129137579 181657577 523715809 225769736 650342278 618685100 649544451 703074736 932332489 351653212 598369051 114814909 754831671 855483959 729966120 400384046 444443534 264986869 745469217 198228362 592763281 155782498 763045830 986521979 128766584 188181804 865234376 480248364 759783102 22010155 140246551 356572603 605191168 524888116 473370262 454468614 243474108 21671041 36429512 928179566 620996610 487833561 527929356 73236261 736065607 609882290 47592225 754652295 412289566 198035156 941989338 617431837 665007103 126972926 920467361 797521095 589188032 997682068 305767157 794626451 183823279 456193268 410742846 627059195 835576285 759638791 408205808 343686815 840735136 910436850 122379212 575003957 858702829 332047396 345568194 154738170 857716385 707544219 529654728 394682682 117396567 209451371 926135790 995858975 26618508 95418324 80129953 553408342 326507850 327047240 479882194 39201638 219517703 788813514 235604348 213414582 19910742 152558860 551495350 388860570 255659127 966014434 825760870 16274025 261201165 243692119 501200063 919032621 213165472 331201942 294766081 424489112 710439193 837615711 835280550 433963180 892712385 393838090 475282194 756169635 798120497 771087350 542484661 373087420 101822445 184283821 216139273 75227310 446436735 399657544 252682686 643790095 628286186 351161831 725548919 859657568 181728893 886872961 823233807 331409638 14009103 407780188 439245677 463140420 420122269 218294024 233344702 880245048 239567423 551721430 97443713 395929706 826982238 122043740 630931507 725471721 235246992 555364345 222169681 306236784 21170050 629882379 624465698 416143503 147349046 46889493 564156048 414146361 155586084 325906959 895840515 317780071 19984808 810851374 498055837 491663650 516843542 281653855 398121988 215021270 886617538 331611630 746206391 937472821 818231632 114612297 73694705 239150550 190436495 725293335 942475788 469417853 708760377 372842385 48525200 281348124 63293907 508560993 708803898 944742052 219480838 733243799 951431930 182027416 949687420 230810979 463187669 312897594 200576072 647920525 306948011 775208749 327528147 399205170 234103706 243174231 97665813 395585303 54166482 541812743 23977733 643371637 58506567 240981536 826326343 769409312 544572677 589757750 606833430 265755799 10539534 27533141 491707194 24636189 55488684 849713355 74698192 566894607 419265757 855497467 412018540 311853163 578975882 663841620 584654131 212341694 189689906 240801253 811239319 409321425 25379907 471549858 469646138 409542604 585021829 442631319 494102743 844211720 94925776 942434954 869796021 851021726 863475517 186718742 888111567 102412734 737531568 83963023 367510794 744952900 81576057 92644608 725250782 266648661 506026717 585390394 631797982 295396922 82796859 129805822 304620339 834156804 540017072 465441932 562111597 945487507 448729610 83076038 791487569 331430570 89246368 593613580 357636275 849076108 111732945 665802435 177793627 752033950 678789610 34246810 341661800 611695752 300177937 939558214 847071065 971199295 480752357 596774855 767393695 391712542 566001213 55468230 898535806 247239845 85305199 790375507 954337002 11944940 140102695 345468491 974817650 522621650 617484520 989820796 670148933 381010618 45096923 35203952 733274254 778467996 559192662 549953616 684895465 274006140 201407425 485437218 357684144 651932298 225603802 295193515 73240500 928751752 982454083 869102558 264880838 777512715 702813145 143722928 631828377 432719802 412035288 923367857 971225231 854748129 818910706 882056458 128575299 914266832 224326421 693407244 338419014 58578182 894040901 712309804 184434572 575334846 384091186 193695585 532226018 867333389 471840713 649866047 505242855 535539881 458876948 940842655 572819389 770797730 630222484 50257232 24409273 590171345 225426668 274386707 406737569 357327227 187345640 518830750 292503193 891464288 848728412 859672308 608090339 628817881 280298373 125174949 886649729 525973934 772663420 588852787 268498277 95835722 677253228 636802298 456619781 991035658 212127133 807320536 522294774 581114368 390579845 575927293 670477658 119455614 622156100 713935837 185123367 425494233 726000049 364737235 112586891 557751221 885237749 993287910 324405929 643334778 129324256 19514630 949493507 774541333 839984264 627168561 427844485 261799919 454622310 552742621 716081081 872213387 691103640 11894008 288682110 605586783 726479348 734770781 29704970 744351508 872375283 789939688 843682104 338288263 181166832 857889018 813585469 130816291 909957902 35713454 372080959 343719184 937360580 214615174 429718763 95429744 93835231 136443422 369049158 165234127 426114697 597011631 782277631 717406737 373429765 359957047 266460807 59820527 211424578 318679576 542866349 215495200 229917412 922665149 164115951 946508475 182950555 320983514 898715848 798180725 613123637 935802750 944919938 387763122 435828477 372148720 872579554 23568765 884516921 491375650 424398635 669514241 264092523 378240285 268821648 319109226 357904073 480542302 535853106 438586569 658435709 381326493 680863304 828210038 627811191 586382842 273551135 490439894 148953000 305704100 7129848 541860214 133745181 447910663 936106635 414198700 99016258 296481780 956968615 910185116 587682047 714696245 289755423 202086380 259593968 481260510 289931444 636563008 206771761 413199920 29499542 590342359 894841537 143054904 135798840 719202990 159320390 219743350 72555288 794461473 140785567 781297491 148515176 191849578 693533396 278629701 425295269 374346829 924767298 516770478 740496628 338734975 948040698 485474593 410732623 47865297 781058527 61035965 405874214 575742112 453292774 925941096 763263318 782958164 488334544 151985260 158734266 328795542 871259034 188417845 414766517 598428988 733213108 428003788 178741128 691963351 689254717 964524015 27390943 340022329 104306380 66190898 5237181 8498925 410218989 123516031 841785309 654096476 512333453 821510485 427829512 703595507 183235359 536656547 303142140 669169554 888216175 570851768 582581166 850231436 497646554 779020069 712634943 816692036 1190781 563228680 477813998 528711703 153308105 364172847 758363252 309647037 485109749 52256927 964714644 465713928 62009982 113838182 368008130 975751719 567015974 800049862 703001457 784175966 243238686 540285225 794317025 439253112 69369724 604448066 226183065 78334781 268880842 392207788 398372034 321121823 19413224 106560174 380055435 35425200 925446103 142700317 857324290 668843488 291608352 284441030 627040437 829924103 615072215 484843856 93784966 796246983 301935460 794788864 694333884 942467221 219048804 504133441 380758679 814823031 128868794 442280493 335408026 301914798 21885982 334292799 445619694 192495557 838075258 786489833 571298165 432464202 799837326 845785147 420884913 640571033 700491821 701309539 485706463 745913594 156778669 497254815 173869103 590339564 260864502 228728222 456671295 825226511 351212381 559853187 778870325 612890416 302014332 64716646 625962117 475592857 568949177 662566823 113064725 712919877 157253370 640280600 334641123 791796767 209842981 377256350 910312095 200516620 297872066 516004714 127293856 561812323 277118770 647573798 550539082 147983722 905709076 298525428 385704441 128950469 15026837 917896744 886879309 743672972 108676441 750477148 7126916 418678640 613605870 772715806 950207564 605759527 9446932 158895670 463725432 894323490 591609548 77786964 539345005 583767813 615882364 931693870 20178468 198696669 305149705 724793543 399174708 773571354 581467317 506986632 501618551 655938420 895171455 416438629 318360748 590746728 820400955 658027725 427089244 731489589 554035981 857716565 427246021 422569190 478244929 789826558 385232962 828946451 477335362 550642898 36939638 569624112 809174777 485791289 175669190 827816956 509811725 772394670 163083793 381517994 832117210 960933437 814380166 784720117 228429018 241001182 611804269 461418834 433085987 53219852 194687202 90197487 32882004 847224211 517941242 517087209 473812669 237790206 547442905 615334342 172454528 413015477 784379218 451481464 76562180 952545264 45802751 518551466 539023620 73510347 587990530 275100073 507525026 370323840 833049805 639787566 207636518 219023957 528354873 713855857 550260891 582585120 19964829 552367843 616826448 475798492 546459235 819674645 533186702 377938678 326873322 211101754 747478622 964552975 799912264 641893919 146124969 787146165 950516086 20771167 102602508 432337654 692521017 891972518 497131580 263986806 305914910 9197544 385223185 967310572 912609628 624731971 366705125 250561707 695998580 391312992 289181955 935645382 747614459 74994585 774734496 317499864 688217298 67427376 423810960 945107043 769488662 696640770 34484702 88487146 784999789 55803103 798019435 527383685 966227803 300747056 788270576 370407533 853767877 500517102 692259386 561236858 528953719 635260150 383196995 870781617 608588628 284957049 493432584 140313924 607289460 779734993 222581213 689558858 501722875 109181321 60031969 234190621 838473300 35850840 864308193 20438978 253921914 28590281 418169781 13630255 637311536 344925611 745162462 97316117 517003666 120966636 474513482 741890672 990677062 703209371 386144757 446048807 327451227 647938812 450695668 314665306 547492453 226259639 792206587 177755361 357746163 397918143 464728698 90339787 779811898 900447708 290004781 277557536 798995292 144895721 946128044 56221898 95475888 380431958 519805827 769079093 96343107 222621348 589574505 509363634 865778179 926556429 526522114 197425064 935397412 775435261 700633615 268569973 615802621 525893446 16970182 703269199 766296594 714048273 515649476 984631835 510425534 697961310 621421552 256949946 28911786 820769978 5105107 285914118 565151793 15748754 887219108 188071369 344477702 616880374 787594408 530429597 545739470 360051240 894332296 354474563 724178467 81215364 732368240 663669252 96859598 15391922 379100895 300925246 187727276 25293226 690300019 661016258 188549124 177178178 266843266 128036331 950803763 919592825 127630338 45944089 444329377 132084353 959596108 409897876 850993140 314455321 497602698 292234470 3218843 744048209 590464105 725575825 616373505 63130473 9887280 343547131 736279820 853909433 973807784 236941004 236451576 616362219 558382223 170627593 125561247 925795958 156756936 422500467 19509118 748291066 819005314 359548800 426327180 346336272 633446277 545431670 188718012 578052374 537910286 545513407 390215300 512205415 697593550 162085506 573515869 439522873 672012666 322453427 554643568 512358763 88027418 230143563 159652949 487147159 182329333 638879047 718378801 15363571 244828466 619351181 72935681 383621630 204520900 460200323 430668452 397510455 577067615 256715787 689705616 973598861 817474944 969225755 551267123 713435077 794036203 509055875 343760403 784653788 438456905 621223434 978583984 685907632 518128627 61642699 455219739 305988856 101382933 784818280 559681917 780181107 61880198 484532168 533014661 652520098 1031261 686613072 459227714 492436044 131240255 448549244 128868829 956830372 417576029 808374678 720398676 212165858 167308488 362694188 548685292 911745724 351947622 637820140 204988727 630049511 278962384 317064510 487769537 640399259 106462680 975970172 630030412 970945393 860797030 761445206 558404685 398613794 830510175 672432664 477192954 994653554 743840968 315538504 394519727 355457206 437962446 126116661 792304837 835928503 614301788 463590671 247646336 33175756 206518054 171112673 267047214 874849325 321885755 938296560 850643961 611580259 211157603 328448810 546043131 537481182 997568682 785215815 381079988 900268560 946464856 62724348 19097361 158212543 31239175 915819438 345722666 595587624 488289031 662879285 281601019 235656387 455441360 577511298 282214423 111696429 915184257 615777536 758589112 239942437 539852346 246992870 351721256 559093722 80261825 605573590 728280634 646858857 738995970 584383513 472914116 667991917 1032882 291454455 314914393 855511880 495940466 755776119 17649582 310720730 448716048 911151593 831984566 96889159 651657904 57761009 940952141 152543313 104009830 351228062 332873383 335785259 470309733 142752628 97341205 182426172 245104922 294110895 577487983 753825745 840363901 329992719 98803379 675892447 7149702 290692354 676725820 103180309 963272194 93495829 798400067 145736964 329278623 1403839 579228540 169104615 35602640 217800260 448384669 534056192 599042897 672450370 184685194 36736458 189859380 869649112 290592288 77684819 785235471 38907818 983422975 86907894 597196893 625822990 921976125 617436571 953172763 951796615 836394157 758788664 540696231 9959960 708950258 377670245 884311302 254941587 472069159 292025434 401136821 485923615 686624997 769258997 146371645 258501371 453968780 862573731 401065596 495023779 966289958 661449221 710244132 126198069 339693285 114479861 578857607 298566623 411690400 15922836 977187317 41886313 209826556 998028347 341460133 453705751 54464347 790305847 76965881 663110302 497519594 273495052 866621283 677881684 608016093 936767988 959556109 410845153 421255792 616975266 129353027 868963396 397595060 851400285 630670577 837279716 337225859 362720731 228635303 196260190 865613400 191208026 640097004 151883065 502010111 274389555 759672946 927165882 189257385 123695885 895952284 623412415 480622431 501195133 754873347 181654086 601260577 165542670 134541059 538763947 712057746 709376221 455590540 237948998 924754486 788055843 768129614 750019999 523130297 390950423 560683288 769040502 956650740 411995528 221835560 552497340 22649718 425394461 446812018 555039602 576240076 571495860 691726041 634431523 5253417 38968326 356997396 50300060 930736937 819013295 683056693 402187058 167769710 155667597 493805603 911011120 985014024 293494426 11354438 791399990 997406916 163089468 34027023 851694753 649554067 285069290 608064670 285916337 75484185 975041249 889670902 616883432 559083188 177192800 174374673 129599410 993050306 115778704 645303114 774132690 148031448 887542639 218963317 7114357 578251954 921809481 467171658 88002942 948894163 979601901 32364717 656068434 77918826 401025608 890432774 380538065 248845930 802373423 227796262 138560383 400376704 321737181 334766831 893562302 636099608 655862441 496514938 949087941 646624045 873017844 722496611 139736943 994190970 375540651 881830529 366577627 172733189 91296106 580702915 934221110 45413143 610897788 707662239 388150805 76216652 606948190 672132917 119707447 125028593 839027285 180812602 282024890 938249233 615871601 262074079 296219121 855087654 557703529 693218016 77167299 239186737 911934371 74283507 915375833 898776570 431500182 658613487 259983373 201579031 869957981 105476175 840298745 82989668 916402887 382107903 935085235 524647274 603195176 896286742 753148334 570314118 136011182 169083668 398352972 444107191 365824680 476217921 337296279 397233739 691129704 298979805 952233085 544638904 799021729 454322793 711304451 140410159 172279185 87926719 394806995 463782031 98555934 61207112 384587080 918127485 553600492 994543301 72883891 245040100 500707939 158413143 865248064 721147058 309530444 750428299 446238304 711806158 54084213 896444670 403035289 957240601 273739352 154924131 417629531 959173175 956061836 107010975 625986722 291367594 443958540 285609250 363301631 799006443 349682452 211935502 490429890 243996102 531370072 84195748 103849689 189569824 442460769 690748179 415830064 325347044 37457513 986869732 430302890 63222350 459723671 984622818 847455088 253064412 479107350 158471481 287291661 201775564 313247731 800804892 242234237 662119498 792878600 86153822 116566840 957154298 272540654 148557381 297326079 433650566 306069750 678423705 558110050 761942871 20905830 335976466 380014705 879495722 251273420 931858012 191227844 543463551 345202632 456071934 926084486 844067779 218991386 323788042 932297081 99733724 374879326 794014311 983598643 913757655 505262745 124573413 141758771 697642397 913160741 656579399 789857046 32436090 862765527 403720901 164235462 394007437 568773289 748089775 209027401 421656474 658095849 954286648 209823390 491161114 261611587 927581718 9093361 376183497 506589343 977514394 921499212 232631535 187428881 400487674 460155017 795845562 992978210 777836800 765072908 154810444 206476752 721376734 849795516 877886924 782125106 268040261 515386332 369459589 228770611 311703339 395434035 655135996 473928654 215144716 612126803 831290703 803155203 56027999 245020735 947110983 910515330 573720115 576089427 497749162 492455514 531784751 378801690 123226984 211461796 203645096 562283280 141969726 872649098 823788333 223909269 557457610 961768229 352173691 918686794 713472277 370291283 709766322 795392772 959764437 687103567 194246547 371855969 186731397 724781753 551519352 737329180 617864584 907097554 622342937 443831122 956774002 322187899 906324705 692107872 922546252 838330088 709080868 467206593 594908648 702972686 720917564 235317532 382484451 713607479 189289153 618462873 449828299 672985166 982183941 50256360 830530147 69782605 620472647 928726616 461267953 422301182 387891865 773822510 137896284 527362848 699370776 527856808 754282893 916425375 306362777 802081931 489727753 167407039 963232350 102271869 113650064 756667626 869635647 654209242 50365097 532525311 643599185 453528069 405001192 177542183 277775709 840878804 725385150 753177982 495521518 550598830 647698895 666675428 966461309 346797194 344342464 946198340 556131128 803689472 90936939 268157937 606680864 228262066 650742662 408363436 517360846 608732164 572571167 84573575 922727078 548978448 919785606 128879507 632730552 614319823 385526706 971275616 701298966 215994722 199136379 141290692 496255717 765840581 505639015 923833023 254077894 683979818 993469801 282479799 65692481 279221752 90139754 37462326 975873823 783705017 56093745 774903121 251331162 272007445 618847334 471355339 234785299 667397273 826073485 616310940 944772846 62374351 49316322 532541067 253603532 594997323 552168303 236074955 849333556 257425136 585190511 831920860 329310685 510431225 920913917 675646372 640758287 333673762 362033761 661106473 28764991 743862521 762721950 424139890 408749001 350010582 34023575 973615094 98255203 424962620 750498297 155102567 544694074 291351171 730009703 439774082 390596979 971370684 142874732 519586785 37013951 145920556 807180755 985513580 668191843 44869583 963624067 570285155 504434723 311994209 794629046 997540648 874965637 408202599 689543116 269009465 250605782 432765407 767969626 534506257 858793206 135305215 967468766 509563649 548013921 924141484 264951311 839242647 406606259 48483280 46888688 95345426 74054171 696866854 319240744 903412548 147805937 846725537 198627683 312487698 667049241 257034660 11392876 186063105 624506305 391812141 715512746 467920770 249645266 603542547 589558515 236592622 844333436 628768112 554600895 654676215 719827435 298504350 243606384 561624505 295769822 135923141 44442245 127543671 289338899 386234581 475133038 258901601 366535381 701457023 414503477 34616861 818106725 109402128 967902953 697517823 955752527 325399046 522501587 650295929 514405412 230626274 765212111 989307842 927297863 651309183 438435464 485186775 831788163 729425187 204831687 365255751 849094955 27341078 63372848 616300411 172755360 732300733 753871756 370039284 670793847 323971613 707044776 222141623 181964716 753392254 403175860 84052165 330374852 59317405 707776187 790305846 651017101 366721103 76456991 608612597 683485402 899320804 921237399 233475531 588713605 456450870 624981203 380798766 700894610 249697691 303600874 876816786 699616921 146626000 437429253 361752181 653203246 194891540 758245073 578406422 822108798 729924346 19261305 900312674 877449525 181480488 340696211 625753715 459712165 491025096 874983637 38058614 555916084 463562885 665348564 955579476 191709513 352966535 651746629 762054215 529836565 824108223 231687686 136042291 393538738 462378574 69011542 428292328 923578223 817581251 529052958 69582257 636546057 543124429 222459996 678785595 840620980 837573520 724360935 300786127 645279250 178467634 517382644 880152001 141418826 169112969 922970426 274807986 63308122 498057726 627193499 337252696 295245742 21740368 761175495 995216274 408848955 333405022 585881974 7900190 86599568 317584704 624346005 983508256 228163878 737202934 994202274 153151836 491300336 825279063 196924385 496636098 795505005 824812158 622837559 868120302 596150873 334503660 860962472 180048089 613295051 790255909 396232045 26487812 249310667 579297233 910372204 865938943 229143347 841859721 312402170 117561187 559384916 258828025 519236569 397265876 543641020 730520858 9984456 136069303 574485003 571761638 919797025 432421658 662621262 987383861 444412038 832426274 275824271 608966019 671752308 1648438 572236474 398375764 235162081 317232098 878385783 366054480 95314225 29539320 523953655 138496020 101653582 594830864 112398480 244173850 956503405 666903678 707333249 219565892 611833608 931117099 972670008 511113984 913302112 147245267 709398768 213267275 983694001 964089831 846628094 257722843 323839386 148636216 483747241 886672453 830757702 391074610 401457395 970303777 386262110 428309438 344840360 559050454 815705344 714731140 775854233 42762261 920803902 394506837 147168956 255726907 202397112 207718693 227658959 320114623 864941851 710424106 721759771 356585176 595759719 336978785 537494543 137101961 927970245 559987026 571483504 661447055 106663638 281534649 117190011 39646993 478665936 987333334 415323795 874659435 966981816 460299709 474190390 71819570 553250958 481204387 643841415 827466492 680756226 870119290 127085189 615418103 253736989 354868034 581270803 510279176 423071698 425454014 409693835 89752251 404976304 6760661 85313373 488804941 999860867 141559003 825788037 819981405 679647790 848111238 98489964 333235182 175471762 194444321 686140132 762464332 324950721 136759661 671297542 795546101 925242673 486732889 857010608 851741540 601294772 224613340 729580882 627076976 238683138 525746015 98393393 573100088 946353850 928044572 865441181 467585400 855665491 572053884 78118954 254985837 95930301 711764482 594777448 110137200 951660747 872732433 750448181 235178987 566076409 931491194 654436416 858914448 888466596 6702895 695601661 490337173 447737331 113000234 275526555 549260871 755588743 591119301 677779310 284651007 758287325 401897352 265391684 367573211 156505249 432540645 576512861 768404479 741402105 851870864 93345806 189346618 610985862 760468669 938509240 490838438 340088216 81813264 671852536 245246658 641552611 241124311 9381845 920920410 500567854 390907772 895855012 736933843 607784663 983516618 378321078 300720813 90898428 356339036 986745928 768193299 420151929 90339457 998736079 937996191 179841563 422404219 607051836 537214266 288289022 992148886 426507362 499595660 512604800 743722096 228709277 955651081 165654767 656196714 195722584 140318099 708133505 874135349 973666458 696105172 307663341 268211664 269296647 801138120 556431156 386166685 366888769 2418350 75634724 990317850 831110086 682478153 952038804 672636255 176199978 951413768 493176424 82980945 228056140 162346794 843642934 919441393 657603297 267145764 927116306 373431721 306508507 598021189 758228923 27587011 6296639 124396093 224918476 63934791 222883881 389465718 558890895 294556016 30375338 849970596 507798122 934403889 116219369 633478745 581151624 124345785 276974754 356654546 329236770 782762618 943437725 595039348 883350209 965637278 361511710 465092784 803513448 491829235 939120868 64406453 962258829 298571332 914979110 82655655 847664873 182466175 617814230 492305620 562514429 758208934 894521362 452151679 564924263 771033764 220253265 728683242 776054559 276295923 242721115 357355340 581563744 216678908 452586347 935707230 13075318 253864269 579664797 633125366 686905261 209270341 194208035 590762030 608308149 462381940 883650440 688769163 340703061 237258872 869837948 44231420 117057184 429442627 428101749 25689699 206008461 544381831 274133718 132336348 694568570 635388094 548690487 376008862 831506282 958649487 831837003 864684191 868269063 923931030 718494217 717856893 588707558 414024688 247936249 388646953 314349515 326358470 327689948 282692394 823472881 655526295 499204150 116998358 835580173 125403958 377500191 904472310 576157586 571103999 928340686 185423246 1450176 661640572 473079317 246742837 582079963 567135483 370704891 830384915 622335056 65699882 506831110 519944428 9369806 940996661 198296174 807763640 614549048 458821099 807286341 796978783 796034221 882824363 875031803 413802647 45848897 920125290 230155416 308717784 899589119 737598421 488623854 300000167 550067111 580721981 476793326 923192365 517763614 642589858 920262352 976483371 694486953 830914951 926125764 611416166 693956334 888420635 856320580 500605858 355858356 880532307 656706712 557776163 501279736 73059465 814573693 773366992 419261790 258476166 925684967 720890852 957987540 617848033 133848632 662032683 517937348 838015167 454697700 812133414 671192046 390987613 123925879 162740807 359627964 310411262 332968740 435873072 668592833 506217272 785328098 741646833 591026229 752405094 785358541 35058679 320727480 809785337 923513462 876159814 17799962 694954247 610258535 352375886 889901534 497989977 704807801 837478828 362459137 844805423 971577413 167590286 431956021 371233468 589973576 155673062 910031789 544785837 142143808 761979925 841181321 759730608 245463411 749869830 858161111 83846959 934710284 650955076 21260586 232121416 631359711 678712473 749070295 779896606 459713315 862674714 292751535 351805455 221743973 605511338 763092661 480154275 169259076 759599656 459828 881848095 387844859 296317915 486769882 771916838 450819273 67964170 815046799 688883745 305980799 628718070 667373247 172223868 865941164 964919727 468067217 996746150 793013336 852057663 250733418 195214551 335633956 382798039 241739226 792970107 353580919 273189220 187918243 760807679 60957308 821371827 327031168 292622356 829272133 498859145 21210272 148343397 3491988 208611894 652440193 391190712 254271931 747847090 330521442 480391464 870368512 518449720 346206265 756551716 120706176 36214412 447669578 60862937 559211966 491918634 12856801 287905323 794006580 190372566 936639809 782360533 853539552 631730751 482715128 789861008 452564645 352544742 288617678 79437565 366908237 487481617 643667589 394477020 618067793 292419639 434228272 278342113 186106844 591580137 594647964 961000489 879489947 526861139 519725838 454094796 43413972 562133287 7842453 65665036 412116783 547401400 902862602 459327271 964653687 371622569 928326813 4056107 860280349 231526002 494362185 490635101 480031348 693833049 759365424 586960083 203054480 137985304 880529296 885722061 665480009 718966131 130746497 949719860 269861040 252953640 615031950 658911018 949507314 419882017 610342003 597145141 237729740 841620497 985872510 883188011 104896529 717741319 507483221 441066275 101737947 104856165 518985204 386104840 723922991 642490273 929296170 569113850 167803089 514671871 613320865 608283393 4782372 899495215 940028171 184702089 91804309 181678731 875613949 912025570 549998780 828657242 845479740 825359638 263871763 82461347 698638675 689354193 989715010 238919998 76776752 798354543 158953990 333047427 122360819 96818952 192089726 505491848 515122199 704788694 961002992 174565809 815271691 832953191 823731505 75975288 290699591 412800940 366756372 168834325 17557565 20459887 389286943 144024156 698146590 637513056 929317233 278262582 148538723 833516388 613962769 897687363 575130971 248643520 784952250 472745851 981262626 776840393 581441043 465881208 143122557 737761140 162766140 556837655 583389045 965568226 658045300 761690328 590599834 382124705 767839338 173262752 27614440 567912491 287424274 535225838 776151123 792240398 83002551 934737331 163136958 982867647 114327546 113137119 765474978 975671322 384858362 286674520 83245390 148340297 653487080 502269201 336885314 615004759 131398801 107235787 228683021 950247585 666307626 644931464 346158843 679142866 626963519 271529767 23796689 367216631 506486403 145583186 452201612 483589056 758896551 580571986 585254066 889924298 772152390 925698548 399661781 385396811 564391292 286654318 773770719 823919337 792204699 730593424 274026607 487364737 68664579 805108745 98374746 56755807 789309177 464790469 521851466 877576402 92751889 214708011 325167301 974894353 293566216 248640644 511234052 323014302 320895532 876708438 376355206 649536905 801393580 671109488 471404517 568607772 117223866 501496455 725062433 960948237 774905105 71412667 621904154 569799551 837033288 775690682 201050116 419654296 792699940 295837195 751684921 778405917 746733413 791308700 93935316 69070318 196372275 418030496 333824506 252312385 482650737 157551935 471930880 260746256 726676778 312664041 203117725 771135496 282537512 333291840 732290026 942576491 363368250 696553894 539632769 20027979 470625673 660317784 916652755 759808891 28706709 791515273 352965458 429036010 559293162 993091499 603504827 834736623 204976683 138621429 132494965 684880370 760421376 147045540 919524863 31401089 487587460 356061747 565513869 804647350 971589100 857465702 243197385 590074730 38767262 126415210 769727467 593365730 78950709 505151005 425067217 968736280 491368120 580160602 523249256 857947398 439675944 416891792 735445119 483809686 568047714 608078263 285933935 669061178 129146397 436315660 892634463 473787007 531618992 219110800 966382005 516770258 939147370 786577974 356220596 101895506 826136048 273222812 606295951 314607526 284378745 297859742 278747509 376584136 111745408 720288004 917583527 44935686 903646413 456672590 627805407 94464124 429125054 411761081 490134803 449286746 252438809 584942542 532578145 62350852 692471737 598980248 26551734 463094888 945862215 667154521 982443103 297916349 137736784 851570235 848457150 806089431 795619748 606261793 522428476 302948619 498267042 797881311 363123335 971724576 221854894 377438122 471057840 95880060 268383571 88361427 468385389 970874781 573272510 937069524 450247269 219375152 747610577 916988242 251285259 935545083 431301042 518426468 153234408 750540410 406196796 522332279 115514832 491498716 947535928 210214836 465840299 668556588 206609897 818112760 29398441 410399071 821539597 528189542 58544135 446923478 430365764 481249068 760340386 664010166 83777174 968408981 175392265 464107225 488877385 636561677 345958070 584498508 694831882 217538591 678603017 255698647 539280793 418499560 647350323 638807980 978375445 106685051 580307412 831408245 204546450 965620605 31951936 88151256 74103377 89416962 465892336 329014899 608836146 5634191 125599596 755366688 14420776 828012303 516794469 953300266 80443004 939149033 23755936 243846901 818665998 257289130 577109957 672368336 132314988 286530847 895919528 779021780 47733328 430641665 310860973 778411692 885136322 193617178 566955477 858309447 724239885 769448328 252519611 104727451 153416854 519727770 126204620 348309086 310634508 59211786 288218773 754554352 984391862 112173805 810570650 199710358 261950722 757991002 152540478 804310302 837972350 841450211 800202060 859844979 34459636 991866203 219378384 821579357 936321888 580039633 736729831 680656763 153226106 301837340 233560697 38451961 384798443 81249362 687461247 651606948 329509689 766602455 830599475 124242304 774468335 724550030 727181510 196657252 545931860 583940697 595185448 763743561 25610669 105624847 260320408 959928482 90378222 366077537 438532068 688007736 278855732 433243551 766188000 266066107 800385455 492612062 886513376 646507169 482791060 759995508 844267282 953760182 79659335 221484120 173439504 715773627 765231702 347296275 972443348 585960825 778415824 552563015 539808832 224327200 285460687 701031469 883084859 493424262 153889965 714210873 756923013 488456834 639559333 698665626 208797739 300395193 195054283 887815637 643092714 500025250 557291465 762743555 152065112 591212603 835270595 842815911 603535666 3937599 994063140 921676832 72529567 534129868 50017837 764472103 707659140 157323534 700649754 153220158 727892904 996835942 405086783 100236654 642839152 424701220 262133529 968962565 525906085 592782337 569717551 337835651 664803502 311532933 164428097 839867126 658328291 634283968 661664571 480608997 359206358 767269684 84496864 798822754 318011474 215996041 12999672 819544744 451675618 374664040 790825852 44121996 303032087 306752693 625141781 735624375 936655914 23969901 326724326 111519173 770781440 795974554 683536318 314193072 623942189 758931296 261975320 904404638 32299616 189783036 538171679 165730958 755789701 4416232 314266745 314299775 17503692 246136024 55709115 464067425 588672462 220476901 673415469 221803833 336241123 447781483 612128478 676911828 357163918 128150874 152897528 614559420 194664673 758189125 889347531 24684201 578229342 413330006 363532632 653826701 566860641 634696090 468651785 482040852 839781567 91553994 979800965 855830780 751348204 831334652 930585940 220719321 376595369 21880931 291058646 609032618 163449238 254708303 983213402 186291533 482554233 695241788 716704605 147315025 483203098 647555542 112253242 374696545 88726132 6356775 359380902 463247223 108712586 690510262 88732629 841273140 516838069 494533203 150779701 960331348 469152820 128026784 232551824 130358676 836998354 937609120 315726209 656415261 720787577 103327463 822506497 221929104 6181691 668306437 85822789 634158745 344165516 81310802 684513776 362918093 168440388 829463522 543192916 641935973 905978595 722767364 212634553 437672247 862717508 279703385 308052128 731199871 214011676 968002198 904415886 63748780 877304520 1123189 25780863 622016846 164065894 192188893 45707969 6799845 588199205 797911850 977799794 658232764 518530452 800171862 599165080 82940580 918312298 733024407 943700303 619212514 830379138 58906955 550823512 92425726 94107082 924086195 162625473 300680657 799889230 729455591 265257225 504157527 519423066 125233294 989135427 50157763 953253265 517528190 943762436 606334606 765487995 268248413 522895945 647343153 670986107 729115199 353253162 568845973 430306080 205595153 924279104 792741051 790878459 773586628 384628761 36038687 79451768 958103689 409106267 13876452 310418396 794931423 227758261 603284359 416641757 363086442 718895747 12602566 539642448 28825576 384377101 577409844 637762819 195200428 660741424 704980690 359547245 567427258 877280223 159906100 553387188 239613377 881895826 246048877 692027043 994888868 537671995 724986623 680211749 305347547 752190244 858791175 835953156 1421601 657301049 417701161 899717019 289541969 331893256 667526866 508173673 734749033 96192116 79834616 823214671 133867264 321683393 649104131 664646215 426250383 999856124 787944025 267356053 540450984 486867144 774559029 215752966 931522990 563915115 110102601 934262090 376845606 613857719 946973422 47472663 157357619 481629745 16103904 513649518 46542728 425346644 293229967 87687022 735745224 129502764 326080776 499444731 395308618 586664681 874473090 557007129 247111440 899565555 564590987 887171219 234786171 526277400 464417800 545597522 455558051 810235880 444595616 976629094 986247806 147314212 710144631 537452754 587195497 612230604 73459680 900039392 344775794 773405621 871115147 253787198 233820973 921857176 724247834 328118242 610963639 755280349 897700071 575615960 847096361 445855400 329133067 41704559 879488161 655994664 876751466 29343945 448986303 430996999 448807969 275747304 267648874 61797687 258049638 423932988 633228840 972906669 55320092 374378520 502048348 295385957 866353410 739800555 74401349 908427798 484899899 508883253 231618988 609949907 59046885 93641155 463100797 178266288 45073197 404296357 873788816 711321298 982938895 14475597 164403577 823866099 521235273 67580576 951693683 150095217 23225426 334189189 987993764 393093964 821205838 344753808 481503358 572111863 301039294 467417726 304129770 107850622 394240580 175999280 169341180 69375241 439366999 367048701 690662061 300441952 195823322 122851205 617038807 937641930 130723495 381064451 540251921 29323785 119508138 694047218 541759960 75797423 195821526 181765544 916002077 668010464 322548390 258318342 866355857 325086880 921583550 953593730 14546450 313179966 637165244 819565682 863179972 105504881 334018514 874176962 992117689 944176983 580456854 254443203 238095961 727593037 552849343 807771851 900564768 679286185 930566755 572217356 458528631 756355779 372768105 822744675 417804999 947377002 728633016 21880809 938163227 144741254 700633375 22979260 642799556 856005594 540314414 950119184 57997643 914395041 118403151 105828723 886823290 400236254 185152687 411178687 75224543 470830824 618887444 530365252 616667492 395485077 280268007 227981523 224968142 625747471 173105675 23106520 43803238 124335863 176597118 569213667 319094160 593841772 522430798 375450751 574285937 264040753 46915041 564475984 967776579 108026996 179484251 194679957 459966256 445493402 886829115 116958211 480081844 992641756 140512414 541585344 39780296 993485070 896292365 967857814 520587735 341706491 133644713 179899854 471757248 445228353 2549193 577129039 963937731 400274920 544156273 137788367 406167741 231660381 136920913 884607731 877582446 130742935 614078387 801081992 377927865 950776521 735334457 521811636 329615863 191020453 85725077 649723839 313517100 722156996 793761040 59358540 575038407 307392380 262777149 65747945 296535059 234370514 313003827 338258719 116684566 484771796 349020742 224217233 213780658 708394637 692366631 302911532 596950543 728979234 468305024 665008868 910272021 771832498 737329379 29819885 317289559 131846310 233195648 902659242 607614101 295835109 948140638 412230266 26555916 56325108 549297941 81697702 268968088 325644023 364706244 829153794 802280037 197467135 896024024 766610460 19568793 153921400 805697765 934471074 384555281 645615103 988442533 433210802 176761875 199293522 701215832 998347116 742945815 365477624 394089120 337351900 885104771 136621954 758779391 288503107 679600222 527553075 89294797 335911391 497786762 86580556 274027871 746201497 366746736 413206749 679588031 552505218 33166579 425216262 130460462 673907781 442643179 794826274 951968025 318313384 657144504 433018965 326723980 904687734 108103500 780108845 213228048 749674128 790116177 552070922 651671446 970008022 797472482 668956101 250651659 178194646 722211471 473804041 201750976 867896198 607904095 493576917 990566250 657297937 811192600 856038241 870364954 454697937 287491996 31669700 928788574 543956649 517493256 493469250 964308679 954085884 950363447 609724038 682991422 79916482 925991565 298590362 984598684 468948715 207269265 124978661 449569082 97277152 65199441 287228496 866670245 24190492 748927688 141664015 609399454 305335545 661264266 488908785 17241019 497744981 426430856 433375520 311665138 45939325 344533138 661526742 897407611 901933472 721353770 429575621 611114848 145363526 834909293 839750948 13424704 124661290 701770205 946853629 4106186 270909120 675447516 488879125 62543741 754609009 311694131 17716128 111257715 381750813 78588610 143845872 811753386 2657402 886043617 607148898 686103081 34955217 151646371 415503061 122020150 867036314 844475117 411191993 585234729 922912251 943266380 134299748 517967896 773001005 371694765 739504661 514929844 958971156 486070185 776270447 857718988 378980394 233357881 668426912 404913564 705563184 17559473 690816500 337958206 838122008 712292871 286209051 268831944 233990132 490672850 559542602 125841606 378241374 302346775 397252786 216036978 600675314 791180939 354410097 989255655 371729023 553943670 24556128 234100346 309892628 643794862 169078072 49055707 978193512 926889879 386102411 262997042 934563718 691510672 385723807 961770378 725231989 324885472 268591612 495163172 35630799 717296273 1157806 226373755 945267269 846187506 411992645 412040969 328395583 906092057 706644414 626584386 682576312 74106067 86796508 891143410 358205583 817759926 81977863 404969302 634903574 241567651 736808999 741226390 172889447 975133945 872903920 868349170 102254964 768096433 135689942 253033956 195232209 979528103 418118908 426511049 249387215 539601701 761865472 376829621 510330768 638637081 530703519 483650207 599185920 53932592 898323408 202934445 604774537 343972993 691860810 145958393 592916580 794331709 344753615 10652834 809912696 920196616 74468223 720282991 745601993 761422256 456047157 562618391 133071729 690499979 53230599 155121174 807812514 161088012 34643328 549410103 283502380 295192403 369590732 555470297 521554432 631250783 779305345 77025330 646438761 363846671 160647952 186806656 970888420 93033608 320276005 402423324 950198985 33966064 578346601 529937793 377703973 187749594 628429064 845025088 776548800 37651470 460781485 970520441 258398746 258915060 80329140 915363626 499758436 933609751 838765945 150298056 327106678 661150418 72811179 899059215 805889261 396242516 562339866 903223435 364829600 199483724 449621954 390465485 420159020 95311681 484666980 539593091 337577398 966373160 947815232 653406948 477502755 400459389 56601140 563496652 840407800 108902576 1947115 498999067 868700136 137603889 300269272 166450730 383496810 16321731 213372662 538832611 658183296 321828731 243385308 908443738 511413296 294661151 642331353 178672964 291664139 667146885 320777840 708378668 268992518 984876117 111467236 119260368 710558115 533545263 987943373 931439693 2336243 146923413 428460795 35161864 774467872 283757306 935484964 311318644 864931437 74295907 516567223 523386420 521529378 895084309 326573211 152953367 682762171 380947571 357454291 396271435 759078521 372728654 811730058 77572001 187439878 840822798 930304400 269046565 209755309 294261927 136377628 727921680 415913712 29829393 817708360 10968388 132561833 830173307 449307184 946276478 276740138 671486272 992568869 842574899 448708806 827386658 460202166 935411601 556292373 415804156 154620947 57558840 575467155 2869771 109873433 300779134 897657918 217678360 907795356 811408723 89106711 14442424 583058008 663382835 512920061 853005534 850017902 95105727 267218579 672107729 562391226 546014290 442978031 959357526 966642745 869345384 591217986 417858441 726678966 699338890 388391064 453542461 621817923 937181500 587917407 129973392 541476520 521819032 114018533 295245468 59633923 736683786 663893491 797071642 669632544 288102832 955400813 549267479 629252948 387608739 802920863 8445446 628527772 232447616 768428488 864659161 173978862 52489697 45333668 496389080 532659971 640322579 616250876 905509260 939903454 780854172 436227307 356915014 137378288 496735346 773690329 728358031 425033424 594891915 756782076 195800225 900363527 714192624 77768669 639369527 710184059 214680400 831553734 905840221 40466908 353296267 588996649 558012148 757720645 216136830 55359263 673794213 562998121 214587681 159102958 782113578 759884069 28528529 590839254 883829604 293340303 668928568 490345645 111960485 922919553 270693145 905945970 482488057 208832917 788437775 259773065 494244611 692764927 259309818 573487253 923650314 193916269 251090282 234354293 880867537 613935074 773769277 901025076 271415790 417466783 545597303 776993367 888660780 252194432 563776361 237433277 500649373 642391560 715837134 456937734 319835689 916238409 95097291 75859815 743151592 757064814 523158152 439142189 832407920 727260982 418469849 520794844 232826973 162296948 616620087 110359525 996135486 660722634 186427152 531491604 216397456 737024231 980093164 762289177 578833480 405938110 635910935 101970256 41506690 896706125 78438297 996949844 882450476 256379656 423989174 828941385 633357848 912577382 327101026 199856548 276908217 145216339 314043588 944704984 136368649 889023101 581985586 46242215 194023575 18267644 391366239 310872772 583081429 900547151 254500169 668185789 713168478 849434006 700432330 687848171 310956086 609129448 766213756 325269433 613998956 129399316 469953501 761659808 554761920 842252275 561332763 844276560 497148327 590374198 435275326 186895471 697399635 56172240 187744958 884366034 199738954 68794422 768385232 819101765 185505395 642203728 352374480 333041982 641635734 5649264 758179513 749932934 944168344 81749700 97708254 481787091 882897520 449211210 236668454 460337493 550738774 553381536 183693146 479260753 594747710 61517220 892706091 300975760 444536347 785009986 752617858 100407840 843979309 138217682 688818159 174978478 104590208 961823946 888093173 858246560 804528317 19815601 707004537 792254359 401720004 73578183 991025638 856780801 369324139 1297375 484750005 281284676 279131352 723675148 504880513 554650133 147169137 12655140 440451099 960261871 56107873 290470058 184981577 555270166 546396213 259086747 953908039 113765898 620491667 855667283 999055223 885647233 503820933 950390791 758361408 45822627 148926598 853384677 467850170 363692271 142808462 859076433 303495066 916013919 997163278 34373677 446115983 767222344 307123808 560510636 385156326 18623788 668726323 462368228 931536043 823564869 192542944 704325851 731926700 479753551 93000700 668391425 193970021 155976482 515293574 825434492 450267967 173503038 77411692 379345222 788872055 471175562 223674365 813068022 554046760 360782415 537088301 703004917 805347860 663154785 339154895 799017522 760189616 939586651 679530742 618510465 876185572 123305439 597076274 580885284 537710030 737981418 195253438 38966872 814583119 182593306 145575028 186793053 165206229 318932023 410147434 279195388 918442698 269273884 544362011 281663316 234638506 591211010 849225454 719640735 999629061 187513160 6393354 958926404 328235980 736246344 305552712 59757647 172861295 930851974 806319185 424873476 114890335 62590696 853585967 63264383 514106614 212829582 421983831 572038675 190974133 642366858 377049072 844945048 695720740 966030499 680841399 38633029 802487080 82401256 297619984 432698404 283002060 378764778 187781362 916274500 610945424 132739228 182728661 672617813 459552073 91532554 395233617 356808753 771588812 243259959 678356353 98579936 733027364 25980140 331229471 852710196 235518077 594516516 304286628 409610841 43956339 491681688 776103341 117204929 337076287 771940522 781683810 701103886 336949818 135644275 281515429 272218890 262623242 183051544 398558148 95338893 975257351 867010947 600904644 654286651 619922592 310504675 520332617 340880363 569682254 852355707 600114056 705056974 449703990 741828600 168163816 496570812 636226983 576351587 699285143 542813377 568105918 444939144 620150768 347076556 753079874 483677107 114436363 725303919 321958345 206319552 167981742 247114800 685377845 531239522 803069188 169845397 495472936 402424944 984151516 440347377 818985774 168931696 709845985 605654796 192235208 425925704 485844100 704958300 299254066 709963794 395977562 663624459 279377984 157532568 912187024 920106611 374417520 907443729 564508285 122338285 793645175 528815624 24119752 218419147 794049838 415433044 854465692 994634726 998284828 3663459 11906228 664791023 758804387 128825053 566255254 482307055 498127699 59981279 700549577 603898817 110300699 413100326 87147961 616318494 192919496 790946692 472665198 738484531 508738841 749223585 426061901 120536816 7100568 302003094 750506505 752324540 897170675 38222741 163496092 220106708 251691542 870005275 388318581 48435720 654004654 836123512 242376829 632756228 895517206 654498638 794313697 785906544 151718486 846577524 608436348 43452903 616361511 769580742 37776055 793348431 329428574 99086258 569964183 64236473 961321422 72108540 990805468 973339675 543905063 916864386 750962429 604191365 927806991 588251211 75572847 312192044 53738149 440188258 366228101 576413089 726745186 289231565 935567095 648646571 910457569 19489741 59059126 430903837 33536200 117092948 333836981 175562524 977578748 516207590 178961324 422742292 951173475 972296228 127547020 823184898 629317863 133793902 694057269 51806475 423940456 73299886 518961945 262443187 298909535 2720588 703240095 154829243 6657967 763279690 199313179 559869565 501178371 929546417 810805961 278335509 721255811 873881509 425120294 304570264 709367914 156640890 317727644 520958150 978170034 191818005 125273994 47897346 299039838 911262756 912549149 990951224 711188995 183887638 728769746 160910227 102555825 789415034 175831131 129140552 255650073 883316924 312812925 544625575 536333816 592468658 559978674 309283108 788491974 855988571 91910628 194503745 591920339 783290089 714923134 388573877 708881549 455032439 331414192 366038252 520274080 725923791 503254954 715860492 878499570 465916171 701830419 70807950 593392502 956391916 180352853 342717596 80372393 465364139 658937303 70532020 580402967 121417666 935454576 281215484 973519729 335384999 658017570 349978152 994828625 905725178 376956902 939218121 326082323 69333825 6861245 263271726 822054671 262587219 552949765 641610438 903429277 801190278 720436680 673840134 492067238 404342139 254919427 327285230 454327930 827763378 123292732 874152618 492873343 528810238 421445984 124106836 43635062 270343741 65897018 742314329 735039518 48029403 356959182 817845450 389936530 766839256 922378647 111010143 974643752 985163898 233696773 93307397 261940811 458878170 240775396 450084493 114320768 331484622 190341709 708016506 69971862 420170355 549507258 382742052 119951825 837478269 143915644 699163878 59122939 23361644 420833036 589864676 454656498 325960952 620810584 479978074 523533808 465013510 44884384 772689310 114737217 571289713 602775115 88268033 530958192 616787550 832223830 431901174 841415144 635251675 377347500 353404389 901591316 483889897 176205107 802652366 658858857 571875687 188092692 768128641 521280507 889617552 902882506 788908448 710124590 406132348 557870707 310141197 627656060 419101653 841429627 947995759 790304477 939248455 660501301 453247412 774169103 352050255 785673296 925253761 39801956 427937583 845069792 737047852 910624391 739195280 682186897 397086727 353128362 674048415 299996421 196500541 750847843 559540578 320206895 4761693 771753121 187922547 352566119 689615325 407814436 267583153 54546932 284761143 69717486 8870331 265205348 695489308 637784866 639191742 909068860 791667005 466148354 432937200 882891978 535337259 750645309 39867469 221181251 296295569 416990209 780552258 529167020 451391305 581711165 594918006 946269497 586809534 834191824 196465368 769651651 710641474 492248714 556916324 61417838 468630294 889711847 399742008 108771994 653056764 858984323 570663533 795901095 844511731 249361010 996579734 751088663 444379545 697283600 563382984 867062010 604384180 654919176 256361078 873262097 483605707 651445444 257479111 761309570 605690850 245076382 804852725 549785591 273279922 902573601 128760260 986307839 343223039 328258439 95105443 883996053 721183205 959728759 421493957 553204443 951240928 585685376 328357062 294615379 706903035 3810172 390429909 100839339 783299384 941067166 560900035 924100938 958498053 423464460 606438499 855957413 380292956 336394621 973840713 686932220 742099979 151693192 738055602 618496338 517215327 283837441 393675347 411912064 577143203 256047168 944495871 45783624 791266967 828145018 45658857 664896038 543626616 287450180 101766783 914759114 270351355 74087578 316112244 618265893 720789245 958109373 67030768 935143093 896212265 709885960 708078160 493621919 538992708 280300098 267548833 446926061 412032658 481891055 473154797 591163440 379119922 505236999 766475775 275265092 508515843 379692408 766276928 684837920 520268593 845653423 382489402 962835615 466328521 274412 373905845 992957728 767653069 868753311 965621236 398460694 647448481 440797370 732437775 966241114 747251131 107679812 100284187 971591752 322953691 102290598 90238542 341681394 921901659 896457172 914096751 629358476 296671756 950696978 695710938 876719117 389994798 18671652 929272916 684032332 854053863 636285931 531702896 336705262 250742871 669623940 84998228 704641835 516786181 736254349 526785003 150836553 632786396 787931086 386138888 447358257 417931588 185210020 159748800 707320907 947809467 624105644 618993187 904577050 113816100 888100767 545677322 198176165 3151792 367089992 660902394 62113056 36856616 661143846 457085557 285986607 267511306 301077731 830679648 451188527 412616381 594349518 780713741 855437374 191172972 515556234 360106499 974493914 589018837 278844744 156309180 179323986 48742086 916825713 948023295 241526731 559404316 125964979 579544678 996592983 898731053 687144029 672390270 338427666 411111614 185271886 15816134 315558937 260079422 77060579 344586029 553245217 813147896 748491546 369935751 886644811 331970221 422273619 592761781 666046964 635133389 920926300 475084796 606422223 893426275 618304585 692011384 291931305 175396406 465975998 881245530 107965331 244238129 102963847 243833177 813961295 44740858 358004028 149883632 215764393 779808551 735895657 901722919 955563537 212798237 831578169 620021964 217325570 702846313 763931571 227121070 559427550 996351780 775872037 68773456 494319775 395110854 386511452 411647841 370023490 349571907 94109103 31534448 739492208 93092417 837900072 20918912 634880510 360230878 564897888 697154188 617653426 183986649 433825875 960843356 908181680 641447821 366835823 217073838 928144973 196253082 354827776 645535049 817172222 754741249 72849943 512561761 459263816 37929795 856566994 150895505 224126015 592049885 174327709 139383197 294461876 576906217 773510698 774044729 841375441 46300079 876345637 699937997 931494149 237294919 616674106 838315774 883679904 601575613 355102256 242113695 273876699 929774129 632034475 126222871 124158584 690250244 182289982 649943805 488891791 570276603 551874506 97321091 358340912 112962686 557195914 663066974 456596841 353499841 394121810 142986901 225139295 533167657 254827037 633661151 903367738 439855194 244184556 110254646 824072584 261892183 755633251 182473876 620312369 366375512 864253230 900163515 550422329 394140432 341389445 692772701 490035696 681507381 220156672 621721164 280794210 206586636 635381142 558901521 361429879 686243392 409666389 609902949 627616855 123095660 593307876 666563226 459661429 903307580 942607643 687146954 487551049 518706246 343184768 89574145 984165407 975741873 51050631 252071567 462921662 500775897 98339647 883955123 352468711 22136447 513775139 649871148 858119283 105582054 782204771 721207097 859912677 328324444 11634917 661350173 564245309 262123316 370739678 705523300 542823227 835809769 567114606 856548741 725714910 270224636 733422092 48799903 681165533 992206052 181135223 16522410 902307928 485121707 500197484 429866165 588684159 485338921 617676827 705542522 828172730 464556690 608982844 983145009 120576920 159501929 525185557 217297638 231168405 588205094 313011669 577550268 282817829 483339824 429117745 17052389 451171592 788782922 618915406 526910099 25238002 963259851 944231828 340464060 283304248 287029611 420957632 164275506 522825454 875172261 838212308 847735416 742116315 624244923 926909822 791257993 817434930 989135640 77345511 520711298 349419304 873777418 853636444 278640213 950844513 713438279 236400264 399995614 206877548 435287364 208937040 124394904 65014966 760991231 383634851 702234041 113498614 148594775 844777245 653480007 901182888 46546008 446480373 314806224 678623936 349749803 426000971 395945003 477878107 390725776 542738636 303936471 34927496 400907190 290223347 312559021 276075616 555915622 965631999 126473126 470967345 898563546 156256998 570967571 507301949 38896863 782691374 472694773 230718800 104286948 120047841 244075884 276613078 132588989 390122093 97678188 965971649 834313739 693741941 81358156 643416458 490867424 812145867 391660638 882117675 760991276 818356534 682315055 454694391 993630611 762174072 389813045 501902314 200305056 990237935 164576183 796398277 934721671 257817225 906322821 982530131 318698823 203747820 657473280 546412112 975861312 530815201 848261957 225869794 768939841 823031154 905992127 65442098 701353731 146237420 56875228 4897985 671460834 339665312 361752400 379276626 335738289 470751548 44249374 886960013 482201587 904254726 802261962 486856750 103522572 51339391 992241460 416694445 550421461 520034917 881389960 171029234 393151379 620085065 136655363 796651804 385182997 484625054 457456681 241401900 346142238 626922435 561896015 204630386 918162673 639803440 958793223 117886294 915901067 309843676 865733647 829377000 979541055 977260329 460765516 307468364 983936835 907523185 782659319 240325988 45580019 577549886 516053887 98662811 838251037 192932231 981859335 669957621 126967423 317768762 181479391 495406305 199679109 44022489 160508547 716555659 985654571 507591669 888458398 924249953 24926558 798757592 902296396 17957325 725578904 210578913 418810493 342208230 374065648 289163723 399077017 580880406 32689041 752013678 360671310 245489532 988373296 899437706 351964448 223647197 936940707 445560187 122191542 7399609 711449420 798385254 868601245 308371494 615362031 36284818 879423404 176058387 925824038 287076726 328586984 214728496 528443520 444500330 828977674 183720929 402548381 23046519 380243626 14550531 845590252 48407774 719892466 303107685 242446517 96993420 15715066 391903630 385028023 580323485 215236389 772768051 495979664 984716659 421945878 607277276 343309551 258669698 657512040 678512703 914101189 348238185 402867450 691023767 458414224 89556986 328811984 275225706 852713048 229972649 676155791 292146734 979423571 576217771 603215772 651883443 190340301 161867635 613792733 934777858 888959267 993829996 50946371 414094441 396782139 85630294 590024543 767833648 756460868 178024475 421230798 495635382 525654223 708406148 373061331 271685151 739090227 752239848 646216632 197089225 244322170 610806304 978223287 170385042 287518097 618784017 316115216 673224709 948740435 26180805 637345967 606929144 391305086 124989893 454174649 67328252 192428931 255382205 346788405 506253810 90505279 229095919 613421116 399570506 372695567 855426704 521508713 690862943 744820955 250033712 943328475 557656502 977191784 176776816 847470968 69281093 186625052 649111361 204210096 282119121 255188277 879058190 550263602 545576389 70964864 662467416 270546559 403298880 562283077 791151146 55456266 48066324 918620518 817495606 883760732 924715750 11079998 852228367 640550841 817845650 493774484 976261049 109479385 675085222 297040643 722136409 837137392 430675233 73520632 667078316 279571623 719869716 635575156 218382214 772320708 438639107 422947540 216886261 32654566 600038055 879752303 550815235 426921491 317084095 708388545 753101911 746155636 628920871 498402269 12273281 219811917 957998932 206515085 810221154 345373075 652979592 270669073 752327632 915225850 958993683 387465985 400303946 478694460 81570761 298912809 918756931 160107681 155491521 218465145 633202054 411673454 725645124 60490191 922166172 569284281 864176071 814210114 750337134 150778623 3934695 24014957 270772587 879569672 50254444 716289149 805114738 723942427 363195622 54988822 861968493 539078131 524182292 945746229 292932205 502357223 9463389 532454672 349388205 521532005 378659913 224220743 198455418 898959378 961675187 51130609 378201229 834624900 690720602 205894250 433533723 259831350 28717750 276783782 327273153 292466117 750275898 738006722 376220362 912356142 3365061 918779958 719486408 911483253 995140346 468867694 460470643 151608913 158053912 189419487 606577038 999478337 751633795 846688867 572316485 772455108 881775893 379009880 87089957 454482308 81852247 137823895 41387546 355909692 514637928 101072644 101761371 682232514 400367121 97211215 527280853 988392482 382442914 441596972 55579902 290354934 89750943 59849057 978933921 613080620 224602187 909577744 472466545 881288414 231414845 388484211 825625572 663097277 733069116 633549657 54288398 330289056 225692972 908660375 241141636 874328778 431718161 450935323 174396875 39397123 958610031 300177334 263548333 183803297 464047662 327841327 767083112 506243459 946273777 788846425 132705861 855770358 569124823 787030873 791414600 902414945 871758475 565633629 204867315 248770664 738283451 854705304 150857832 201620119 977858303 113277811 250716486 813279206 196273811 622182471 933105321 967804939 164937155 480947733 85762336 731051788 917264338 154225914 201859290 640231056 640436762 74263406 216117269 904196154 911127217 531939226 308058393 644760717 111626816 439062718 675801134 684141736 360625689 860705380 405242008 613952654 53560885 895542820 17040201 750939103 353895794 161086668 20500949 660987191 423403606 223953798 784359543 875210547 486582474 840681822 800347241 900916570 270669798 221332613 531655454 892706245 542304705 441377793 527973009 567669803 906287099 927698393 209344269 288994575 605788458 455120512 420335342 156326117 541525541 180632671 219337783 258654851 378982052 911604994 605092698 694491523 635400583 151868204 9463529 797058952 808669048 201978186 985774633 31337243 277676018 432837918 223586969 482865465 113149603 42026770 248055182 996351128 841037402 257292031 61021518 335093746 296111314 625486087 493059444 173470784 771478404 993249181 103323326 204180345 414147971 213414749 100574615 684567117 660344531 580750408 499962503 612119615 178283186 157128366 899270486 265387246 315335835 322432885 567332881 13110668 665186295 349285058 771471908 205053913 665022001 702789986 18253043 575064383 565410260 304449582 345129799 223714745 545425662 529711853 290298334 264968721 895848024 127265729 776821831 95814524 438568473 165885183 632506363 71721619 884629106 433429239 96404074 805229228 1222993 479390389 396753365 530302495 119003317 550435549 52940946 612316645 14034783 366305617 542792851 657243250 138453184 548359520 424622080 13641520 62804318 220307605 815053008 228818869 696950224 509029989 874703401 383330079 880255052 892675899 574802050 204692219 972982320 550279391 406187685 917279016 91095924 69428221 626610307 105592542 957605246 348444340 452396268 467398797 123184073 170526755 502535186 438533132 853097691 64397304 493734794 698629994 336703870 481114000 277823463 609631248 182562957 721928649 576595550 948499395 129944442 693721504 920588607 542084940 520587829 726869988 754571918 509898835 135879681 283455283 154844486 195759117 228908061 672512718 371193002 170193099 584920421 38769677 778415910 79798935 720776467 969138500 572278219 334731071 655379564 759194018 331599231 156621263 600506796 143321668 27334472 661048467 195999341 671195767 935229793 120852217 974668730 723786524 817397538 14913566 914012573 973818247 939979925 235488722 103409300 131494628 921428351 210233568 126785038 145629956 587826202 578584425 730582291 203144534 435517284 403155681 477411112 925118705 539815947 990486962 216077887 994671558 664198824 828911641 886906226 894024578 493517633 863608189 572157625 77788971 665867636 882935930 369466510 631318251 955320123 474504127 457814622 776719407 37968843 775449413 315212412 360951363 934150181 844157437 298737872 335253871 632757560 562982523 761731242 293740191 755860160 729666546 852743999 427626215 599233076 55428064 864737199 788898472 113295081 96804530 274691240 784832072 565232939 777540890 691109534 784079882 281116862 46732399 696859763 837299027 778235120 96280753 646282548 605102110 94426478 876418009 310209944 2158137 612340359 868422358 516298176 625210237 739900700 353774006 77786111 335487864 125586746 587029153 290771628 352127568 68286963 460085260 547600547 135938126 530138417 710905126 10771342 758465338 502187300 963466517 594259512 181158435 293071129 324466683 71215684 117093310 930939085 814253206 249784993 699923039 879080591 78297519 819779033 284205719 966440058 765063351 33507653 301010616 996660108 766871222 317870214 892171731 113273551 177197295 19300594 284540536 532314629 720730479 370012086 554304521 405951804 890514835 694222152 35693991 131415687 710644869 389773772 206556316 598756660 307702302 735368903 217876037 75223405 21100217 815315001 682736254 851505581 735803451 861528432 912398972 905067038 271725779 579646924 114048338 538819847 114196579 798209749 715298 854457063 902967899 221813443 305899492 461453910 207971032 270084698 693941898 665342915 918494565 801414629 478177140 580675121 787238586 728552540 567553205 12601552 662787478 261314505 596939118 798931804 48309669 357167490 682724806 861533581 299753543 77454810 81338461 573883571 863033928 534550506 665407322 264207998 426464598 708390269 756394084 740857099 7711386 828369542 749014431 66264599 174508369 707634747 889046864 794954207 19498357 495682147 243604551 507571760 618227581 244773487 146403155 989801893 182602933 114265674 374709585 576837244 685909343 783147511 404053191 78306863 79734816 455171514 547899686 997111439 238775271 659737510 317446924 461084792 742576297 882060192 750631663 877818037 927202601 328049130 746555043 473389443 729273964 537268201 947296496 307207368 344917520 195338346 428436832 562790787 332932617 213438866 312391056 240365603 496277886 504602917 57801467 227221228 452170419 315597809 710863874 644750636 138229148 77229866 952308423 862839769 126338339 58429084 257783052 868413954 337064131 270498547 44131941 616106296 790895605 707663274 249156317 576756725 652118126 979240712 389803036 264827620 476811247 353454018 535669018 582543441 690060855 34247662 690608283 366451700 237834247 154918859 636597367 7042648 105766190 308192064 45439005 404225429 304081441 436871408 385515183 181349383 675759026 507409827 507573478 621358208 481460440 990748445 47327254 317722103 56231591 25744798 276096320 645345182 814625405 839414473 266263162 818551143 429452166 766775215 830069691 846965752 540885615 635801356 96417052 598904794 363535318 309330255 32103105 804876897 563729170 483021980 133495322 722749096 191616969 246382096 540199293 333320492 871274559 333683126 129276885 63575347 764862163 962953575 138700256 410725387 217528879 356616985 800801718 382823056 394576585 271482295 189700535 529691512 221612458 135828573 80767186 264755191 388272607 946438960 153950371 818740727 745039894 883527034 366090847 79698406 602298068 394479803 917585973 775379698 796843670 121865789 595985643 708402781 565984258 390696159 575320420 231409648 304188100 641061875 264197754 611328240 701900513 548090193 723895167 802606549 587214637 368172651 20921069 749320387 160358636 493862790 662583804 982042610 208597973 887752876 219010075 623567281 204818897 723044567 441320255 306478149 908870455 84996995 757829700 838014121 550778597 709862459 942945569 707032 709447038 277561708 524037543 575002547 569250370 337526830 418277691 227942304 625804635 674653078 431657769 824715558 496606361 301691822 113069407 158787009 785399042 120742112 669850880 3115389 622681412 811584150 140852527 485321124 787635507 612530816 140413465 582859761 481680222 628867761 159945653 604917117 789423514 628953228 47723529 769289825 928514917 297558714 814490902 570762741 341372372 721376821 225686741 16948893 20035885 15211596 598739310 383653855 260704557 245638620 963057653 384173664 249400398 74082587 460427615 784228609 862532486 602260147 666889732 291254801 130768139 764794240 686763547 468323058 741348737 559439806 235782754 276614856 78831140 968040920 661951636 336340863 167647430 111610188 770093579 617971286 609381772 515126173 808280236 696180774 602273758 871042132 320400861 936466482 862277550 342886910 434108368 478336612 301242220 403446666 48840210 564205885 936354639 521535558 177443317 353500112 453186931 2252152 469650921 514718724 930002989 785882434 261833999 504431168 982659100 52488139 804773990 578890811 892777609 250199347 571363568 281945818 565065303 358800243 341788994 2554784 455753572 821075408 995006711 464029018 534253448 218401042 812065720 158001663 193543741 512992683 468825275 121348245 195750834 766479257 722097155 63579123 824100144 165952454 59068080 889329251 984376601 933137399 794366337 372966380 958610423 485452402 828181963 830035910 924179094 206089595 139405660 154644858 2788194 924467570 125293262 632246264 500152407 994384370 874587071 95653715 308687657 875739356 420035559 118813930 628195477 26552118 670378876 638224958 244923531 206225637 650449066 894469277 138454725 784979956 616688600 88075940 840216409 562488325 60818646 679074674 852907546 791808618 604296069 105183483 292706643 425009760 691251111 566704346 110053362 356279396 570553974 283444558 969482481 882544991 243657523 566585833 972051585 402844785 573508987 934004349 997219612 395736224 884708917 613391285 379440588 320328061 395005239 826981993 863128500 15593264 784288125 438676515 636056809 585289760 689642665 634846296 807619528 117525834 739005021 716758827 334348503 569155720 872980493 656583775 106181182 527563843 548629297 729597735 229883774 194049208 297036821 574395846 545261040 37264840 962635605 46991895 651467296 543954533 528510554 439050583 680526104 192221424 450643587 908358873 294263496 494825646 165167075 916368663 758872421 205836817 49251634 706759618 110878700 972507081 787790385 786820753 584346836 458626248 264961570 807931920 551203280 519058305 938170637 371585310 79610783 375145965 992919967 512785683 652255956 492520379 123978273 577071798 970970849 121805474 426146936 897841936 987112395 724881588 172974951 655587537 787801756 388112474 447473424 580948583 364628989 569523027 718458876 173522589 79902682 197586332 43583899 418507619 667442653 864572678 32128511 771646075 82817498 174232732 159099599 690875069 483569187 450344982 695589014 142930788 487862632 994544272 425199726 789503022 438047800 458008487 826338944 589295254 917779751 460908964 636870004 875976011 372022534 781614204 879407457 442478464 308060820 940742987 122787067 422575560 676123652 893280218 337355748 438598322 941637271 134634059 152378134 122115550 152798575 543699690 787555695 805738502 715557605 826606048 800696124 588381516 381936689 126205048 658301748 161896300 241113948 190773460 176229102 292318917 681372138 771177058 984505297 323186423 48648133 856953745 171280459 579781331 181447677 414529545 135150760 795849859 964061186 652118544 571407851 155704056 315735789 340779263 506844113 212077386 953576828 60727322 437903714 851108867 516452224 455931493 658765507 126632914 258648050 498262621 783746058 89064315 912257668 872100270 614271378 1874937 686318561 562892866 900716392 692140202 312711819 793776192 128950824 580889224 280498947 325531257 352354294 878214370 722148213 614432394 825815437 136297686 657224394 861956028 341017792 791734776 87416628 791004329 945712943 774220108 297656723 338393201 810761908 327454115 237106894 63151743 220315162 718405281 999638575 708460001 730436396 3824925 172742120 478726425 690795305 658442227 35281321 660037751 99666966 767498245 518906479 718818984 98934850 152880436 579203050 537309092 996134435 804819801 987255827 216234682 496842527 782228550 380144886 943073427 826279059 936233098 573155672 40478020 297195296 850471844 94716461 2398287 435664997 49572643 569339827 96150083 932048085 259433344 521659013 913175646 581574070 564710306 982541703 10887240 477092710 510677820 530311564 562174402 522589684 731564364 722821021 663651849 7190059 975487287 793216840 224430188 319767975 143617621 169307554 420730271 157234564 482641809 861056097 916211830 188407929 75070888 13861157 358837967 998808401 346296264 732681594 372645311 915338411 473852119 910829572 840559193 783784717 224544080 329570093 760449186 1160 355270476 848182316 454012006 897931298 361144188 858252180 507515637 111126267 662488157 802911896 895959547 291832595 221972987 846129102 973774537 353070655 766162453 956514811 718436593 322199071 642433404 53251915 227474482 101427268 769401396 610806337 820956572 50021413 392573734 784292005 706228909 717616693 675835083 336138210 475001583 133504232 30109725 301450257 209568467 386334403 351527622 969393948 402125669 825213599 777715012 465129921 813527695 539200343 882826016 96888345 292772809 162367019 452461111 711025706 890028417 989348002 634431072 465784904 303212955 771407451 294430389 589698381 910334469 673374046 103101991 984720661 346700068 143709648 731770433 335962905 740223909 896111183 465222934 915319547 622209200 888589809 624334899 782710643 732639509 443780927 837809716 947712425 939224203 516359424 789556463 139017621 184691639 9955659 639795148 804842899 464437060 453442437 143661411 824705524 441761498 179397691 713334552 512566376 382446863 484086303 618629425 378214396 924176174 436660241 651274570 555548799 503844652 692244167 636380393 830701144 2212562 635452443 559959041 219585092 219705227 960697491 437454317 542093323 662447141 418565464 881227531 176099544 294695614 979054449 854426581 512597070 232819697 183947283 676273067 559942325 382496715 411663583 938908044 806883525 644907453 39215145 968551645 300622177 787757782 198506366 936986087 351555469 63295978 431877629 548117126 873438657 347767472 583461148 635339809 882687927 242215674 869994104 183382366 392396240 199265180 750595174 221300591 528411616 863608784 882183106 543993346 443132206 72616211 404113252 930734238 67949322 393841809 180408467 725221452 681496214 769123465 910357962 878159725 635461087 310153870 904913457 629058851 170753754 120112471 406334538 350909075 180760645 926513440 7223663 437177489 896552803 879729993 261427279 363708494 510969436 752794387 220263444 137438448 987079409 302654437 608660493 855693076 769914691 146784974 223042758 390430770 830746787 80142357 219745174 414516541 792394008 514975920 629851392 615162542 773719018 485707976 867934674 277067034 271231079 908439680 30915715 134472306 768571388 595486433 111024528 651617484 177808581 512424869 476743737 698410319 514824953 849655615 461760004 141225764 604450124 298911089 264580638 817234996 592970081 377780004 770319409 914163799 778311420 192467444 353431180 399313468 142757895 247288946 882562379 60275866 538243345 919048006 571047875 649338587 809829146 830150686 625383197 599034769 273722028 190556916 739914892 348197892 140532323 303093693 745539248 382134819 774294471 524020713 547559316 507265107 455574031 524047294 459058489 482812057 548435534 863424029 79946838 297415224 448196228 895965552 755427909 858172075 28891283 833137075 995782624 920814939 116862841 419180572 335768805 188431428 428717991 832325165 657337772 271976866 622705853 198589967 747511270 463897965 93900514 866532724 163043848 621179866 667877403 464858214 758370697 560963676 762874339 130281052 657434314 97356592 163337750 846743774 716708462 354094464 895531395 75781705 516058659 496490792 75442268 764564934 293702484 84294265 851038347 990592302 985597986 812570659 752521966 283580800 916981484 461588223 257726326 183405317 154073186 868170505 110873242 341896738 481824700 506705299 936816707 643599498 644465851 946250505 789395453 251848502 988998202 563492056 368870943 158233659 626723191 682122483 680688118 312464551 520488972 555811568 459821256 268674662 340579450 842476429 22482524 259083202 692092465 344006727 797417232 664410755 197187156 863138793 35971187 996612528 353985050 877584668 668467854 540397022 388336905 503382584 87135138 35098477 263677106 146095204 589254412 703911271 457751122 906729896 544474410 899956566 22071112 981611505 67484278 605743139 439963044 666845913 919500631 165440499 418074759 238888835 684801792 210201096 247628187 578544640 27415839 86405591 67854145 107609026 671855374 553021727 765368810 870033262 913845828 246661545 945453108 737944675 276949517 301177620 890758445 556111179 295980345 13048765 873022769 76931910 671544508 37560834 104268780 304545385 365641271 580592608 260348064 986258660 505559287 691285115 762576097 642097679 882255388 617131407 567353755 294015505 358030039 990185831 177337753 253537142 811838786 253519650 887267758 91714649 236782129 27626615 25969692 85387349 530111452 668035838 138276403 812572436 149099043 771098865 225170113 162200333 776308608 522358855 90289693 925088302 469798581 492159458 699353294 233259435 374916324 906587962 627439762 772165162 610821718 133270330 145865517 781966476 615273768 552862358 176485439 696195659 111937528 937767429 692653589 782138327 173468594 708427291 149752841 523825951 111747364 566894661 136664280 241162682 790721445 81763907 851000055 855759588 428731585 31016651 777845391 567333536 847873376 113694047 362971910 645911414 959610003 57813512 396163256 831715197 846616896 670539238 36119519 978980108 904179688 462322048 145414158 269744931 762198362 585730738 731264443 739493835 808914842 713269919 262417337 597883965 239747248 573784444 145666682 372320078 534165991 493791705 260336610 66144096 562941984 224735343 798130160 603754724 755412258 680067578 433063945 628610166 248096112 67956456 504858326 336845828 70056012 415553187 256349913 146314304 161159423 990282589 266328251 638835860 936317995 493691075 672460234 34792201 908332053 890997513 625927767 67130341 100724396 344345808 313127447 188772737 923552459 332599159 644730244 712364695 716563134 432367766 838626040 567766676 525479745 677066595 374369454 735027507 586460597 895532668 903977571 434401237 618206768 958969086 63199253 376138811 568458098 463527476 203831095 365618322 127483823 343355412 135516977 859246529 216951319 820612269 884160820 622261317 775144183 456001748 330986432 786045799 210917539 657030004 153214480 465749402 639722956 153841279 626069552 3200996 12090875 913319415 655614723 321463391 840642506 284714210 469045901 737961027 362176969 546468487 154273796 937579458 1107459 210406563 36908180 974085363 958613081 475464013 362880780 265748518 858622875 383339182 292774771 442730501 44674560 560627069 750487195 494237797 252057368 232792119 344091394 17707679 472273050 508843856 539951944 935515640 348739641 433452588 682929208 881709395 181958548 588474374 675311419 139512237 63438081 298038598 77886395 820010354 542069194 93464089 219191116 538252861 674376887 97741456 362512509 967223613 439396551 400327169 906769456 477228469 619739233 519106398 470036921 465386613 351023205 377188761 666336504 650102441 902794883 212478451 258240974 501736570 439188826 96929099 720525034 7422709 175030194 136884023 367766647 951116858 459976481 109318128 369489364 881389304 660903128 665198638 914887338 340208949 87991609 200399729 401368792 14852870 644680895 323379647 46893971 701338822 587366566 879558382 634287783 509570835 960907812 31552087 30724533 819549677 590051642 248878710 447437092 331126302 561264578 541682189 780475740 272274932 915537642 407171239 14834528 989162553 198242012 876865627 878257211 266960205 843922505 92782051 419779940 224256670 776164466 66351716 650326528 958292409 758281171 380462182 84634012 728782510 166846962 6041908 945265303 814571284 659740881 217052962 382588879 870313711 755003402 164340341 280153614 289180379 273836597 108883027 746193175 908205089 457537 724405424 279416835 716593933 552872488 968335276 75885320 458149883 118793062 517025371 267544072 522446411 401505873 642661496 579753104 991204080 120314747 120228990 643440135 514741353 682071333 25752523 99257626 580886726 826337018 792630087 365039269 606253663 187589956 842350245 628099814 712694735 497002041 351901704 718754566 192116874 655115788 607072222 743158335 255869668 655090961 935854394 183285338 249351976 33353125 104911565 951551632 229596534 199600989 480571880 323815834 244650696 992381651 265106891 757895388 302672282 824129290 247502160 524480123 608307523 458565086 647968462 132859908 20705805 89637695 375071206 570934778 170884236 792369742 183132594 809645557 818984137 931905834 565207078 508171292 738549093 233890027 496171753 771386319 916858641 93628839 184005700 547472399 522838310 172279146 599542180 639413293 667798734 583307166 804287969 859461662 523584096 357628154 108940896 981475737 438503474 688894037 248880197 977509380 176419339 836532847 404632831 918486186 999628640 763520401 314904179 968469908 384036388 569638405 847181518 782639584 630337813 194451468 554793201 288029835 663395823 393484623 415601366 119742672 486726599 628953158 312453675 351053948 469108977 125338041 263154537 396532072 624285921 228850009 854641738 121877892 352534165 777099356 570360115 389550309 433307938 501497429 603761471 258719566 698898307 863903720 407371157 518936533 433472061 464308716 169931889 521036610 773355748 283669117 76062090 667183530 565338034 963630141 295716027 987823910 596153278 852156693 266675384 433594538 459965233 960049923 533615108 454793809 178331322 984405563 252241809 168272319 246116540 351086992 516554723 524762137 323654206 248575569 902414834 695382806 575226206 239774252 656624993 679510636 245901250 791609486 380916741 593028101 859209844 187700023 207298056 669125811 383699352 498535180 342555403 806461918 694518398 156012144 918847436 834887034 679550562 501672966 630278899 9020647 924237341 963864490 299142007 984722507 785100987 805699894 849736890 90921013 247012165 408998986 358965870 388256792 568868648 70506679 776974299 570133891 307566139 370506185 177139632 724246908 4383187 799225886 39147547 424469200 388342573 324439007 747124215 489279325 952521865 280228077 336806534 770313383 802465043 161400970 695579559 181872752 285387021 522864398 34580678 760349584 794847463 405292988 805050043 16844393 805639486 459527424 925171630 623652641 256079426 738894777 638918896 16653539 192771321 546944390 324962059 607486276 51350560 695971206 215293091 458637093 113732316 508153581 815787534 863551268 745902958 596167904 180552736 381765593 380272249 246314447 953132369 202156627 583457404 940991324 282648503 886383379 410501412 826092273 506969890 463411048 770069807 470304020 752537053 31098169 535441038 751212482 726463708 679262185 888286108 613237712 185253591 509744838 541946829 97971840 237102816 729131582 364699012 629616601 968311934 774046487 585051588 92372273 112049204 95733977 845250861 992367894 273002656 158393430 895058551 708461862 473295181 331835415 511949462 619923182 439042169 906294545 818505530 25072838 301700864 242258582 857925793 871318877 384751653 125129828 148882336 944322255 804020976 235783269 59730662 953989831 385400123 988489474 206898746 108015328 714462931 514483537 672002021 381609788 823315317 70612739 741996660 820346226 935309387 745081491 788692659 15708444 897192523 283352200 330718040 133290346 361791094 497743563 521078178 585293651 877474997 964539212 910301808 49262952 261334897 514950654 571483215 80891474 911289617 867991136 518813323 333552442 891912311 950708475 582585018 549209096 948689309 306383456 155314531 753695041 124722305 246310811 611822193 675943483 305369152 762804310 859232588 648277446 308023286 64139966 858449983 236702221 915516353 720748660 323929163 367732345 114555397 822245946 884490493 256654883 305716796 746661934 798521827 130155034 830164110 680680867 902957884 395763575 141651704 392036901 260017740 361578146 955385960 557312627 407770719 197853702 351093517 682689129 404802630 359645534 461809008 965889333 978366368 672651349 967399275 369744471 368664832 78393776 182529094 778406310 945037844 171840715 135439252 33482722 805386744 825449940 926863107 574434479 631949699 653204174 877073332 169632246 179206240 805900300 61339102 506114840 481205088 105813353 824848718 654597117 950502912 93680693 100873578 663965080 842418680 207732378 59196734 849588177 468549924 910294104 462172531 401895247 33633951 72902199 373256792 380518995 743272850 454975241 176917357 679039041 815077181 50189716 133033910 15344516 510365861 233194844 806265992 914041396 366640708 47482964 856709392 11210218 974293131 696791265 393988878 747205374 980113601 405980133 72239919 783208794 239082794 738524935 494310260 530024400 46220423 219476552 73582681 31039627 148551114 331311719 224781821 734848258 302441951 818291882 351468593 819927619 166282529 486773616 300460653 717704304 181894810 885344715 165566781 559754617 605460185 244297762 754419189 705803230 3255891 360868075 306855034 769319985 822452995 371452047 721052996 474452660 42253136 186296 90790629 764786791 194105601 806822826 359500707 755306183 925020145 32390912 809878054 822413955 709359796 596835765 753391974 885009142 517127151 702628883 147566024 236333378 800619068 443743483 946480128 350235958 295590736 53900703 788134853 528263043 385378037 220508363 745951273 484631219 132917370 997526964 339273020 419890856 66372720 922914243 227939833 653353421 931271723 359621684 409488682 251350265 855300657 348782200 225932995 556665076 153646290 994143942 989166665 20070005 546127480 680689317 837806027 47246103 884230669 736841254 318734016 149365394 893603053 665594894 746122457 10866660 803457445 646457667 277537251 229252342 133040420 697229448 930940695 336898701 467223163 8674414 265731871 7703450 679557965 909074335 400387354 750880396 186591632 924773377 211472783 806346550 927760031 403557021 325186569 825583890 256576497 249031658 899083150 152041177 546696780 15336706 22452278 480038343 393659145 476194101 148333032 673750778 371397187 852006383 950042826 669402670 300263727 375542475 797450080 59608212 133289588 447516566 386279008 376748681 111725847 984819849 20556128 355316647 866796404 463576858 613966665 415316515 604238137 219388446 581979496 937219019 716675060 944558151 86113704 378109434 493662045 717425386 924195354 473326905 654884467 997088063 715661245 280390480 583495495 18428718 742545334 978343842 748053756 626697437 711779857 794628446 256355560 1323152 90263770 360719097 540865927 615569551 524666162 42755904 377727975 354855873 624150190 266265051 994063674 704901810 325945034 855686167 272980704 143416057 490102390 372820883 673644408 516393805 199590681 49718296 781500147 519494242 587144269 199935300 59188591 164500552 831779526 756933603 715267864 317930069 229261175 972977255 811227713 677831761 150651389 123414865 820192478 638493874 183776352 589592104 121061718 879898450 817728648 833511120 226125706 649141148 398731544 635113859 55230082 241631100 713283232 508365822 1250376 270782187 742136399 567115939 512147776 388062324 595770293 581373559 365977919 690727971 377865246 48671982 727109786 527500635 195649211 857537200 294389026 717760125 526122729 831953738 341746436 7074938 800006484 318824331 262646350 895147827 947198384 676448168 753225623 863568315 331088865 283197406 596870938 383049607 525812928 306372186 667947998 801882683 950038616 637820501 825107491 206336783 757482749 787718333 635129782 498048971 361908349 139179470 108939900 413823350 643630913 282714945 429823811 144483451 981976603 864200848 378895849 419871988 586393243 242786290 136640239 579560377 766818674 959228883 297716261 980956334 364096004 146832794 288104632 655684261 910596763 248392702 951875043 957699027 113382482 45924207 605829256 956779863 397685769 149941002 745926216 396634880 192606549 275272720 977196725 485460447 578534615 713635842 977640845 466081512 171613325 528530994 685642653 328221150 513986497 215831195 884204065 420799660 147647056 756868877 812610978 774465665 731556404 855402136 581174298 700214340 325706426 345317015 866321963 989611520 490216445 886606078 618336665 550298483 376538940 849441286 312326136 35725428 447819546 631135090 711325709 158695788 369110568 663780686 169141482 344733369 636298277 17951882 153121547 318324721 980566908 563786248 330327686 471639691 944500362 795005917 820311920 7821192 453750365 421884977 277545772 329351389 907476026 792522022 479626422 312143499 881347350 460384874 344292951 588165931 45960932 275722616 516931651 675587407 797655998 961726481 344294093 61834365 730167281 212748648 470173833 628887845 924030597 43404132 645325581 228081687 78157918 971290600 554811164 193143221 373681427 453549479 168773706 728450731 495156511 834978644 170220951 759879332 318672457 597377937 260975644 716257345 221438726 978983598 70713105 278138499 224232237 143366109 651597445 601443992 832423905 255601388 262572202 822196811 43927513 105662216 117344410 921357660 130515249 644474687 189824966 574151635 251935575 104793206 258437930 42513117 143826994 489957188 630053732 849027281 492036717 71476530 347513575 537722780 440825605 556931317 505958350 433647599 877404465 502274539 314586436 659586389 441811844 565210096 649625894 423954769 253171419 212036024 166070586 975569516 419530090 938038462 83352694 388727017 488343502 134200977 356310022 969023137 359810973 819936277 639423668 801732078 542827489 813073475 316943783 423308896 475534866 131222341 698318919 99958101 887434951 111768056 751996869 578060463 680259849 432963097 648062733 953373378 924997077 559061816 42301670 580106403 580574917 140851357 40696809 57295297 734934055 795694640 5229846 209206954 954210692 113469452 239823854 27672980 686162134 183599145 680326181 408879360 596364404 676308892 853869602 500055873 883916756 118622077 90802522 836386143 892404384 123571520 79017923 995658742 464046823 69468669 635449218 282741468 642849139 114071910 847438172 925313329 150356916 133916480 35875721 186217637 473419592 679317086 806762062 126287440 972834220 226878704 126648219 549478869 663719326 909243459 250184159 264811069 532791283 413218172 176697866 903733569 63923467 98899030 539714854 716101642 853081378 456857240 497863907 840082669 302709353 265429680 90661999 572175603 553635688 714131733 826206279 197765075 667337257 807401682 218501497 225437460 163070813 650343902 579047099 697126347 629171185 562579296 259112030 895075755 262982667 911562149 549420300 722886962 185801137 906984526 906108233 474714306 313337275 990141095 485901474 255296870 428473708 346486289 647152386 279204796 861333526 774700106 886411396 948148793 511996459 619675074 292987319 571325627 704776418 823897111 657619668 716937450 947518402 184282248 245856519 897889626 270008619 175471537 653021003 779192808 109076794 703956714 731094398 728620197 347703149 62739835 254561446 617467724 93329708 170363101 825704209 3335244 41721331 302733445 179534389 968810475 675958163 769454218 226593674 166365972 580482034 379838692 714599453 797781691 504769973 402457666 107521101 155327548 412926150 818493542 662995291 705806942 947584424 334220661 415156699 223225219 617409639 2913324 506463131 213577158 679679354 475245395 725953764 326737076 496988642 230687465 556198960 525281299 405769003 833045901 815798696 484717137 464630339 94687648 424732672 515016259 345646699 256502374 182365151 768141857 659216220 484418094 555697517 720739571 711613132 618238277 862101998 788984415 43710571 758871483 205297015 723858968 566150243 359457270 623560382 270018034 153828918 289950821 706496462 287682010 305244233 10116834 421304059 979632732 412312951 890677751 602972252 416113841 590940744 408258780 241271981 448414836 972212112 822904975 895291340 633624478 853109095 184379989 210947851 726206811 696580203 909612857 611086116 219376327 951815118 198368742 112875048 772077744 927377796 585459571 839729745 491670203 241125498 710673068 922464861 608712174 982873794 838216539 340118890 276927638 618397361 212473619 178678325 951319403 458712453 702612769 261428799 162581214 379284925 388513595 932302754 138096848 616326761 193489907 97199796 36922921 905172988 277545526 222316625 577039422 374831942 19447933 492033806 880123508 617711599 796371524 769177602 801703156 422553274 972131459 940164923 759502420 141696709 252601896 224404462 811566271 29222469 212405627 929625314 60777593 118780230 186167749 427371797 957635434 370766270 157597933 888946252 637044581 35689937 373978262 367918475 409869258 796937119 125952407 444970725 239716866 521833554 997133695 723865294 476065353 133322103 661038458 694295451 687346332 320813091 40257182 140502747 624712623 146400195 494581800 950932793 72889179 578728305 227227125 852591150 965443492 686917326 554835856 755196776 383071349 194883630 943411816 257477669 553107036 151259127 352053265 82356405 683166703 252863804 141865197 467065535 679727757 107416570 426560160 55592017 505623557 977007600 89785156 186274785 764309637 685879673 371727635 721274945 629683355 756880121 428442862 202952252 930386256 707734049 251699739 723042613 8566866 423349738 468847468 291753739 547644498 388455249 779777177 783827063 199245936 634405961 745406470 971953322 743096622 762480619 871083068 830218810 238000482 125515977 963208753 310670700 702906975 764830484 242218136 569509273 583082553 349508103 844081876 98803504 878753065 386423744 138253287 965871734 648346269 397275703 130761350 55902732 520984920 310250971 962161533 899285484 72468608 669292619 397883942 449648212 729073019 782707246 981408494 437522797 502903615 707867723 831819569 93087820 894572911 973080727 770574808 402894901 139309900 282121459 594431102 201007771 305261726 263085223 88926726 284650655 925213461 566461124 350423850 444837210 811081070 593120102 474303952 557427571 558960307 777288442 299100052 104261683 920976398 855771660 681669192 171325818 151805033 89479523 207861202 279837008 420198742 110257009 440815764 28574089 225878324 782250063 94561647 382493480 318486053 106702781 288735040 808283825 691885564 508635304 553181533 383853104 510341975 9589196 313947578 62709550 47188112 611854676 209809528 674389102 602933136 710166143 434815602 712232036 309397005 560278800 334022374 935446125 937863669 633920000 700336261 277564195 270192197 818760578 526370481 232196867 663119551 665594615 291755197 6041766 283329073 622625425 136028952 593116951 377750658 487173147 649235985 58461354 189682573 507195342 813366997 923471093 200186377 364947255 78417127 486330162 754608371 879065193 609478824 639025929 487612368 853250336 689764813 396331025 101449755 466846251 151066279 633463826 215165090 334188353 648210348 930945607 80196190 671401410 100374265 795629317 106370779 394007204 602415665 776280958 939880079 58822644 11914089 751748970 713989601 638193382 198420421 241693 763400797 664309198 975848956 6514270 696658475 948417492 600554759 302946368 798716969 917841301 167797885 247568900 530695472 83073123 780852006 741932869 145874609 858154915 351689956 147089306 313224577 28726450 716458569 575264203 232946345 791174518 877761645 479335207 262520257 805475937 120157809 229810871 222493715 914926605 507723223 947562684 655918211 587415855 749362972 714570427 684035775 798595603 406848379 304463509 276340727 99022115 354374190 530729948 202679648 468014039 65959538 590061854 261487988 296781578 897233025 928901562 143679641 869634379 713570801 946543763 400213261 516893857 767506913 723861319 59140483 393781885 850625267 157960686 311517882 644975246 587710085 744428885 989638498 817477895 492786814 591939454 787778890 631720202 992177573 851553073 967421951 947788449 697325641 807959160 559040341 484353603 775491219 296933566 549933801 134359241 817122566 142891816 29206223 97671788 966714878 883971115 207639435 929721206 874644620 204178762 623351924 737245765 479747447 621798667 983105183 980725259 244283000 242482376 497554871 201513679 589440363 950866438 517776192 376721641 342387260 942440989 59651228 499994919 487039528 3978017 357072308 724228305 265418144 598888531 146198350 990673932 462330770 740540604 514136042 34560521 320491030 694465267 564950232 765343212 56829887 363733434 965646068 125680496 170304130 297844080 56613330 724343559 665591326 658264084 274150857 41206922 361014088 590893534 836544597 488292691 210690225 362760543 658526596 421393485 957302651 345023455 741135800 114350493 447314652 592173707 416671398 564021924 149211570 540724828 364396280 602214931 253432929 331872105 386874624 922408072 696284974 799948910 581901110 831855849 562168701 747504685 278290555 523396776 267947089 84696596 974473201 710839204 10811701 478803240 734368200 793450171 932070909 316469491 929875810 40561798 602422657 470649091 734990661 658402274 239275977 580614325 210588739 224143163 700358169 507932585 552808437 90167958 417394848 265263527 287726223 28691710 996709689 856511256 739246742 356110708 743902093 329866390 464844129 816104969 48899585 827178324 559674112 672368632 693429746 13145372 823826403 630911739 50410534 47414445 837924057 347104594 69272559 789055441 363898116 751046637 703718019 658232840 375493376 381076114 322310631 462039162 893360003 337606875 875198805 50423362 942963645 401774849 467835325 535173909 695499167 111060945 977311514 484632551 372815179 205838293 615078792 838658972 420707454 641118779 259722880 95591424 395344399 334743076 940681981 179917727 652128576 777810624 190844318 848322679 273020212 193386231 41549685 77704316 781740028 377024825 296733572 640264629 372523206 71930758 456226800 16848884 496655958 213266397 170571997 889201753 117838902 125102876 433295076 774979155 321063461 477914724 872510624 797612378 802318327 436306287 819277861 890641603 511774152 919071395 412988326 174942882 244682804 132117748 890885234 93813370 698972157 711309531 70674900 601426862 581616526 918206300 435327029 186787258 10486517 227301853 839937234 399346334 341399541 60513423 574956498 363363440 385934968 335045985 530606620 879930062 427393964 820381508 298143151 291380836 552540308 770744683 691072027 765383925 973525241 947975267 398035764 657323315 341592696 140389575 296314210 938203941 372529061 950918849 915166882 997331302 570411132 716083790 797660192 559742893 996155752 954793772 538012385 401143882 403598433 976847727 451603573 136495849 715234134 228802169 164962851 339365685 142381750 480969611 452897054 290088874 129899479 578128167 74985296 793274690 515254395 412111303 744002881 999077304 372514423 769383686 727109376 432449454 952763272 729523004 197940003 454153186 429060819 896931026 977310708 485940563 434301862 910298267 427176203 617231450 592948343 685421355 701858475 947400303 540908003 455741144 194541227 987473501 661051802 946500233 636706799 519265902 877874750 905573674 740097415 250862411 566723922 354396506 645675168 863506973 552697495 794444640 94098008 685372974 230402798 464777286 602141951 514158056 498503723 310058580 516113419 770876090 193778144 854716083 683427190 208615565 820943435 465894959 177541492 803509283 382053526 198324734 759533513 392893115 611027243 258615446 537767279 41035260 834129530 899686712 888311649 963646194 217945806 266294117 333407593 635844037 201362815 441813072 590846 3686372 643340623 488541545 712907587 138287970 73294606 282655579 380279107 762789815 517314596 245871048 82709155 762747147 433440115 777427854 124092088 748571006 597538310 350545689 905315433 376474187 937507170 769556575 186172070 332505449 395667825 978048886 777122845 44828035 153215155 507754685 100006332 768269851 517640351 923210047 971636010 394387943 716358177 944404799 820134220 972125713 512878628 56463791 887889811 950454597 633558520 780653179 223675247 352312114 101197240 661685098 42864722 113682709 671132825 825890520 781261563 480001405 35709494 230884642 759604926 768652347 919940834 359380407 21348233 604822602 628086592 104451659 49859799 364102589 292958865 632534326 886121198 327436898 921936161 673382134 678756041 745907457 525974473 970705169 733695996 838508096 724083406 564698891 545335396 105285994 100301179 588965506 493933690 598510693 230118585 348855814 254734731 829838173 605871122 273676736 922994381 932568193 763727434 377503776 213514270 43758085 996514331 405832558 236900604 418889558 445717779 187795183 964073998 941779729 92608797 139165040 866743780 188060111 970256485 644095854 827977531 364696223 847056792 89842236 362715114 8140087 500086472 445644308 204092123 89093858 750256661 655908711 577062129 822323736 925567104 846738746 654052527 995877092 35378897 238226618 105002426 766171306 913972302 307738771 547264 88391926 715360674 212295056 131635830 927269839 354927606 764262212 131374850 657337171 90576132 764462973 838928966 496685491 560265707 709943266 342638705 453684037 299271828 255375112 558422719 779240786 363990244 934876112 273567715 552491256 393098388 693882353 801183173 242335982 698599844 191221609 638639281 893396978 446803854 865635789 801706717 928005723 694288003 537337460 676513437 66557911 870299771 145235618 362678505 939642307 360305151 871190008 974331689 907398092 769588603 612293969 404447535 407994630 419816235 725468706 288617030 880382639 657166505 455285677 497323364 550461494 19348299 93138778 792529776 130836022 500072859 65867770 651032105 564154385 109996350 49075988 6403835 236670064 96109524 373366578 950646885 514046193 756938884 358616203 191792398 585740695 282217721 765672136 965836760 603014586 508500117 991271092 336957530 166048086 698755001 622388081 280723566 540638087 176964427 745465045 949847589 783235846 353300 794714733 247721416 70808759 677010697 365644907 921034611 586144352 276980866 456162678 317397401 760301839 702983422 470335281 933159723 616945436 433958845 666628583 250205672 438035313 883207656 859003314 896214973 931947726 451010 129911332 273521007 232980811 635429042 793409868 462774506 448708662 208005625 342506478 764871028 97315343 716957045 54540722 102222636 185686637 896765944 190150363 532183109 714992739 811617363 431705257 460106495 632631172 956875245 906581499 757900559 332824203 125591007 843349293 511469714 451063622 922008401 659461016 758623760 785085427 29222380 237373573 25381303 211155501 341631757 562087253 121608440 21787551 771383065 773510940 264400250 873187461 52346151 843079488 330976746 463647603 437774092 463218539 864597656 497664553 266864330 509683257 82864926 77800304 54423177 182231353 427120970 797443128 182698963 267136803 659517641 365896633 399400185 441484597 669061066 357532115 210294177 707027791 189362789 984565651 769446957 520031385 984049862 676609392 484358262 506809544 917556678 673260654 45030609 689478785 739374535 624968318 858756278 877175423 339998663 762573 918994711 907322962 386269979 202842347 857963232 581866559 758798451 317202341 57311039 545934734 740730662 405258925 665020089 156598 337628648 39017710 55616478 621116483 946906855 841272117 219888134 328581675 980908423 114712545 673992959 738228284 163187205 386162979 618521386 66734988 113973036 996759555 607952057 553899325 736821807 628504929 104123129 494780293 284996131 119105931 431683472 521553003 596808528 456230294 983377958 963169934 556854211 728975028 282745703 508477081 500851183 233073181 41615822 108151711 890653213 838075169 531767641 811116109 767323959 248883604 796811941 570010891 334077981 646234622 886749900 516807140 341858961 98716094 543333912 584639924 899801657 312504000 816235969 691179683 670242614 989894601 906953720 972872931 542299053 582803594 11291629 832679131 954276057 219850683 299909468 666214997 828406212 742391059 124027782 611894978 545893165 747063295 770882347 602747743 944894812 876782837 326368987 956176608 148798159 582150490 988113686 80720809 24668838 138424758 482234399 683817682 666552593 54133396 859609710 26354326 928197215 525912194 635850691 193248544 476869157 516534083 48912644 649208915 818938144 234046096 493635556 594113614 306441667 526089997 25868803 460341266 688034729 643724348 34827528 513315684 376885299 736289935 209321373 1202799 579588581 630814888 880102622 647825176 684713271 561114279 950512694 980419880 114895423 295905461 569817619 689776916 685691454 848148793 966342880 617971573 546622747 359440290 539337860 287650226 815440046 262020044 543140480 721726258 22241455 973619264 548912772 197075762 726128417 698121826 368491319 526966075 988031089 92330850 919347781 88999001 695178501 131015270 297634577 450194521 406423325 732238346 568195612 511570335 131252046 221695184 510937706 103518757 347046757 291105126 981548903 404232184 982620981 800023630 999563863 471907186 203034513 398254178 249857175 332335435 928279308 31776906 597076648 719651513 666469181 355396440 347759429 770233065 307287280 787995043 970624043 298186501 721023048 900325075 505597404 449629495 905224194 160227261 64722996 95832125 648278258 622843871 174700107 902174912 341799534 123290511 178151229 970484966 890360083 385337401 86351177 356772866 915165148 978509704 808045085 875397682 485832668 831735198 732185576 629175527 290361778 874788767 879494739 660525975 563473792 965600756 826354527 237301549 189404066 20197083 965150455 237490195 296322939 864413623 792176174 522529027 990867984 571670041 821893815 822719494 761537784 820016896 968510088 292444358 107859050 146418712 423520612 893825995 106511957 887410492 208166429 869312180 294076402 766672300 48793737 518451079 864774 841088774 706852002 807315117 926779253 995657194 89833858 778376246 479609060 248270789 323022068 304874865 790445491 717342758 800993673 421616797 41770611 227691280 5948327 905609522 623337999 335317962 765347597 770454483 151183409 220418272 491265656 927283835 93664203 905472445 637818930 143440830 776638624 283569174 282847100 786553695 575403945 275062241 440177323 674265064 743251711 761754299 166854408 792269849 897617909 225693908 793429679 997303470 103711062 290110492 809711544 301674636 974580229 277739798 575174618 195098748 579781803 549094528 191063924 797065892 476449658 495092239 772746510 634823230 394166807 945001583 366676077 643631389 690680536 906077665 547902486 106985362 2552818 82647593 359249237 735509138 28757012 596854760 243890243 790927717 864060090 161612641 46907481 875906888 502365283 394292097 674033901 890139935 102033684 169121662 976376169 840914017 12385849 15457741 245706830 489252833 30543021 897094224 610507223 225509179 966289621 613435603 899766774 531467302 888736208 811689335 809460752 807486212 631100141 474256718 90094570 40093286 837790927 792206480 631641728 986697067 947969002 524448833 675025350 973782793 926996690 537843358 561300112 591620693 535976289 770789622 215162585 458001437 944663025 711188507 414592392 915458983 476898340 464989359 607499799 732304242 871684839 471006631 877251899 202327904 262398831 873382183 748882405 705114657 622773499 952704133 370233056 443163219 687872045 262261295 920968765 806907723 351784794 649186097 483562251 787928313 289838830 117829787 902423947 963375114 255989142 426059663 603255233 569743697 91370710 527374688 679074763 650731287 387582462 227386656 849679632 744947520 554291704 134950945 226664923 816352769 30723655 447164617 360541853 136610069 865200763 882875603 387347468 494249716 378253602 398493694 852151485 413299130 770106178 696293763 895102322 472322018 487322143 652027992 555233111 915279227 67093553 823489578 361959900 199515199 995171434 57133812 768176141 195519363 220210761 383946201 788908976 759742335 767654190 141903319 8863227 555340217 364231758 123814209 561320485 745140448 146234269 126035233 715826910 91762901 381572607 41681071 995734500 537058596 541670743 647160022 721762846 335703774 480324713 265286239 975475948 983096250 281852614 222866519 570559714 336043566 407417269 645101706 555942448 325940296 281125708 463201917 241418038 73823411 455502857 317479231 860648072 193294550 561544116 570287567 796242458 347157743 968349816 946926342 571866788 205217928 883908214 80286814 758992035 939446756 680369812 161977949 143943603 742148635 550956069 130067862 420508285 220149145 450013856 121549364 909027321 997450242 801069351 262783535 289070306 710950825 182089105 594256019 639165771 503305338 166844209 238832707 277958253 254379072 637817459 658934552 929636803 271292042 602596959 986715041 412445172 874203959 130407750 757070752 694319833 466562755 519570249 62556008 86266223 958291543 580142057 672795426 774069045 82775676 902366842 389631770 66541443 486210123 736303966 105284995 167046410 621824643 561049268 957229799 535833825 764700161 687033945 986622840 752487271 444618176 379222597 543719654 963389394 19344661 99956605 866531067 594095924 508117080 37720054 366757804 302629051 565445675 397439438 389007634 637480205 908721623 909497409 937970288 535834343 504422953 298022117 123341454 345723265 949319551 73905600 386080320 571479118 256064217 492764829 2356759 635798203 915384166 305038550 27787410 61400158 193930647 367929518 116897556 974075984 958707641 5422188 179490689 337556814 974129585 571268096 915008028 445742240 758217557 128840529 365674774 832258712 275055819 975999332 561906707 29474219 903686369 679279254 289049386 170511937 321592541 352163940 688032408 482265479 143618416 332908282 688102235 537531953 724194750 326550322 236581996 693714929 493675688 403070220 529157809 319991245 919965574 901455779 535858080 419269833 352718941 65113007 942537751 721837724 323506244 731686621 413211202 706582870 143405717 743716736 822656391 47729242 3221359 539311214 959815297 405361254 277454285 87579723 349615911 913266596 873134967 137494192 420824774 879041692 615048782 455577821 586608001 503723830 559509416 971740472 772091110 38887229 957106294 785088112 251164822 501952961 826048907 548577200 772920841 926817184 716822268 441870451 697324448 525774282 266026134 600980714 807579141 204296904 46831683 103998879 735338090 726461963 77238779 447433456 750913548 112011878 645364347 206891349 761357539 835075614 294228894 656314583 884513219 883919384 268999524 282833256 952325642 792395372 10759872 565403460 893987269 496144490 934907932 312516323 155905864 390756773 947129879 271536121 866940098 754401516 145593312 855417044 192912717 14619746 124839930 713704776 984170071 712608042 614911975 339165274 134819131 374109857 762636220 938322756 325071964 518019630 969274164 145087449 148457875 263508713 908758818 662787027 449531455 180690044 82403288 45245175 356189890 718973557 388576276 509274667 187898794 614217632 250458098 314129184 87172522 43605113 542241581 495246211 939874318 195298337 525569099 863238510 413296471 795165058 447715280 72603949 943868817 630514836 776509819 987431444 950304804 469744094 886135360 992696653 471480517 20447576 171401748 447540098 684647874 184289279 375352390 574807582 955749403 991568201 360885130 466254645 832367246 76403201 834757921 68298457 866485149 732054189 686434167 919783135 841550046 951026273 958698855 14902062 546074729 901790495 631811022 638889918 426855091 974417563 199238550 341127921 510333123 25830455 197156920 797840794 487193922 986128000 223622516 555032586 163199912 447508306 821079202 605068896 742193783 29004292 180802300 125395445 998717654 13672654 985274603 36857471 714718472 535228012 104226677 591853960 820650762 735070190 478977914 62788464 537554597 587023137 208064493 731810471 313003359 790432698 27150420 898580226 479588086 996208806 102170630 579298954 698558676 706413648 792053925 510769891 725451147 77929935 246124886 432170320 794613357 261562992 834809619 841721424 479968530 738652514 758085184 204381758 388383845 859321621 868013837 541707235 109278029 559198207 896742334 846722566 299061695 920992882 234487018 773451984 177830392 6856019 102533018 183323463 349690633 173044515 816473525 851637939 592762172 218323802 438721866 991436662 402016566 784842910 536782943 508594966 914117738 438668592 869823525 981836359 35843229 179221485 509091693 859055599 214010942 616813988 916828505 45716481 567339463 992991560 13778658 553740892 6910945 629705043 364303212 168583715 105847080 133144098 155157920 636255090 905624714 852498173 374197728 489920008 319287989 262688415 203009542 313600824 929932438 934813941 963448006 821984719 78866084 727074154 916023916 786455379 860420435 657529525 514836968 921743763 365878757 48298043 649056676 998963955 604128739 567362125 45420116 325719325 233452691 31534817 190338139 299669637 722273852 999608516 884181874 190675042 422882494 892353147 703662809 41119327 625035380 938614044 296237340 947816859 143761601 590204411 751417421 609612656 632953176 201237950 78676431 675744429 448414021 543903743 424643069 307878404 896308724 454774389 401298525 457005696 373295304 722631812 945950904 20942927 230104908 109362633 243241146 139023272 495984068 302073927 534767030 778218547 130433101 948634808 476613790 995375215 232043604 265400015 236256169 783950251 52977880 996011148 511442962 142794484 691657845 574122338 694599182 521991635 973258405 233195696 992049368 439544013 648164247 753275323 885736136 980188554 532820143 258275862 938103798 369715295 997618536 281797899 961497506 76108368 7685038 426917776 709876287 658783589 961530030 488468505 235622593 930567966 634504868 90641569 251605655 159273816 295660889 950262732 658816367 738160982 211341571 252590480 304157004 585372280 363139969 987669993 737142406 966726349 720854209 712754744 351621471 519649874 554161333 985167051 311747479 585037214 131010408 42531914 403450744 876416846 911870357 56547044 331851586 843494312 319466144 567374609 257599696 284088133 350234141 893364767 254804588 536895456 733141408 382410946 298777412 823364361 385642133 940149041 266363035 706176341 211986679 246455600 321768448 989892695 104687099 193276384 694210646 257009556 812406340 817314971 67764401 585900424 351880793 651305084 59489882 412842455 376817923 289697369 693128799 257484108 291608277 213694971 938961449 13012306 826041910 345389594 527061159 725736980 108488456 985438462 97451126 315134474 996361358 294435693 24074926 204929559 696445993 714643448 864761157 984081256 700822971 717940559 827811707 583980571 624560186 576223577 559891303 316770268 902321896 122603273 901606738 306013997 545722053 175364791 425163339 151626200 15808163 391984512 355251702 701598293 204274357 799253042 47080853 416984197 274120079 889682697 202273167 34980809 787279002 41988898 981793345 715737011 923610108 683791676 850635548 340066056 779829771 947630082 741704855 713078999 296384242 738474418 160875541 829122700 642426928 573534328 595364992 605564835 519129851 817406876 656545305 150318775 47659245 774490119 838654621 349127051 529736616 212840442 24352506 674167 993485424 835048981 623155601 683449852 676827113 399023809 748744446 376877400 564371241 896701794 173250382 814148565 820796542 554576147 191513325 556766304 961230713 547449078 322470532 418338696 442751287 160563630 810336875 658906615 352418768 74926171 376346793 557126178 37957054 173550267 368570995 152857873 24592960 354426799 279069982 716207358 116788664 307963979 504091739 464822955 499865767 555430639 370024006 73639243 187163866 578912722 191767998 928612284 113438724 959625322 741790591 752396532 842363238 939678430 871453296 49243621 43152155 15532719 378300933 898407166 958754069 556492664 965071067 762815231 942312312 439217278 195030605 724125826 560885969 95536352 658944862 329979106 280970987 56924597 59382854 520289180 58493438 160239826 562644638 242508744 282077498 66735572 989853846 965076186 154751596 891461908 960441971 644807582 500178370 169822130 880103059 391349176 593396719 438916367 790443537 11055221 26269494 664585192 12084384 85877453 302993825 726582994 399950580 844797694 391081164 571868891 196022017 528528340 440809581 835463496 105499743 349689089 416809145 642171758 12688147 574699384 454789073 362468453 676122481 736918567 437738802 493280666 505265071 850226045 850734873 452539848 435255853 127785054 788942159 342044728 951689645 744625087 449408013 598320712 287152500 109001037 921414143 895710769 276509028 82118457 481163538 612285409 989403411 338184570 829724529 757358580 423158586 239069413 360598898 241866647 484066844 731418806 770967114 551280467 188131598 444413083 300164234 377362165 772592697 744377964 652574625 775213233 145084413 181806101 358567215 666335693 810785350 749008864 919967441 236785984 476657651 472139788 59842838 110377581 925301378 575951100 472157600 603304980 284099544 853880828 202083295 46642793 273120605 725757374 696815991 648839800 77855138 33627557 404049737 503390015 399297949 559385752 3336124 919016941 472877558 775662070 649705166 194385118 880104310 353433067 104865545 826754500 908488880 927743159 777628343 608695606 523360991 843339267 637426053 121980639 112950529 770497975 625690465 756618683 136389251 261946176 681260042 381796969 881241389 386842845 273613432 617311039 458020859 821689736 547050812 492294341 521831026 798783286 944690048 833191776 350891497 617435295 299511997 566609576 840354201 77871985 164998756 595728258 519145165 936326627 576852689 865019089 161179721 644858255 167628277 476443194 769668833 468821405 524427625 506408064 103360775 117534558 202326966 914500280 181069214 477916617 202045229 912822969 573616502 410313253 385324242 136960486 656346652 147902659 180905272 469175194 519839426 388558644 455868706 14467664 636238497 131510395 906984715 48878471 229031713 384556603 356977590 625565262 323655324 169500746 887389361 114239866 749633841 688165419 449265364 606825434 344426336 514816128 417066473 408227789 16744432 711162890 736501300 565948936 47051467 618695353 767840732 124172412 508960187 210772318 363851581 879429779 105555893 612902947 905409746 115994854 276578002 632414697 730400483 136558823 331430151 760567203 674055287 415593777 573299689 82749924 704895563 146053918 178453166 214709224 962349693 232873185 94836917 977346040 239813786 360503220 608485279 981345928 785312494 713860311 487536611 194705391 629126270 882030841 7894729 119274351 761581335 899841229 815201412 321339526 384981260 306161504 715506841 961809469 569214009 299901891 690997984 954925690 781682810 528214656 689842427 846434682 958060010 761577514 201631479 24290070 98085766 216240293 966878182 704359368 914350218 818845305 736019793 211275439 12091646 612100083 777033787 931282863 247558506 212810914 566422533 531245482 375129492 294397759 716926775 227371804 323311301 999045755 509497459 471162524 826960774 574353727 817859572 505672620 830240289 224301278 519037073 566697524 156211778 473836461 60786917 111126813 910067505 27396725 807376877 269596150 851137932 135779900 602180177 248494518 144945723 607257784 881837883 985793112 719817821 414579326 355394389 641782796 121521043 576699634 27208812 787009552 611009759 60372160 542732341 689919918 126897339 702186182 481172078 807664442 246420925 794438339 837749166 712967410 750147295 555500499 762114806 210662642 471537105 365285688 946228137 780859686 599423802 57836932 611021445 980435276 19186791 500613585 779940772 728542665 274530731 489993428 148943321 285058960 464580867 958076103 111318379 953970615 249021541 14370407 938468248 799722836 65442538 511834447 164833596 875105945 97438382 270979191 862212416 387745965 662179379 155098921 347740960 694444853 328641987 884614334 845053001 598356371 829451774 391306578 824977159 719700187 690809220 605493085 4068189 153918352 907720367 35482545 747132324 212896943 341385358 112707724 424591940 837559915 796034773 229760636 996998442 788767247 616020010 399823203 555403280 733754781 250246094 81206180 822384851 165773255 78000163 29326159 853737707 239435809 79091618 473737278 392720162 947590563 892119864 278290891 845878828 148345212 723603370 614039956 260328323 502866892 410562493 854221647 777178893 478782981 144122717 771455777 466088421 594826350 208201639 21415457 501195785 617620541 581027265 161401839 89364900 20839306 841729741 326124498 773604397 918582644 881337496 831793855 144189606 651363814 403080452 117654541 314104074 916929412 954988205 646502714 427950086 732162569 336320146 222214434 41350450 903130397 711022087 701471489 658696222 449522522 301245484 268280804 448746260 236559948 296569291 95169692 333449456 4585490 869672819 902516674 659144573 572781464 902798416 835406239 865572043 495453888 865784792 306524912 980531574 959853287 799710319 447761099 630297704 693703443 125579279 456439372 276096666 97194451 459843138 803866671 271662034 558041455 889917153 808010981 848329539 458152392 767283071 907641483 799425904 599023604 285700527 150827546 899732963 183148958 346516136 712936184 13626733 308232536 123870714 434616509 646918834 819752575 77378307 964431017 312636787 391552220 504990158 182069073 410621081 281528063 311995690 974748165 106033746 552305758 867171224 535375584 837188546 955583369 435898181 736590262 334570011 292765410 928627151 104192992 198703290 681451798 925779239 678818430 91781357 622766791 243069600 86340462 327984036 746019324 688010572 11678487 871107722 730658877 558070165 847177615 820370775 572301963 994308648 270633491 183355915 128682971 725953705 612047677 427589330 308484430 790185461 770431769 638943470 84056783 139645756 755259242 857831674 175609229 237755576 54310410 106159930 58435723 426866388 318396184 404460059 884691358 854734486 180869820 746645981 795955364 2606622 73962721 908543730 132693047 330875441 932991168 708322992 658341557 49905132 726721669 832449030 974797584 226777839 441124790 987024233 758573312 673709907 637612187 201049598 333627874 274315809 304957443 82223939 220966901 327547193 696037731 741863604 774996513 841058090 550535402 174075694 229149364 590237678 691113765 975678902 458380810 831740159 233197161 984028610 283237354 92078131 214883974 282330275 828059241 532602736 755772336 872130007 240707404 199637961 903149549 366058942 443651540 105958245 196897732 961678783 819538812 274938522 107332821 339368854 410525223 586130493 884034876 333369306 822265800 149366422 222400596 332447426 770410003 379644810 213110692 361623955 989499371 558088747 903366576 159060323 209484482 804822439 48669466 353273713 517482362 912664662 873321818 394369990 915074626 831839806 615908988 623442686 608143969 961827294 668932141 128604960 407599222 758303660 848595921 82751053 642292471 344988962 763693977 367296476 510300045 680171975 584735219 906241977 553454472 134696428 580764149 249824685 417957754 182358480 248228582 695167982 322575058 957788724 405535907 802839361 436014670 156215822 467902053 332925773 10410513 950279482 941257373 194778207 400823884 450349114 83692757 314682875 247850048 715660914 66889518 301575667 555813393 913592188 895074657 904700610 358710530 97499342 158587408 513515547 359939724 875015894 471636150 679998330 477684268 814866925 662344088 609966869 775239704 927450385 616699672 567642188 21014762 889081002 462481268 857989275 157248915 79651911 20212190 356966303 821954014 192836719 270516328 909302291 529457419 97570678 788273745 645774042 437008211 161178681 527867495 481331871 194856638 832001730 415866962 391761189 44311286 699245565 226158218 372300191 647738063 841418231 971116859 554860050 535434246 547867037 632008190 948371063 744960913 667740319 954582079 850915095 412041993 416700815 269618267 324655357 777683816 97515953 510186047 943199471 643165992 136434387 824319802 471953292 867153428 114030780 251330613 433463538 922644079 820196024 162568032 985096313 928198094 646749244 227684659 544265690 646993940 358195885 428552130 960084137 300220388 567014051 448033551 139490799 314286254 916037196 279413874 486874018 449026877 776985124 598024585 337505426 967929236 567572918 946424741 392439581 465892998 978609625 664056521 392534278 229605633 4495185 335002131 857415883 148006329 365942252 716835949 472297578 462405394 112876852 281691124 447472445 418184236 209670540 480472820 882843339 325266918 633527695 28445022 219852529 572523879 866640145 602808205 492514445 504059386 532465908 757944905 706970250 699529757 880876101 284676885 67309229 722023174 755334043 107402272 942945083 791472806 187756320 734286283 735674335 185388305 706101458 203097201 128357683 255861933 8447495 349459357 482631449 243096417 312324144 4666231 300214796 890137542 663595395 449111344 781366899 708138929 449439095 748921810 698879000 395500344 99675935 701827868 204009889 194012126 326844615 849918401 508658557 924394376 643799183 828174216 174536391 269976461 594702203 952239790 380638823 655298478 222888788 630346033 317287593 306785185 200889418 663973140 249687307 545357267 583485987 804411735 429850803 199182216 814394384 385002618 723820599 159243111 764206785 714621035 252742731 631596697 376118544 534154767 447568631 713786134 792819232 616896270 77478342 481488929 103973163 714687777 151952225 973540834 641212070 249780386 499229890 86690447 108366477 786966034 222384923 291657511 105900306 48101761 621495956 129732401 539623015 109096911 18386122 251835092 750263130 883327208 687486920 693744240 342678161 184923420 654890259 265591155 698013828 68526609 641359663 594893761 238610916 892274142 988120632 481099211 247746178 715396909 904868659 307311645 876249064 568488684 273821190 191414079 479061295 342909888 206735328 614660489 877976931 73349465 12016023 366629381 808585012 823103878 59247830 982322968 526714991 839034610 375879623 963058557 849888376 973783531 742832819 412757248 147145677 201076983 66662550 164583735 790778579 191219118 401348672 479149564 455680721 579347788 867987978 594411614 48323371 151353388 843339950 321082298 688354333 108269104 243514428 528752161 975977509 807426959 300746766 484608820 585991976 258343938 434237783 757526275 61887698 862367418 76596667 700333645 354710842 206612611 286225222 564018370 25544511 599566784 637743315 50986511 503101036 825567334 18228069 242206014 660755006 182600825 529316536 229687013 999585075 368300210 99772562 378398810 396324097 950707143 638184002 793392759 569495443 838614272 64614833 783355245 88961354 155561484 323568066 792819267 952172130 714605932 881113870 318098673 372863862 956221106 933068206 694019673 808237362 389480532 355931303 596723305 736456606 757132657 399964155 988222174 564678092 345700976 771385592 764662473 622460095 571992120 971262448 311236940 973586169 446494908 114255413 478999339 725303482 945128414 31017706 952286417 573897264 393616783 780556168 951313253 428069609 3530782 205010763 561373600 992658507 950021133 38356744 953844277 724657716 666143795 362232575 576433567 550757972 202165662 33466029 997968052 945092712 356707048 442791122 834549613 706090151 72004418 547042079 858166381 224260238 123948978 644259672 105110716 70758780 611669656 235410660 856566917 185346723 636156251 139233615 950648269 50247209 269339136 238840418 568284286 452563852 600009577 280238180 538154129 138011597 982132431 771845228 197966850 10439031 93713461 596498620 895548256 610122817 262416940 129728134 531102131 330760250 670530341 159302730 753815783 190440842 164246096 103825318 931818088 122972542 467084246 854578719 611972530 82192186 271166676 710263492 607299545 338084789 579040578 517148403 766689518 510417626 311412886 306909506 192902243 57405078 155066498 340200462 604057682 29662677 572101711 660003054 882876012 477418962 636548303 848124588 500654973 620306341 459719424 941739234 634826364 246525356 59597196 116696724 483480419 377369428 319742896 364676624 330881039 731126142 294058811 675465186 870246446 66722113 328840855 611093891 311289946 719312731 187239835 214751824 860151152 162117821 320109901 651190913 638054316 228720068 559683285 826919842 411694606 982165881 89536394 485909591 95992246 941941090 759999825 200434729 568883196 393307940 841439709 308160666 661211620 421288723 356366554 633739560 654717764 273850734 314537202 697822441 167611087 150737651 972795184 651742905 168621159 443440957 581239004 23588942 871978863 128103206 922746332 211634107 809886145 69655725 645849035 332459238 4114359 535142733 825937273 699732796 64355916 154374080 899794672 242674771 830289199 53209522 930510786 477454286 757139563 890927320 944079869 945475985 352105489 669109621 225832176 757915203 15364565 663570933 940942312 326796234 330689730 625122066 935886511 489483259 647235927 940464946 721010612 405617095 879214640 464528344 451224266 409540903 375063432 277005119 88962717 306957234 383985186 678384131 518583110 66255502 587381366 599205639 821551950 819111968 642422712 437673250 143225654 761297042 258300197 140086854 259303484 119775422 256450501 5888370 790826810 896477643 535860190 570300597 980992885 878705255 634169788 789688674 784992359 127938973 257818551 826454401 7775899 216289858 591918331 88040733 909655118 219066147 140799501 204520131 942626924 783003570 85322796 382657682 333380538 925953011 858095183 159582613 93676752 742472006 401766543 269426562 753807383 171771405 287433528 775494858 283413193 544325945 602262398 95319462 413660046 355446317 815712752 927881830 571499830 637445502 784028757 221156906 575107555 679813456 533416781 532973081 871599049 339907438 478983011 666754691 976516947 299364181 70297549 183455586 380039125 571362282 575671416 841167497 860148216 900499116 442468501 220592317 109425677 792822495 285552899 580342424 749400028 810008290 596197015 569642928 394940988 463338131 612658621 535513155 55352288 491046534 221394806 24066043 395556758 518984041 160154751 384285860 725688764 246181559 869232156 777934486 416764781 187351855 914248715 80019268 266457624 159887289 49272103 467182046 61352492 87374866 504575830 50060781 254884492 355064597 186429736 224384638 69141326 554751792 811219585 930973972 363798917 183764963 58661402 412220602 506103006 291085370 670997173 385855609 981567469 598479718 109176466 661133872 662135500 261700609 535458341 864516273 895568700 952407578 609817495 461417418 822042635 197324175 358084543 878118445 688923077 3904203 819264243 514615277 898145608 409959863 35638082 848510790 908288740 815625074 816129386 535754200 813884964 590674450 366645990 406869621 504108177 555673937 37370712 523469617 925174421 797234505 155919248 209298914 724163775 702553859 909656783 235212317 337682626 823687175 448058514 224532508 246751902 394530590 265467252 355710585 961241889 961449476 261307603 416286780 843323922 140775607 680748633 150337880 165581789 96949824 148853679 387885539 439399536 854468392 786055812 643402180 605170244 909837532 454866193 858505121 323879005 490741571 764354584 284431339 399998517 285002165 252258096 833578799 944662910 836479555 46804159 715172783 949868959 311573548 214227393 93766611 636922032 782093927 840762619 239097459 456933631 289598938 718665618 760759963 504231088 977164947 977102321 485454477 328184789 830894436 935219434 35215115 165065899 960743531 396033594 589089724 566498529 277307058 875987298 279932086 603518306 218389349 789873222 837416206 774205902 106633464 631007444 390180733 604733422 111525880 387993683 770808277 147016793 219453581 830437793 979070329 471972898 972964942 267918560 499436682 677764044 879040290 57065185 339598800 517206345 67965649 973915176 473463637 164239002 209968912 357357376 719277155 625699935 728583588 307908437 808020804 456111598 734495607 99680892 378944998 425060775 740826309 931215914 997084302 31676870 481620598 489472597 217142624 407244658 215676996 510945310 490827989 900111547 767627867 925072406 717953698 720938208 471918902 768517592 486349364 952449174 644005102 398299136 53563980 646624057 530595088 6911314 627702674 671054936 503738093 435221139 370537865 719943727 273098014 348884452 559620025 352082476 483928809 946478717 439894560 873269271 380517477 950746701 347179587 999220236 204084925 678300123 622231316 71662320 489042972 221124833 727360404 43019306 765014846 270487823 821758066 301882317 316425482 209590074 18327567 364038902 717143015 418516621 464232204 877875862 182264875 946810935 66551782 159217149 898777242 38429734 186358482 424442730 179115191 355305005 420212612 580325112 876811453 802816989 94130693 245986965 111639953 839229889 52990276 802239144 137658974 790348633 15652179 733687997 53389605 6206517 592337791 81986021 669687312 11195589 746287303 459031303 604860962 872337933 895837146 254433985 353902170 737712582 348613225 37416482 882569522 652901638 386893742 770409152 569649061 299592250 286948291 64999678 791341062 663091213 789816903 822651219 937874358 166700128 274775940 242209884 802029977 203439034 442766075 805181164 159058437 449774368 539614976 201718836 842896075 56662384 658717509 295851976 785131455 596197171 965608756 480056909 849646344 34591144 225877492 163262195 819734460 20786682 617161889 670687667 495046449 538057807 772296421 154991547 6688096 544580738 430238305 721458384 804401300 117341040 865069059 451145912 849183477 835532071 332681846 595048716 375468844 933796860 112186348 745246609 303626449 402027644 664162295 518656301 640309895 804449502 279148671 109410214 500834609 929171718 290751338 279828915 191343965 592694638 316895389 733628955 925070960 294677330 906699565 302612045 512216856 603089629 763154673 349320902 984746636 922571142 13422228 408055967 146384885 902041091 967881096 313927301 914543716 291726919 172733656 636533587 885429180 110026046 876401496 140334734 167882349 110371818 198901569 579842188 543324250 517951372 603063253 742677156 514218675 619343388 319759913 670789065 151154100 785815534 175097231 321288467 556370652 179046061 401332754 700858233 870567817 363100201 25677570 678613289 163121869 474633775 496898194 644967763 35095677 681203714 594187883 655300309 711421619 370191246 739017200 50304057 567559300 623787599 380006582 697414640 812467909 893623062 950469010 561115980 851653564 386366365 223037098 55083951 322481341 225668335 513937797 545197044 834065546 217955998 564799881 17118046 59276031 601875801 892549286 598129363 781713409 821945854 162549539 664503939 558252079 158442580 703375773 378204174 450515118 947781667 34457922 499445597 740128704 668459028 173605147 441759200 291322129 555740131 416559181 269390821 389626996 435005368 91376485 409082630 801766442 638742261 155244852 169789736 952199238 545515700 202956276 845359514 95397649 321782555 451300856 193724024 616875713 183264139 17025379 420226032 813183155 140234586 510099396 168974897 312743563 716800758 150740843 816346020 502853817 167475326 851666415 603943028 167837434 43894964 618198763 857086617 906306556 532924959 791247038 487287892 109709314 577463203 749893541 779851390 14717072 484358280 8562559 778324438 844889955 403968909 810839760 357737304 404075623 96291013 219168573 661984734 650132057 398488772 447991010 499500725 958050435 336273362 385561025 468135758 134482942 233161884 919209510 190494126 93029952 419395046 92100579 450016240 979327434 230156474 250846785 56500025 161267974 902595693 914734553 844151724 366788268 348317933 574103400 745935146 52463412 702774180 170428077 707120700 938615928 881548614 271418253 682603201 43342222 130862507 917411704 381277255 15787977 382567284 710740643 848101177 516715276 799282810 369256374 331050030 669145172 277965040 358762581 997562655 470467041 696048772 514085220 114417400 245000407 898817807 718529676 390455318 433477038 406325824 559658287 24311012 218363221 435405469 839859282 939575645 843652742 682835034 392618198 731800704 159005701 581562632 776224019 679951282 23115984 855965746 85048685 354206234 25795729 300150636 459925258 214626913 742786029 837814419 199672491 490945063 106315983 762152058 218318960 182939760 825835803 426643405 334804426 694942607 340599121 512253814 563977416 553434713 796001519 532790428 799668334 188644015 59145646 384279659 723240982 267840758 17344906 304384384 713138080 394800481 683146223 880510327 487089898 805735639 815350969 361268362 519361299 642186839 989332604 225108995 968843245 503032304 244604060 5096451 692346054 353956763 351785147 208832331 100583234 275076928 385911444 796258316 410528901 324147959 901816152 247765216 703042882 779630022 580955624 810581721 682125074 28584599 875959110 23564915 336714072 128436492 583860086 482121839 868513174 76559165 338293813 679818110 30089437 527858120 58016098 918873552 781620949 117096869 937851542 984107280 283780960 187844813 666057952 936096998 59097368 360480409 930084024 281527554 51476375 983368142 253341670 73997646 952400602 633979288 975411162 379287925 291201973 637951277 915495094 94973821 56715758 318705236 319298767 314964449 574181937 233505240 683031608 307168092 774580625 738021540 130754314 871011335 23527766 329488209 792367254 249012263 364967576 943315121 776262369 553435308 536784300 730272135 927056494 401724853 596468458 735402474 628688216 44687147 738295532 323024243 416755081 507548530 604781760 869120127 121119688 950509690 159319791 62452466 107753897 177177447 976561619 635517708 560085192 788239438 998801343 173434362 443759818 752975906 441218484 4474523 272398986 462421505 704718432 957405443 80572523 630733414 854477503 445614627 871439747 36877117 603906719 987927449 204948525 363554485 509157840 99543625 846433966 696047390 990784255 646228684 556461543 754391363 828540843 895401191 590349517 98588326 704225957 891699195 597311446 689659565 195758258 80047025 192091932 939471490 259506064 365307882 334560685 371129623 893872541 315344608 423345552 39463879 86648697 741244028 662392805 788307330 717357519 319570399 269672843 596014160 844635016 399913152 839893586 540925376 402349584 821384986 692604897 78328030 179283130 610559058 90128516 419989376 637342391 127118115 572304923 944628655 671171841 492555587 786944779 382301445 868836913 889541034 722019168 271670755 398984677 483481511 680921974 431570074 140141458 63394997 566084684 427278606 846227230 442357832 210447978 256316852 247831556 841419961 684712431 612457691 84436320 442071299 988191173 267009478 106273093 328031219 377150538 18588669 112423869 811900156 533919360 590226466 348415909 595652940 373025544 341312349 214036776 603667701 688274241 388760675 609398706 624775484 430427340 470829209 396320718 209159150 628276036 650189564 946772871 86794089 549556767 588216934 488265890 476811315 915742342 268021328 734266312 876757824 918881965 354317588 112602369 860555708 956580489 554516498 449400507 820900910 620202177 105347098 284377923 906369589 767147741 570694523 947452722 204098819 77251414 923225497 35233139 12190027 77401745 848617676 256844448 955667208 162922522 883476745 560595554 341854508 790876525 573092598 677209901 300733264 972307744 139767191 249608156 528531665 798322430 576176287 15707865 431135666 143814893 424710070 600446982 367760521 947787625 85336787 991068137 321773175 370575749 584886436 933165544 95774610 546360443 938356070 657681039 772552060 486622908 408515564 694811497 136538532 778261454 727805389 209999892 213054161 715235666 160368158 915300856 220756784 728170935 679908712 940258239 340358297 574907580 570322916 123207785 534765829 900245515 971029161 938627061 708932694 979740886 849810519 185775782 935023672 617923189 348971851 149977480 527949006 911625567 661609311 262890750 795566735 237123135 279024923 88449386 792055091 418603859 949011951 445764632 204322091 986372603 690118301 499537427 395771808 712627666 445524245 999667991 966595630 50881560 758378143 736487805 334535986 254197932 81365321 62960744 972681685 653555498 603325581 531120716 568828805 185056802 295076750 776121017 684874200 457343230 459857228 357555217 613781191 102346310 623350502 655715480 869534673 592812963 220075746 133009570 460483352 894026221 661020469 637524919 348196965 40899765 294979538 780203911 213089782 447897447 303673640 6199320 690666362 126163991 898649794 966811121 150197561 33293269 413350842 450543060 418467931 616964292 200284927 838522732 888442649 136113191 670195175 869540541 569737449 591018391 814492199 973169496 543453831 998447548 965257376 906461994 134710772 222001861 235380721 20494011 701242999 739973737 500645698 717812976 873515213 803956775 278029213 617525765 502515805 761161831 470100640 356227150 822462232 293094862 763570906 662855725 977677151 861548088 297156084 545308369 530245899 823317632 390738445 276551754 69622306 884402887 651778378 174156381 36626589 728844401 112679987 94508055 868665875 11072609 97392756 342605872 626401583 915691407 774952752 466176895 275438670 139240316 534350886 705032286 501832111 180193260 998485961 996755643 117615307 367816566 687972831 573760324 743783510 956149899 356286890 769787939 352096421 280140556 39244493 199017674 973655597 683996289 128197821 494671675 424774690 122632607 268110345 308138012 444067360 10700784 995732018 513551497 34224835 102209496 459412111 298359174 987821379 162268472 557638575 391303641 636624767 792223528 187266404 660329553 805110237 649537888 630596108 530875748 390488197 887830252 931740364 72576904 508427364 239394952 797262402 276220484 641345314 960687391 77932662 383838732 454764770 331594127 722272756 286017644 41258286 104797537 982192380 132244747 798270793 635363194 118148805 75722493 306107456 420662344 197246746 580498790 351098432 709880102 858021338 228222308 817351889 956976157 415351026 756776025 682267381 844297950 329442441 974377790 965456312 236126656 333074229 881527465 233728522 201161668 76817427 107622610 636909059 564707641 422568808 411575926 196438727 51241322 124416546 450412237 352803690 274487576 357995682 846700280 962021479 390963973 771461344 999996798 656307492 452886652 284787783 158781473 967168152 968346823 657668889 290838228 75972457 656211909 394835420 771976970 233813926 106184681 439442176 607948837 938200114 968659052 158100760 877358069 432801623 605865394 870887797 183904969 985922290 935017255 45987977 130491177 874089530 128796954 392011196 421797419 615766058 764850076 947377053 930464572 538148410 319459571 51998919 582621775 183343825 22340382 710268715 143680938 212314116 305457023 330908098 367899400 828832897 926307267 893464550 705013256 562786417 51235119 256459516 535277335 377340572 232104933 798138695 889390710 545978426 378472627 138174786 803856214 944989541 989092244 401600471 992259904 186068151 407681119 66219665 570793862 905333009 34891779 918065815 267984792 417005418 659532571 617348797 130755334 920608800 805116593 316157464 838887568 41389829 876454686 577973014 141784038 180185833 771518747 501440068 947345085 500136977 942178205 807039396 48749519 436579346 367323451 941286668 492550883 546524007 544203586 156538053 540478622 986182426 940459232 608010102 460041485 505393735 412138982 799365167 506635971 583816876 41611952 360744142 140312136 437197342 827980560 990681913 756044859 791683009 318775018 435969163 327516477 745439324 532037965 319684414 339402672 86876161 743437717 310036920 295851663 910318007 843450817 93085288 842721495 903143143 993089858 634550627 699492660 880044013 887981899 938481032 339027075 660010131 893637937 960212842 172792451 374381724 30172899 241917292 424599184 91557801 579853028 639250272 655746915 715961113 843489389 723314958 235077349 138399849 786560075 844285392 495824608 419603554 398595104 386996427 59126340 813939455 942933676 267028600 691544032 103873026 495012274 349133230 862888143 391307112 342860125 598809958 755678656 377108896 772940321 889193990 739227548 64207103 594622615 141117320 305903860 973341035 345173091 951446192 787688197 203407712 612370074 524281696 156901351 363148543 132468929 588907270 948412343 362911588 895445020 892105755 283782100 214634791 597499542 292484067 242714199 125813289 132522094 665434499 308444741 181824230 372937463 474050255 754734045 776724162 436478213 681281130 720486928 351321481 208033966 708411368 251082418 156881071 886852305 251669313 767998458 88176878 660316790 159192712 680820498 40527367 73139994 76281287 239428361 138455295 143482867 976457478 611171658 618441950 653313827 5789236 150661115 446547936 77821646 993317852 794019845 607476933 470136005 761126356 327102891 968713581 508818097 932724906 940442039 4092780 887440118 273677044 695692036 780259282 446593713 237739393 351065962 294530274 839582258 914054042 730733663 919263356 416247328 602295379 501495131 109041294 419340988 894769240 778427026 937113296 894724508 672757300 856490990 423262649 184478935 435649451 325445801 382470316 652757138 234319678 888906934 807069496 88156862 283555019 99123918 509322744 151732270 572060432 531504710 68170311 173969846 539614831 514534039 751706424 238464246 882532850 88453063 741074339 332854395 470569926 933323529 308533283 239904466 914803278 754181241 471219003 729251252 215149444 84431433 203962155 225794688 526854271 466453923 431219770 347744114 301406045 670970523 589967000 18398839 753773553 969367346 733175743 239643854 662632313 178257632 104529359 201335812 614829220 291482508 183571148 241904255 206508157 997926485 714632433 448183567 20820731 305539497 638016996 41435457 41509068 122452009 237649192 721044024 229679830 529819681 619086855 870454260 139502170 313077783 9177629 706208748 632501952 280314855 410497579 70318947 872497131 445172606 912100951 345951474 284936087 750970349 550594858 752758989 55529683 164896817 441617182 7131113 94217904 939845574 817495678 609295999 320084608 7497045 594893166 446386296 265557476 76945866 892366600 241046346 222529553 188767911 265670329 854042945 623730152 827470686 878456725 804667089 101964311 89100503 433423672 237527806 897398686 885771361 480275351 343587303 865447757 919332520 938265847 996612639 435971455 579845355 611324291 610472596 425121602 28800420 634120534 510197345 132230998 29349646 669356896 572972340 941320927 18804621 555845741 872266358 220016013 758156931 460356731 783369080 843635832 167640712 862425603 608186985 968986740 65811676 722057374 602538443 380485421 476654849 488540831 736330068 587814992 672439820 900972204 632992134 467692424 470521105 967910105 720927921 19429956 198519100 506917805 958244061 879817795 460768179 441539192 919043714 754210621 24637363 300884112 813569116 573312452 870019429 411411364 790636609 723121398 276339240 205428286 763397022 786937212 976604949 795636451 65014968 462836999 483258490 140682493 328522209 1008188 446263224 82158572 392704538 590759401 13187903 407308544 947268079 583892879 984172742 822559630 344067426 671146347 212337328 566948245 952627483 338979922 365368502 294938092 277784694 724148392 741736817 724587431 185773744 190446486 757176382 617007064 94245238 469834324 898541831 561986077 521264897 141107050 857317952 131774553 939562188 940690486 907943766 726434732 267364149 976798693 241005282 41681965 253249246 898708121 617712587 561783182 818036203 113838452 442650715 392312210 226481961 42546472 165788234 119807622 584423874 880445963 868298673 1219956 879261738 794987451 932553490 508619649 363420931 626201593 202898888 442873940 859236932 816554026 401217140 109524287 610788795 87605001 102703701 166170285 429657769 576207900 133804367 526078919 92812818 141760700 240874735 612266375 825455653 338886112 32749523 804003129 616467400 686694055 651362330 56176287 491442157 686388485 120304737 397850608 120386710 795492901 878771141 538557304 799748148 33665347 751629286 193722040 136723783 728952486 172151486 107376896 420893195 577937847 702894277 445851941 170738782 35315528 659747108 423378756 62858698 92693587 867086721 356727867 135756714 501653717 676164740 270339901 227000998 917468715 733240544 797263392 751629725 588980562 922052067 146185311 754814318 751026858 995462366 608167297 235746397 731439656 634724536 44341237 836644095 502967960 255433477 980685306 490833136 59196460 847893601 1027128 180075032 834345951 765087870 741496180 825050732 701736377 54141882 769140866 993375530 594788754 709490339 165233943 653383110 178554364 401895336 686057747 486365783 826189930 386876969 441763333 427048826 884730181 945550182 129822253 474204301 927796276 827067628 808048487 993961084 917084369 768009169 712664809 965509948 605780612 438087197 474890167 839560401 670082699 986237059 204604532 426009248 462943956 772979058 118623977 603465808 715242752 733318126 581298299 463884086 256485495 523493940 724220631 465668100 693259482 921384351 250525269 837497623 752144695 636244094 639830059 62956633 190128315 716173448 391574656 654089463 917993793 788711724 252343875 133841329 197626406 818830192 585887367 204470829 146485491 942035865 103875662 518690863 404441734 266366698 629249641 612712204 472432141 359892932 69937183 111834103 527268634 537774205 16678072 172076236 777095713 568659377 798696962 891278089 536101674 480776916 982129449 438282919 300922372 226632019 177185861 483099859 304617079 497708254 471272130 606968581 801789527 410744558 844866685 651498337 875052062 770920328 108607093 904519549 142443377 594127521 941119747 660629619 686429365 769319581 840541646 380326053 596349428 819232578 484519326 605846606 267793597 990070593 625476438 220791643 553034596 31770689 531253950 557141974 888220957 847628196 411641977 455498359 239458009 237848681 266180137 729780451 515147346 585286785 947303352 59269271 390533905 60086352 221067187 20346567 700521358 723612450 500666314 875118313 100954680 557361041 346187444 934425254 354045273 489671970 996545432 77360308 72504443 587321066 463034014 766039609 195383412 670810974 684608386 357455120 275994526 250754740 867760180 639735278 251805932 57402879 251972388 259045587 466872897 774419487 258687901 494879583 145785344 493346370 365700970 958132343 732415573 213061830 175447754 867613283 61558341 386261068 723074883 183681361 89868443 338028737 584009194 180799804 132915365 859096313 156494607 858517713 869300488 235736387 144762380 438133588 442336735 71084139 135746969 31361410 36682319 980195361 233907870 683054257 344055438 553688965 25862969 339913993 497332764 39930969 820909192 89673481 772727852 500837742 416408902 239423819 807246919 313724283 438203531 692442217 838912171 950806303 15086943 915231809 280601344 451849349 683172793 961452190 541014233 401358994 672797960 595465357 610964128 439792236 211835921 904984375 593003835 778835090 852722037 571572957 771138053 83614338 748913581 104097933 375787239 250553518 653414954 286147773 593836003 279540506 182540097 391619559 724951786 581722254 871878218 143776775 544790104 21684253 700434942 601357938 74293359 955169374 384437952 321698329 628844071 410062651 732875429 963062209 666243546 754864517 152561527 177206188 965134395 393579532 804721839 401203224 178275329 197663014 67432348 785524860 435646130 103268522 841612108 252968976 624927590 720165095 5435339 546389474 120294642 482715895 355034713 932514408 983424125 641263914 399481084 833209681 938299968 632184589 811982237 35910870 869604630 608951376 176988348 7388782 666035305 257256460 785420624 525756992 906893649 296117441 409354117 452003645 751182153 896660925 830930511 599229476 990647210 153624771 87519211 481860550 501753177 60961481 57151893 925377739 806053011 979479311 250680408 87684689 878378716 555921212 810685332 432496055 805140511 742916409 411433740 185243602 709181630 29744834 966018542 662664861 363067345 789065494 689449827 696855295 700628183 311505373 895245925 715633663 922029767 650326091 529935165 185770883 256361680 553048699 608249719 623299099 695077142 798193907 731513584 866674710 177522291 218050935 30553128 176827148 440836891 37482064 179865100 27418169 204098992 531408577 114817583 800150108 454568424 191865400 983896256 781326018 724719346 656381529 649516069 656098537 435183876 509686139 940089323 58115176 578550114 868432662 348287256 805796128 269908684 32526595 476570406 331102207 405144934 302552051 115180436 614423358 767297526 851528315 322338989 107324590 901455692 374724002 108791732 183756935 387200276 541154816 440545926 869526222 963008858 383708998 375252449 620294097 880869147 42758563 572942258 729165930 716451281 835271124 104719330 148506905 850171619 914296113 959890827 463005890 384655358 950487216 79208671 851592057 42045970 562708937 262904613 988081969 989530881 900464083 830866391 769601457 728407785 778589380 23772942 269500369 326940670 112685722 48032571 971835722 252206298 455184685 975158560 599134405 295691142 295994343 80287115 532308395 296362441 929930332 694836706 475199905 812828101 434550276 728681514 624215972 928249987 957485519 29563926 698153195 100612365 784385817 437654477 395638001 658245921 240088416 31893900 357740607 697790732 174368552 514200649 923091393 348293615 55553224 605517659 105822460 156546281 411030565 228866556 600181483 436341734 15732941 595343762 221500165 723698290 626901548 811176299 365630147 971740993 108439689 847954820 629070695 710384250 808845017 152461290 46601293 924953839 771711224 480004379 30310438 930004952 203830577 502023705 425373554 912531943 673115826 142208212 950097234 793755899 891325572 69560686 891050894 547060681 950728820 56650711 938268564 638374134 615019657 308441475 997024097 994330107 424839368 664500591 565532479 41220151 615574207 559178099 51604297 918533707 486459386 65237880 324213778 200403689 22054699 723697013 873725161 378054087 548593420 879686810 715930898 550044350 257052700 650421827 376674711 621083586 380837038 138690125 251643916 871385471 190229765 836798688 720165670 695697002 976805130 532508249 155350288 486886017 931426132 205814349 522166460 178400286 613065432 197163871 189297914 733822919 236942210 539287476 492598969 58011991 554548036 262816661 790493264 302323191 812488796 358900059 828739491 33151020 791194011 267087557 864654263 751552259 857196132 837596565 478306967 581728008 208948410 483820225 306109089 848889735 116676690 541424671 466392938 750445902 429174396 342138215 63101657 318232909 177154432 476901507 218989762 704684914 748554564 526244953 118063086 524388179 85349097 45579359 594302024 491917974 511648644 729648039 92892850 223949044 919532464 630065344 472394195 464130591 435970950 988796091 523375801 469235466 526969121 857064928 444752726 94970408 17957549 222288822 600166072 237087221 494194047 509527689 441812799 296327393 637910163 399609676 625136923 261685751 130957152 884343826 432281559 51771139 60567694 480364675 471284077 12569285 866928631 220908322 174964373 403460319 641359458 134760510 300499416 36209938 363402577 469327952 270188743 466993987 1597161 376943392 134179744 607008302 227966309 981032121 70544006 597370320 454648208 231956595 348853000 840242991 191787679 391432265 774145518 253142588 9573307 112805261 711525537 395624133 364820648 436200777 942719843 718481111 408012757 71101850 351135713 856431441 571559771 180198852 697192986 490849580 102238434 872298627 703063049 317636137 454000936 480233709 249604192 982665739 559211190 161951832 181255948 866943367 55622673 556829702 188613246 628773548 340504176 540479070 152437911 649839623 801711661 724370809 460058001 845790621 349652624 192094623 842329147 513623950 967873543 643323437 241861653 302754336 130203583 749923462 346175923 483151318 830860512 531593126 428565702 272711895 717415125 149884021 828343445 621706106 181275796 507336454 877655010 715964597 272259423 215837776 159625839 894359384 65465000 366122553 190659126 590978943 210653636 631707288 247571404 874760321 648631422 689353126 874863852 147129091 512371245 925047016 626240844 294898863 916278477 233651032 998338837 25785813 399928571 401939287 151215791 705778035 645532279 112617220 721662061 312438329 225526419 488246741 193273424 592552379 129645849 634337668 562813868 298310104 323475105 688958874 266406181 831525576 940822733 79219022 380939414 838486997 711446284 569146437 989590234 262056115 991026180 650989219 498522523 449091937 917948074 633043402 253108635 784618625 94641451 429295308 542342906 587610847 528505238 344068283 471884562 703771761 343500069 135300863 138142193 360725041 751669829 232931832 505023242 474045164 604598718 225561875 230866771 667009400 71732280 565816695 250019884 954220122 669306541 588222437 170721397 305414573 902719176 205158734 804726496 930921666 461025576 860223920 900507799 641928872 768719774 818305365 991738569 80426807 429170773 805478770 667477751 212002091 704217810 604307660 764500588 919391860 205883949 861652384 528183523 520528700 803147868 104874280 676361094 671685878 874270728 512306392 432044900 584605005 808014767 440646535 51217514 919735778 563435510 890680836 403132770 540293036 337445139 608102640 698492447 230572297 884533128 868691189 377873008 555716646 744171509 208283146 324339464 814492173 269471193 947975146 862579722 192289442 500628839 965120599 796904260 777570565 251824494 152369086 610295061 233780970 780265769 702412072 513161960 112419888 942412928 349607803 259713047 431738859 252753833 560642369 22776424 656894118 740415660 570618529 63194486 335115673 568447308 34401088 337204986 97568597 827191490 18872734 624130183 19523830 900083453 669647565 767973663 491004100 144887728 353763925 934839304 481198115 167616394 181965341 159291154 66038913 461043725 37045913 597184652 478837258 761636347 5481786 596263673 929661244 608889677 303462894 820753423 248073286 13096233 411142723 378457993 742704194 645428044 87664711 174606918 361877637 134127429 259103153 557041297 293424853 473148889 819715860 885925616 573247641 673308609 368390386 210604104 319464050 363220885 894774064 521185012 698166606 65191243 453103438 979659142 345653002 186543922 970966194 764795125 622923897 660990018 849377398 190884659 69951547 437674396 264103338 743236321 982965836 367790833 457376783 872505433 762528067 333512605 643681658 732939515 136710651 322760348 84286475 102752737 378339956 999062543 131002067 66506802 159290418 774464547 371489734 915665067 142932101 881807212 685248321 38574762 241931836 497804423 572906499 542237458 885381163 676996729 342261968 953684371 527271625 123994968 493534463 764730184 708122155 615935383 262485406 382828480 256461785 697016187 393496493 713044489 792402547 481025129 468286673 636002453 132922994 810818751 260877891 808326824 447123494 371797839 553824691 936412936 332230285 189626603 19316422 752413182 72105072 762397666 743153364 637946713 319561686 408078762 997723760 403895975 708315503 336176795 982276980 746478284 88302069 221881133 369754353 524493085 709566453 777367513 263259455 664562231 226087866 610344994 10368144 440969998 321077418 164342146 320952378 736098529 556230964 344972590 607248369 218806244 653442774 730673549 194018464 953938308 644332190 419379626 239100715 492244919 93761504 637228703 843531089 451548110 54744584 459769950 729309522 739016824 76125012 357104010 243824646 987728265 917495548 923902315 449166346 281348968 514556343 856893720 388626045 237494600 612547098 742828616 247388317 447745170 906182720 216086691 758828221 947541486 872224962 912994218 727794029 778638734 940048512 145684526 813341263 16746138 168614357 518154002 757400843 8878771 129055411 9514869 205696757 354793073 999783604 378576637 31578015 804929720 717926714 57085917 247524827 437517781 21198537 920491335 559782157 949851610 785317997 40014393 291882770 783352529 327641482 563167478 149474315 181117827 491325974 761281243 506221868 616209526 392829774 728987913 444061992 706072340 674051919 490175123 299303058 622815156 630645509 484183382 697575424 500818703 78375397 756582872 360821288 661359454 830735403 213972762 6549341 341855528 902802411 484134422 969226776 520558369 516103831 750909566 332876551 470374449 77552048 157491700 896263729 310968570 473899463 248438695 227982804 584116438 847572226 893569582 468294649 229507206 117370797 783036401 381597775 58408388 526491355 369989068 25328012 150163911 257412955 91500143 48934161 301662057 528908295 639890064 840456762 606197961 698570956 168476132 988007376 517917828 759710085 197927305 373643228 880520911 398858826 477115405 321042924 69911449 350983736 339392409 941244630 11213386 52159384 316669433 346842192 562557447 628681563 420897068 450811850 61704258 531765682 310618693 602152262 417455736 386808417 820737805 630021717 31193199 943454783 217705369 394761367 158217571 887218004 746627966 489502578 754050261 499539257 104354865 25418949 645217762 686187182 769316887 195744426 339357991 24894129 580761599 634837675 452215331 688478750 368935926 36200889 296799854 538188615 878879563 41212835 881775409 604026018 7942077 224776296 308443372 59685617 835207058 419965855 399109278 847596628 66347661 63338643 708994974 347255341 603119022 685079975 87637171 578510542 910237965 614008256 815810647 145204414 764901419 624152760 932430103 746442038 134269393 771566346 901518929 522142877 423320255 878374157 584146064 401818968 516213814 749195288 381692021 600910797 669752030 773261221 285665860 619833501 60802357 532598643 125969126 757514257 257046940 739909676 307479429 587467290 458471041 144430470 372014594 281950243 550486147 648100947 540857637 314263418 863952549 160633500 240128202 165681578 940391863 166446799 613689441 215484060 472220121 21463771 253772501 1038703 758543105 36233536 841180335 754261743 148201154 237450174 505181099 470567740 406040270 7005450 971591887 593725773 334532412 767274861 849128735 573078895 691927292 775956506 135664572 811548499 887341842 531253987 195944567 447357377 930231400 448815617 852886522 737466589 756872746 380263049 626268194 602174243 823288628 611041382 714192466 486838821 838790674 954609311 996996469 1004782 672284237 371055392 544373132 74623569 196294190 752918088 256004849 217810904 372948782 75562729 771776538 70011118 508023669 390771374 671351804 281574890 4563701 917958433 85305923 264065792 589678942 310715889 542559695 437458977 416889116 266415475 431222982 337965815 931426262 570044508 958558050 639108809 323945236 937087871 842303676 655628776 526401827 657785010 779686345 938855559 724305716 252235044 626486243 225511552 243627504 731207937 898201378 748886261 48280523 298070141 160840639 431754816 125167822 186631704 851035982 777119359 721772004 947446351 103152696 927064557 91133860 742893352 864411377 620904151 927358895 447266948 393115270 192746828 642767250 493997067 631408376 738304939 187259426 232333648 326034661 724589505 422318863 944566349 888268822 318817742 276939965 829945151 830686291 169328865 397328668 319436309 74944953 64722885 157959557 317547591 392641934 673357860 37000894 945061463 73903885 624268008 223966928 258759568 579448908 159630776 720233308 386113707 265531091 958471077 329873551 829645815 295349771 568465633 925404899 392313619 477945645 200679019 217324561 28944317 820628404 486464207 866526371 260705331 615010606 719069472 977968268 735789414 567058819 464976395 906927732 832626966 672462088 402623361 198054523 224262739 556080919 570333504 723524452 412218817 264582075 476385840 246407307 130799892 724152339 556093411 925553109 411211278 832989577 65789446 789611413 717725617 18093716 304896373 245980707 703160072 47190664 331382290 530315900 401150758 379895770 58151543 552916089 467551143 1377855 761400204 54619852 62438727 447330080 750996015 476256409 522358644 644872582 825258904 435980252 956705086 228651428 940169639 951864141 392137639 818835345 774139090 946995115 836728447 649181124 931559732 459699046 108830737 549990463 332027829 640099474 184455792 848883433 286706890 289805123 38512365 404932439 631579780 786352559 678028369 833154999 233349382 799923457 180399524 788804144 941195318 659517058 64973541 66522611 549459804 499504603 667263650 916410168 550574819 712481520 336805143 367425867 149093731 72571045 728916498 34498702 28735528 410528656 553444794 620715663 334319107 370705087 65489642 593944046 514330663 134335192 512988358 202909649 631543398 569355940 647291615 458965835 151754690 266001406 447755617 971104966 223328363 536344857 776457198 971469544 791628934 563502600 629554170 126249655 343265929 46006034 415500588 970606537 114556046 892675075 484120288 840494323 409860156 650022018 966483234 216673855 142652992 92653318 21748300 696293033 746899032 741938014 326186862 510156767 724774264 600839618 769459183 668975356 59130397 354932636 705480400 561857209 529847002 953338498 33158231 218680060 621142887 42070292 912205051 847804848 846991451 352230 329487666 346247703 645274269 939403152 126869363 504996991 10199929 100835581 598950448 523617571 560481787 107104056 735409756 774419330 141258352 324056934 51051728 243277170 829697594 820024124 762148051 22913074 951255091 573796874 994453167 528107383 653712332 429656053 134263733 766708891 612120526 540495871 770453811 814161519 780904102 529956380 307067982 925533860 852338904 639182957 427715902 919983281 115605860 847326879 89420084 940794420 687325800 304277413 10230480 556857002 928150809 816434589 834783851 64563690 222349129 280183155 311398279 78911115 263343287 686229279 965609925 827346743 469494940 744456628 145876182 396562019 983493720 366153497 107798479 754132650 176301015 910093573 897031816 9608702 459383829 351480002 766085611 178931011 286506836 797589642 7909138 982105994 633802581 599261581 35462556 700667089 430887761 762027096 612148747 931377504 310433386 339269498 334444164 512696983 262038007 437037496 106026953 746296383 63044404 520628398 240337460 279467441 233330145 474029703 507842379 259813779 84008040 350228618 92866905 106456124 991908477 22171108 949863176 306473338 731447985 882592005 808041000 395779952 879618248 406824284 899763369 960321117 487307784 851849939 922715384 814180575 13883390 686714538 265253096 579136873 334261682 300744502 577103601 65583187 341480160 174048623 954379573 777157073 814127404 895516557 254400724 385605337 571986130 492642047 613913378 636851875 593796198 19935210 254098084 601521044 675132781 596801212 69678189 321707967 642503657 725710230 441630758 949118131 985829726 264202216 431140240 868888620 141805761 491987783 154009414 607168664 745738934 746288202 611485058 546170717 951510031 808647056 53435446 457168051 155779392 142960369 801513632 159333022 704080544 2855623 863205907 695230466 764482833 17013951 135128884 224772557 407627922 294450959 686306165 674221404 368778411 945304321 926680240 589232941 21021356 270509199 208732276 740767823 304917671 948104079 19304677 31602394 190433069 295404730 417520036 753038510 96778143 128258327 203516021 251394900 762239793 441665801 558913813 68453149 858922049 345446205 989625503 836055252 667940304 182657455 887369969 59843701 450119214 492036598 24723260 445432394 96958328 714504381 945899657 267513535 248921825 233601978 747057524 619826212 468183935 867888781 404782927 800377285 666058260 467950040 673614493 360465703 646499986 733642111 381351580 21803113 351159952 862219290 603485456 360846285 979665565 243133752 64899623 201655445 806189314 547042596 990873003 281234312 328041904 909642553 362770345 80552665 736289728 407765252 35149754 755738025 848881206 284073987 850650651 14945525 986557533 155479844 23171188 73326779 968895803 198907598 757308335 182610297 739882707 181767078 805584590 682564712 664519720 525811762 956635410 225639719 30098267 174683973 442568292 123697548 887043908 957790014 39930692 15388192 390162942 417702449 514855347 577380549 470862788 528192145 506455264 121009608 511140357 442100541 153874543 751372911 87820361 227245652 290138577 785333281 839718263 466870156 169334915 216077543 859064670