625 1103
446610122 933381623 782671399 140661700 812296223 88854302 482789856 119777316 619579158 322057060 932079738 402102496 376907087 954562414 746181323 946036963 316724143 437432730 500714563 223073967 397773961 20731243 457700943 976235544 576331520 71337979 905976141 177682664 340847473 799754969 220363445 743781138 859317452 782773164 437045685 427568249 277315674 666410157 619520778 909537214 181859957 328817216 3815817 900409544 9567665 399293868 619937734 50877435 962894461 483215393 640593800 776567342 888743172 950039682 901154471 736355338 400658529 25501025 920287247 154253886 464944060 357130068 669831012 913512462 934010767 374697618 919670993 106746029 643315471 819548883 928025587 544620038 510230498 770300064 714003710 320746205 274083771 174564055 540867863 600714751 55810644 241482109 846692175 412604379 49767929 948945614 754059974 681834939 796761201 774908933 289970238 944763836 122140890 511534774 984677596 253138346 509689792 363635977 323781369 731169414 152393159 996346926 9288179 619653077 283805483 3659027 907381009 11277906 912516587 906775401 748335141 515009234 698014182 80319386 276941952 764486267 215450672 135687995 800453312 828461784 198776447 592624405 849719537 354947093 749042704 716509646 156256563 132191057 937203445 496582489 616037793 598354829 729992659 56896939 690089071 622621535 495613490 974306427 518682706 698638412 529110589 637330767 313666782 492647786 977049805 212580892 633866621 551183566 137004658 916921900 544865656 427337888 582436549 139779885 354044514 243763387 304251409 242988507 15948018 236992367 139530558 855958414 116479871 407347234 20987239 396329568 151121097 361516763 968647567 663862007 240820728 154055249 473961743 877948369 411467593 308130263 280338060 956714503 232043089 971655080 749191540 828679157 537709660 944384621 317655111 235552483 563129514 348368350 678471830 476607860 841710878 832132751 319936812 849734488 88628863 734554510 965796131 527522409 789097694 958624959 614758614 304733174 79073746 158860687 184284629 214416222 280677960 957565709 492256180 962927989 726102685 65231837 691593370 147117873 384502336 521084548 697215551 807748333 484024457 684652719 55815375 354278536 512067468 172316022 166214840 764453030 968143300 209211903 606859122 713223939 197784815 533463442 42854417 480595142 248812779 962036903 29530246 399181141 71336358 22951803 581034585 797933804 677154021 629139265 353595892 55204811 37270718 680354561 893296219 608876994 472814719 635779783 219756244 710008178 503022006 789088146 941405837 390932073 581661430 384290272 794687229 515737971 726824878 274281357 335102726 550062730 490338673 382480524 165510953 920319581 231200333 928092988 709245642 301478774 477495091 386474301 217535976 808474520 456072667 824574782 273539444 669407067 940434245 75920319 262953690 599531769 253527042 395083773 853910957 712190900 763501841 972214206 363408666 477464465 2078867 554655966 287071624 406159700 940336294 545975903 327442403 29881973 248580375 502470537 370149735 652801551 986991322 932522931 384086325 777255592 519513065 906627505 200631184 326792039 861088541 912314701 877772152 866559092 929520521 470525575 929837667 514266727 214430988 2145055 773137900 112250345 688577681 93571821 563551945 151947466 799375704 675773884 519204573 28261580 85807429 59211167 339402927 285459851 477810123 599932475 194404403 986032155 645916279 206061260 744687412 599622184 610255950 328438644 483693723 734696443 926078117 376375460 32252494 415284521 668485618 494059244 591433120 996931101 854580867 813047033 793264597 426372661 712337247 634625702 259299812 640452598 473676800 589496495 225515864 609655420 895406762 260806006 69844703 602128805 998454676 671642800 745646637 347689153 116077499 985613747 319249152 823917464 295530566 4863658 473804065 889249832 658093057 246850570 36913399 236643194 382719615 462109541 960393486 478714131 823762599 224641563 924382437 700400731 228733082 302240032 688914406 535441673 114983949 593998242 691908319 166068013 37290660 977141100 342121782 992976762 628200727 846067118 232923990 283185028 470676287 836038170 457448441 217912165 367296321 723166179 289629846 162032655 230889086 581627075 304804451 404773756 703387156 469994949 133219622 149648493 301897526 434751145 786059880 275816967 849087887 807493449 6368803 647564246 19483747 928228285 453056958 258434298 913812183 15452969 545474947 754244534 11829148 209289525 302026103 281004733 222890233 497500776 511138348 623673225 986429791 161839914 631609131 885343870 979222178 350091578 665451880 747964360 525760592 159888217 264322284 265964847 540834038 695032972 562412807 390104510 580453167 951587527 128451852 314752694 533231751 251549060 935466729 637770305 484541989 953228772 470196640 645422159 129564611 477800390 718791851 840963231 565686096 73571343 464645811 912516372 931414489 23509212 474964174 836306247 863584453 149211250 916630224 963598220 577735267 715099056 871846926 863807140 402358459 649624633 78364563 347575300 883734074 76695002 928111869 238667792 440903888 826299910 32918721 118801985 8427884 418445408 332384961 388007495 770902539 139935146 389346485 862396323 972705358 557761236 829572419 880822918 763761842 649722276 873051535 286700841 430186331 744108538 166783392 64647212 774922334 674783313 57446349 938097244 547703413 985408058 745157089 881954876 376021270 665695645 375119066 103595330 462434360 969496407 56822472 405664543 599653986 180188744 746460496 489690323 690811319 417416344 891020211 968372792 959329343 966632352 735962858 547023121 702036831 988784335 539951677 159773287 31515777 814692390 294342968 976394177 358226056 867679059 473567168 794334618 476826443 106766179 655883311 737840636 819560006 853351252 788156975 547598029 536173309 557670447 502569690 893383229 780825399 718896210 986266106 86861192 272892838 248759012 984761756 673032386 596039765 635015007 5440851 328723878 923286653 242282495 830630379 423926470 873307766 631689953 322662783 453044868 411051210 302769175 293281223 426451281 521665678 728276301 51361230 203558741 500889912 45295389 209691043 168200296 210036517 420823381 193248656 913261893 936701949 990314324 114989460