545 3352
303150751 999420944 701263133 78083017 487912256 452434423 330787735 840427637 656249261 322426520 158206324 703434363 234041519 859601624 517164692 917290511 629643957 229442073 864161855 652912792 736824182 847945087 544128011 384900365 467586003 942693718 504331668 318124341 580196370 387169947 792207139 776063677 765616312 625266207 847663420 363412352 328957846 615652265 606539456 637732345 780199396 198923605 985350318 560689333 268963589 313988629 655295341 203368607 726947146 657391134 258306354 107319990 488662879 37941401 466470468 602971382 907864303 915473032 520585652 269743392 66251922 545859795 447406961 414645266 344911321 156775743 918670795 148058742 564908027 64936733 979477830 922837611 440391224 863524436 23202609 950597362 68003760 936703591 875755999 269830887 140984832 151529088 944163890 633301187 707160504 197613013 834579995 826766659 575688113 262317279 452953018 572149569 878996374 530722623 920037812 841878829 446762988 617819012 54346452 253036745 715265898 891986924 451452796 537638662 696062093 476148952 838722824 789374886 759913679 730331723 304402802 84764732 610049226 194546106 992377338 888797797 7569260 811450476 708730538 498531385 227446313 606192036 508419405 817648901 77012821 240962605 956326631 523374098 488402250 279041182 114771087 945993189 203808542 35598642 978111308 779321370 63157720 981922066 529548937 639630154 396863912 506328756 284878084 339383929 639140877 989991934 476979418 823870271 194886679 667058347 728234288 310378540 662273639 173937395 376433871 344011948 389293618 839086273 825357860 751117690 774518127 800451196 975143031 265018485 270052857 844566980 881699128 516301826 742302324 926845479 299784727 480890718 930678415 540187054 102745823 809067168 597711635 955850062 296103993 238698589 793333815 703352556 89309832 575995123 814631471 584872703 158324806 258361934 722535339 454543461 780071123 70593872 129877854 487449137 226965574 579417181 697003623 747296923 1713711 894438035 655461 923724672 51230846 496946827 250993834 125652192 799277579 155718685 934242710 237118731 286151966 563844028 694937704 714038733 654083972 905907905 347872481 148638202 330847932 555779271 764612917 96452018 923784881 952575555 529408928 529691932 246619379 941605679 107188197 714517896 603662013 779882202 723913045 208955655 666361716 458628810 83174600 207778433 117762406 611880700 806797939 654684630 983966602 979914277 470584880 104839898 166456585 595098968 755428109 906725612 995576243 69854758 267929123 97392709 796875044 840717967 947706028 524268801 406419999 666994192 231596636 931889582 73275303 831199154 322253720 657144241 668309843 315116169 393427335 249864617 621122562 299156831 561438069 208907484 630903435 531151696 560312512 498941828 705195344 743908174 977707007 351661714 145990826 628039082 974866869 576161520 570123499 129888516 604915632 20493160 586950446 290849410 722919803 188100427 655797193 998363517 28042800 642484226 65725896 539115371 831099378 195058194 212072947 547019335 540353917 757033143 558628528 123693721 142533956 322229309 63338096 662388058 708141617 585252110 16571844 690024684 212485189 750679831 934687097 662706133 614471299 220825930 479146140 371288044 960909842 791868026 185032721 167052528 546751562 64123919 286686795 495065591 591098845 821367907 417977599 945180441 902883656 217204295 388083264 777342228 414135995 327689074 811449432 838691407 195045569 724337623 619292483 516653061 7935489 859219995 309254829 681282149 561976398 893356090 698650252 808139221 174590679 716127299 125480715 398295031 846768438 976903792 893941365 439570405 709583236 269957708 977450032 240908795 579729763 794377674 64254387 659200444 229445795 255817675 84081790 781668322 6212624 952388794 855648226 741990384 371517007 382311205 877676428 470119229 80041974 94825753 526309486 614718228 483834865 452956672 288846438 22852679 956800891 937157179 484924244 363082773 583038663 602237614 575662689 679501752 193665736 520836055 454906261 279452669 761573593 946394068 80092930 299851303 654541022 669098746 113215212 670718399 262391313 840383822 861899104 720773181 5187069 748662850 742967651 754887154 679674157 644111964 664949825 265103178 306228437 241635720 283554416 301613894 191654416 459612291 149118681 139864735 487025181 249907877 101260011 146172381 463857738 553902406 154608576 572248547 131379555 738303662 969877378 129620488 123095057 544650677 777876145 533375980 839560065 184905980 744882189 293592187 844955034 360827509 18527136 783004125 310295932 968976503 464808645 565070001 54195618 934550982 555956768 973488979 25471700 931322637 68877401 265178010 192945973 194526245 634629709 337769299 553580320 441125800 544439873 167993089 371194628 805088423 760874227 681436197 664214812 325495259 727563487 28691772 741764318 962828942 598016325 78830021 39243409 794084037 856247818 366967277 421932867 858204624 53394800 674615641 255831012 193394637 617822986 452210668 422750919 110611010 754369925 333580055 638096046 696858835 797465670 121187269 935921744 940685204 421781757 115070444 67423276 916432414 697799556 749950725 581814333 39895522 81592689 864359903 295072623 8783140 457158937 417221310 764324522 361458429 771533781 716354312 477157985 577698456 731328793 56374785 806015989 956362658 831589735 415741872 378559055 379623769 617698664 250711472 751405973 950535542 577411910 221661069 120286009