52 75
301210484 186515447 301778573 593449539 619632465 840121832 569631835 724538937 137840656 2006008 890771366 45948493 347650442 858131725 678406652 404961979 523119657 119693841 575825588 355654468 558049617 856125752 510363014 950943730 994676654 750559756 853878486 992683033 785321996 662274197 225358189 586390395 641376613 510603749 444038864 87606952 174328758 414656975 821245249 528005630 586073197 468079545 180109726 596654213 338923705 710658213 448989768 279820674 107736283 853751019 474113308 864887537