2441 800381
422533540 930798013 257157893 945863535 401699681 92866511 258169497 720391229 33794188 630360278 352792297 14597442 799218634 147649282 209603077 151060991 533573905 879272578 492482130 690355400 545186110 625595998 845499134 552169958 912980742 43659226 333843136 14652257 816605669 652034760 235861844 566440876 362123382 114753711 748654814 317899635 97309954 887578095 346969245 254233067 509087407 804108235 781401337 334161283 185702771 772448476 716814457 962794313 832291904 436197099 516465864 482766666 997047939 11554205 457738616 761358624 246545606 645319720 38423723 382372694 907283191 942332435 505038810 784285136 813615888 589175978 89046030 42312966 196695336 607458487 509473885 259397631 148826766 64276101 478570075 97547589 512366405 356546302 591671806 790742449 397464582 837222451 159499112 116353604 284984423 573994033 901387639 538500011 914351409 875088975 807251108 413170112 329537813 873619347 257466367 555842526 621796795 472338481 789406082 328142395 630275624 301297060 23598245 451202805 150459833 506036729 98255467 962203744 845001595 164987704 496853190 6960805 540174354 473831349 162219717 698883408 174535083 669075094 946492739 256346280 617454812 677436481 721438298 200017370 980907481 368833070 267952795 926705771 486748488 764767500 746160866 422118363 606033128 555693941 586848103 973125864 99201080 51133998 669282178 350396176 786553752 173812424 828473829 180680654 561566147 912165169 130321359 492079818 802040430 548791845 119496700 653665078 430456686 837007676 494463758 67348386 571084800 504681119 923328273 544044018 307497389 186759410 768720576 667648255 267609548 524706893 145772153 189142784 307650241 594854451 41479762 231613418 317819603 102268877 916700444 428604127 311634215 828817601 527246003 769219710 631154684 655825419 776571602 933857375 254186068 809552688 853398095 944664713 735440007 979776897 370482907 368802810 370485596 930754589 568684825 827772092 691154856 368791312 276742474 266532821 901674606 411673578 236379780 811482032 670083425 550428758 88161572 590847976 391156632 9393942 842242027 573386111 268407128 524990299 618089015 856213236 843022423 493691305 629987973 434903384 779560146 470287808 913872552 888379026 416501021 667886957 135972497 734381859 943845074 170401451 245658418 855386032 842226172 720051674 888434495 661823619 438622622 509182873 101346647 232088130 895795242 706931976 669216298 575815178 713300169 587855604 787898272 879654816 262411994 793391823 330091038 964197519 282223447 362387370 123675984 734957796 853490269 34594520 174994246 482783244 922107936 999017970 55244700 864126305 554466721 556297561 996774211 125735268 252467007 574273236 631738380 137067864 741205914 943163656 112228898 571523179 503701112 178680999 711402925 681373589 127372819 970364650 952611412 113168008 320632350 965713842 359484602 109546131 813263713 911363367 847455597 486092541 181302826 399126283 871301783 807659923 180261290 543301670 116269982 557280132 695592914 766085001 974609858 729783918 265367631 565823709 650035901 751504154 842404868 794247065 199580229 457930093 859132679 203710124 190403661 60695279 318479076 289450918 168533271 482979905 272531973 501663143 818806653 262757085 110843101 184524638 223890319 443005055 767772682 226282008 928309217 206321842 886846466 983657336 393386737 386621793 250631510 165354771 33548363 107175236 229898088 30715013 113833542 372678314 797061876 119594839 869626973 525362286 206740213 430631344 868103591 725763379 914043742 319781891 183199091 355065108 440156626 911286587 123135040 654800680 475785023 468984227 253568353 608290650 207937204 202164764 277947474 382068731 428097845 471736801 127537422 265927175 608686001 853809939 509493198 225497068 106447100 599268433 235007717 82518376 690837060 569158228 281208943 949089232 925202039 637606817 187527383 439241768 469508335 667298328 790460566 540121054 954807151 732259310 970456043 780032144 425517582 349284215 71685262 481657614 359597590 466380952 782841225 774291721 708672363 798444319 640986709 737917964 51091817 569467530 216676123 655559488 490653134 489210354 472323528 420507777 154212413 184961595 722531459 260910520 345839778 488472149 652055785 276583723 664619155 456252670 555464395 643521046 636924439 69373910 39846380 520643998 672311547 736913960 449388190 442880089 206172208 38911352 12239626 92153482 961387529 639728236 490510924 95363024 994874361 985114607 636857739 972445103 215271791 83747657 118964596 955707159 265349001 588382061 921792289 571329754 938287502 547595110 364316772 950687157 172564196 745594286 914864289 775575740 112963796 456919769 215746327 907950048 227084104 466967533 84152355 694329998 799363604 428971601 366342462 305483166 445274065 315947550 68107631 473960923 213467524 113760362 727184179 199446699 224093981 832408862 447631549 334366040 79946490 201988820 595517214 224117487 878326827 969650851 250013145 157047476 638821740 452890242 276335328 543664750 970842805 600571951 369806820 459259857 267193911 784324468 26858605 234926186 8788671 95390174 837083012 73861653 483052003 803168735 15234090 46378636 711985608 345049339 641734453 241880958 664269919 134008732 725625934 422868951 693015539 353533191 690250835 409420534 891632544 549277911 362627190 946010109 358757676 970617150 33388572 101239844 208754124 873865655 448408536 12747375 874259918 366961286 945463273 734084067 62630110 590015330 679594508 649493948 704746051 77329714 825690901 945173108 746066480 608223566 502129699 59033483 892530867 767009036 183858092 577020496 43978196 355389299 908613732 140759637 269898422 781447511 635408543 133592362 197760869 463811864 341934710 127458168 901877476 337310522 34142605 154384363 735287198 62010868 799867409 980195101 911412304 576831245 572970073 514092454 241335539 121860039 557438433 780134962 92154236 581260724 921800313 598160391 604609935 487225660 393553574 134812374 349846792 627829076 402391514 953520729 788251739 161007316 359671880 889345557 644679318 673834846 898701471 416131756 439134162 727429685 943351297 194080098 432523722 664484997 836586951 708444142 87420466 241877401 121427971 783548534 630340128 585678221 887093460 954632660 395388961 150133334 587328622 263990725 996810883 200733102 793053831 453208018 989310989 949646949 872849079 263221008 835761289 889164796 449923262 695749488 883832002 18978700 435077301 856545578 100417018 425915739 204744513 788923740 876649887 797334134 280609803 998331434 787278932 796571654 638697532 167160862 878164665 465759730 792682171 983629745 682867558 843883327 859860620 403943147 444643566 706498112 870696031 196842002 646929219 683898742 415644256 551365490 743107435 898236320 298485805 686041563 88581931 62866282 985179943 794726528 98941828 578373326 477547175 746993187 646544388 167539331 302926251 621797697 354524242 281943298 45204930 75208061 300034186 240639969 105969833 510275135 171645161 521472252 192586276 380294027 982723065 95178453 784695738 166609217 409368639 606879747 12176492 64879142 123105332 206334884 501642937 844336525 755799148 418821340 553329325 841004545 752967928 962491510 113407231 298287943 810043455 757724855 431726864 584383863 821861320 846957993 479700478 452851653 85034949 347855314 72815047 821207837 164548131 922410819 372869005 523872398 335386181 39017640 745951077 734292486 644242825 572781725 759032836 883899717 463858704 392669652 392690240 941210970 946743110 495537087 240196182 229558902 965607785 676095372 464380039 387067497 568169173 901138853 875841847 953027350 94287191 732554796 842152447 869194406 460840613 799974091 789944306 369189273 456389135 990041686 91776729 608368596 206150476 558825681 196964146 77878618 396556588 487775023 942853718 730455000 546897493 810687698 114655779 54693805 309083086 451353993 426021400 756639478 25552783 324760206 999175966 623087818 708371059 772195076 296756125 841782780 217210466 990276788 137963902 542828476 919354849 325073660 718358293 257355862 442547072 240226555 350782251 977852843 853581482 824006468 884810709 791863169 235181266 955261911 716827679 657029953 771773202 895000840 58879441 645962963 194534995 160873655 487784539 226930133 106381016 582437273 800287554 821302866 928281278 841572534 815546196 479236227 704779380 468658556 29086782 87958357 418580384 664557105 167548726 286241237 897171984 526950494 493492407 990849553 196595227 992141357 173093173 936399765 162362350 423059709 86671001 272759637 143219365 240739963 881529539 328924595 238493001 887561088 417950654 125818624 415717584 547041439 339606657 448412215 437542638 103597889 523574679 396692674 763700565 800292165 723739258 424826315 227826254 79450439 21753243 885301632 814982510 805227544 966953726 540452845 333350174 40383831 806914225 411787582 158137076 760894560 80537589 82655794 472024222 48107943 524998409 802590766 153264580 607652765 610990101 993817912 69367211 71146369 838266364 290405761 775890943 174513583 651990232 643245272 285875921 652298021 290122341 669510336 955537682 227792097 771450843 189927623 341041528 680198270 776922557 711836092 210860920 821604587 455003214 523540648 599424020 271943404 941782421 610277025 163087897 956378992 32132540 49062681 552330479 446274960 487772488 617674561 540294762 950947492 77982182 891217035 947606117 726708687 473207517 425172280 890492085 450028204 94142790 998318950 598717263 874662161 813651112 858102485 761635715 8103898 861578176 70415362 295345258 832175487 513805747 696991928 777452376 498577734 479208247 512410217 470202285 664763105 226271098 978552638 980570784 96009531 588077588 557443284 720791038 643523522 725421684 995838102 106428445 274558447 824894786 348396330 491050680 289871473 431945416 236542924 766649493 142204502 894612589 178620435 330178026 329286526 300642200 727894652 419417205 529101049 644400547 332117422 245532194 204980064 214175726 4557260 669136252 153556315 172233357 437947835 989120210 617059149 190205002 866206070 599978562 612658282 162866191 470052050 816615279 654425294 363980063 799330724 54918591 323680049 764473807 304125128 739378284 362438056 217758664 507322756 984146545 260745254 949620474 576972026 367556257 779695655 200619172 737109785 646894063 958686146 607115074 887876233 524617205 905376279 301881220 421296407 167603916 466424404 890283523 197632696 490922188 629803474 976092289 570044726 469127026 568022951 965886571 466833438 968331067 475052570 220885322 820416005 82306600 752030476 672580071 873166041 446944248 208911864 519020263 79585556 138110214 421618801 605636726 675766631 608816187 627987628 220845267 91232392 698882613 275818238 855414582 689233417 348727595 528263944 767030496 354060541 977947056 313298224 271543118 750531637 372298486 780843277 642923084 220517588 244146201 385220478 516491461 596858206 220392690 24995410 164067652 960127295 292983352 134310887 945290060 695122048 937254830 935353422 607291167 87067682 21957212 349996315 85782033 884268157 959963353 734534123 128583784 433537520 906285023 963276829 897900996 440332086 641529744 430004508 683272754 65427346 78312968 368750166 803615042 215292171 857006176 972954641 306832735 947625276 69356368 656196616 595902045 641304746 870069207 879324508 91538135 3597504 516665528 707626343 882936876 13169273 853822279 276950061 494268721 490629919 409670103 628415587 946840507 995686770 698765322 716280369 334438987 413690828 445274020 37326397 256191406 583631129 504947522 921437867 786893697 235068676 784820592 611603839 571354283 485966409 71800030 208890014 197309190 818666990 788243502 488841630 312397037 335925893 235125517 902749724 490353584 590653670 203627337 720240537 887215540 653457486 14968552 198544588 772771550 965260294 323185180 853608058 719878179 25249762 890449269 861631950 182736490 221551048 109890709 368469019 233965181 903465363 883456522 99906509 150538575 675747065 436354795 916545009 356421577 479857603 697067945 111214098 366715174 300870666 646992747 159829893 489839016 162668667 168632716 373459021 787548405 726407712 604597982 996391749 879139410 52308434 770907560 6186031 955766209 527647203 475233986 559386025 478970868 285995679 800292642 533071449 597402684 820233833 738558190 101937054 722450630 884114791 964610593 766423931 542676640 448010030 157305431 900064742 312285881 467042800 938473295 181094827 138446347 874557031 541642309 604797899 451212507 739304087 53513754 139581018 291950245 36494066 233381481 608768222 935761263 513923029 234384811 203265485 123821979 606191608 110188824 24167565 437932649 774948421 76546694 68635903 872147926 421164104 994674360 62088342 969103055 289192128 434096832 490682369 776492763 187558285 439838243 977073151 160354761 296540489 733888101 88101522 884000599 406816357 783335837 681700535 919707615 769591234 970014938 134522875 544505537 943284331 637793753 118585216 368865326 939521022 991828890 542655310 581305771 619585808 161570708 211572767 194199715 696686312 766978912 768421129 778163231 991871867 139795546 329956757 381069140 68329958 995098372 642087025 866685818 570714990 180679654 649314840 245317039 130502535 807429367 254833030 706693652 806815916 2278695 619524577 355707853 747587147 996966310 355007475 924463787 415414459 834310847 312175238 293502766 393695454 325785636 489364416 543806530 352801949 885027906 856902261 598694632 28494673 766952672 782114665 41867247 298709715 10212568 619496963 921977359 89327495 856540002 553827984 612749092 849643863 754383621 398886470 388676575 665158740 965513218 378187949 318920014 611807889 702882828 854060712 912983032 4848442 215725915 557016497 80254348 129104298 923367095 245901134 219583042 57813476 417651568 190067237 716187162 645641371 285389691 327790810 538681081 253446483 411215121 51164654 789080556 470925138 651721892 991105793 898864815 377637938 371634136 710406368 280494874 632667217 270991625 159754776 616192551 902980295 773572623 360393479 339846623 201376306 518196082 227773939 542830708 488131425 314051190 706682606 353803550 209149121 337168728 678230484 293182931 347609532 534183496 344117878 612306861 322581704 36014470 385981021 544801843 265200289 663113 358188715 746014808 801355884 571751164 144812223 697927671 108020228 767482699 94320140 106337893 851905579 310724666 733534924 629542344 813698934 938629361 955405289 104657155 164976362 408252736 760977669 171370246 523335366 342778554 67968056 352347873 822655259 238794681 397694104 268427621 332599043 116473438 778385000 136473942 123068350 109749435 169011264 598128898 89847681 381945721 121489661 328189082 108582489 892770786 840775519 315839390 519546494 927819656 667481108 729047050 587188724 28445202 183981535 580003760 687343937 912228287 92442468 324427326 901896415 74252865 220981363 446527923 53349116 764056842 911133771 244889499 750113712 221442236 287759041 530764743 138156746 73684395 706045718 988057552 324353184 788790998 990909886 999249257 559609053 710054887 530786147 159681307 555365965 644215128 862620940 55691802 336721101 163256859 75195473 849434997 348491741 589842644 561480456 692319823 841272455 443282921 585312791 180243574 610124657 503522252 98598405 182835654 250562418 601496755 457451431 581004563 34836265 702361407 481959121 7242813 908366235 394924033 921683259 433573949 408205901 23399148 783272269 617297798 111624417 388602369 794700028 488475312 225103075 443709116 102035070 964865273 199396668 988326089 231926241 246399137 736212900 665924121 522458067 524733299 484564863 924074320 306003706 626293145 739640060 181881888 992524760 167958479 755647822 34902529 843416963 723765463 52261836 735007880 678740235 555484961 281946028 18204123 119304197 563620573 232635595 570420784 479873106 28785817 630398729 834974270 507733300 31963063 884467757 369885781 575402948 490191235 26299960 421423008 706504537 690233788 33633103 749775844 998930439 618667039 963243624 615105362 400967809 850060376 631729553 789221600 334068457 490835694 412919581 654034139 805448411 580229118 582245436 473876255 351480896 23949046 626023711 789002734 656830777 797623414 418697611 930039937 378062359 45427272 319791143 500237827 717769365 163211991 469578381 813441026 176904790 741139532 913886527 234689800 524003367 170031080 569732337 44025787 426063666 463101923 952946591 242980561 892294116 198577998 807750267 768143797 620995091 611813077 957579563 235190513 815161847 80003599 300193154 758003392 438407911 444512034 774326725 26925508 870481413 232927299 471039681 703224623 376621496 555871807 451029372 55356562 761442573 490647726 403449858 789311921 997060073 832865343 218503296 458972805 237254205 430283665 403745610 72229059 888172603 52690327 186251736 21131914 395173945 808459437 684913924 514220091 324772615 968097525 209199846 995264110 889896064 118567342 500672771 189396636 229045004 937681053 514262722 342731883 479142567 604445479 368543024 459373173 281260081 101794368 148958239 344307479 990759550 394620241 611190181 65251879 250045458 106904712 178846582 143594732 933802623 837449773 723898564 844228387 909241328 338238707 332911905 395148952 675468543 921660142 520335477 662960509 888811400 47559869 103614672 975181700 37406617 253026078 340715382 440042609 61220200 593723002 735003948 798341445 277703092 217545087 114068056 757959516 785413298 88287433 796588881 447358967 160110296 553402938 122865092 103510350 306433884 415721116 936506893 227067771 35776401 790787782 402066976 491311315 340174656 80843478 291472497 481919227 69539328 632241597 191720210 356295820 342274243 317076999 740443722 556448234 454328007 247908554 946799379 589661729 248119264 184781018 812834724 72865998 657803243 369816836 220862688 929354192 708923736 361215731 221342181 603983462 969906859 53050689 517591240 879911777 48136807 782361649 143538730 925720408 149111354 791024414 719022128 42982807 436855758 474094920 391046249 157913165 381689372 842882864 257287890 363398133 245640620 113271818 143414666 971322278 936164198 512319594 554917316 850805207 398144785 254621182 400821951 983276962 564430757 622333300 60236205 318316804 853085168 485470923 26279121 224267191 730478757 444737577 623129849 30050466 515557062 845887243 556205032 905569474 606355092 92582690 425748896 739376065 786471677 588875352 109511621 499406721 142255565 469653811 984609510 994434420 384404658 174562035 255676165 312224456 903703246 658895932 119831290 875313235 986408928 955786780 619069905 908106129 776365028 901358683 334521794 730659195 366345506 979518254 178417050 821850699 954550151 768453035 531263668 778764334 207580921 306291243 835294647 475498718 225782020 989791908 694038247 644378623 729919693 284610117 542919641 267796332 456422918 143202442 947581154 417070129 659202985 915253347 116799238 799481200 253099300 403755971 374004310 586808121 718806141 287391157 416599965 670607604 912027680 69771445 180034803 759258937 674288483 292536153 945821888 881122530 280668651 885992644 540372008 376859050 402311511 254853306 42511674 834282414 207179803 390423810 383640526 45078541 154188631 452131055 297672747 790624218 291807995 742158249 307295862 104119645 199168672 346384638 857833553 971690841 771545987 907494563 652265923 303401946 943636004 475082469 280980069 904894020 330905842 290516750 820896958 561137398 643523187 741322853 488949413 211114336 94733650 337957036 135840322 27715294 788554851 459045259 446515768 49887416 730981238 464621067 330815579 429735764 91155499 2694875 262241217 771780884 580511126 845399811 130493251 526065424 319671017 100007036 115834959 345072406 718780810 818092505 686111195 242679108 656713785 205219851 946406632 973714270 723017173 126896107 361684309 766415439 483241588 802323155 717032905 325746065 472327826 265465333 839086456 841352739 950499831 225656390 942324199 964667664 134551744 618483124 401449426 616899940 926364805 947817728 879772729 45235336 125586704 365947860 362104490 54770685 528873407 82448079 438366500 209256485 358813574 642852006 277310013 765552383 496596615 433438482 464269415 206750972 341691125 324595247 780760567 439089425 119866675 7419951 846485336 426463096 695100472 562886392 629378593 713435084 123938615 480991013 227152100 904587698 891763177 483682600 644264254 829586564 227074935 76293391 881296508 450115450 320448468 882168092 633106761 905342124 289439745 740307284 374209796 987662745 406568511 490266979 474499988 785204445 470670890 603684284 414289713 638636508 197555299 274608509 276676728 538347672 542418819 481268358 474465337 601271702 170319866 654547848 405285789 425876368 909168365 550548621 350879894 370581806 875820342 996867841 989789252 477130033 256910258 37048049 855661994 972767319 445435420 925370958 925944869 156439542 81369086 528416783 816800223 521196390 602097643 525663116 270371004 7191287 9970853 363113827 295052753 902983230 923656585 74353708 540705087 296762376 120093028 430819652 649063795 925840108 863343108 858920280 944144154 469300149 727695552 778807999 630769448 471516560 500003907 118339357 905806412 998675277 833379090 298907161 12654379 744693304 78176249 679955650 381497207 693638121 76320743 427166777 759448045 617012439 671125172 727647512 939345943 175814592 955509583 729728967 142928682 839074836 547060551 463719352 455988796 93988334 983296943 160766649 69405095 162929336 893407973 546070285 861884152 915115234 793022666 981601496 260410267 378561857 958866712 124005041 329017583 972536992 878845251 368378142 228506071 725699040 873905739 622304765 221933961 370386193 844251949 190535171 958215052 364786297 596943581 81994194 836431657 31664030 177214795 197567315 802784353 223856151 324660068 506022444 586667030 908475451 665978106 88112706 971671806 810022613 68212534 122534798 789931535 101617971 778291940 402502608 326597162 17937993 366459722 869403657 297173600 455811022 856547110 602215293 970107989 970941454 669089063 993417981 605701333 691841985 824707476 83374480 589226569 199234294 822348668 326485768 141277194 706457293 978279376 22450122 873565150 734144764 906438380 72658309 14144389 279388736 279314419 3049608 804859265 895726831 767053283 240665610 772726596 203710251 45771568 930632551 123066580 624763396 369561055 185947506 629421674 421545973 480346435 489725369 695314163 974337961 393655086 284801280 265589582 137466309 374124248 669594376 420922730 973355825 986276399 765039539 120793636 21702447 931991163 508289863 355872568 735787066 292088990 986405390 490472503 856423624 176613216 323871980 615729000 832001829 966189605 501121788 533486022 625928594 313969213 641617825 855260411 53697877 112143145 190133574 124540996 612397024 457253823 750684632 354462786 789930667 441522922 711534416 263933980 979428618 143380827 43518968 855961673 573307414 737056698 592768663 69192336 706299964 865147492 624681829 487527882 48621486 715302684 34786912 566080911 53544048 93863011 66211435 269873251 969736756 122764855 956483701 940136471 630761372 346898201 667899500 574616348 375298790 970325165 273850502 707623367 220633668 693926936 671707471 586293587 71638653 599501708 115631978 173001806 380339441 385442344 439618559 58303110 110886770 993695746 467534582 180711194 223227884 801302547 411929319 987703077 20258743 551871276 450759484 43234455 944098756 478420659 246492510 706206462 832687614 439169239 492206409 350105743 471145379 944820327 559325029 498768673 130785756 266457044 947119382 707266144 858012463 594298037 692854690 292944743 962279867 419062474 235291295 936866063 258341107 311624621 620615081 90183013 977542986 881537177 121984919 273497272 816724626 109706422 792964675 454627003 343214105 85710885 998844789 502796226 605246278 465953565 46221770 794190747 141339394 994402880 235332612 35867437 702201014 708775973 595489561 449299300 828375172 754592429 183472005 850701224 307459552 733942852 191651811 235151406 317245574 702915340 335112207 224872647 425758832 273862000 804571003 205855389 613575493 561312965 623941705 319641791 691790958 953405760 137182597 911613456 398135397 352067761 207757817 716599837 404651289 122573133 898492188 359971872 247784932 441770008 702756286 887538590 332709811 305704387 252855350 797276226 309009098 448812928 21455500 367148611 40502671 366265258 983675921 788288075 920982885