35 83418749910047
52610587660585 53290834635213 36013765884112 63843966118900 88659582866886 95896357544415 54245349265936 63019532780395 16073810374848 84107005549872 55550675644074 91362288650728 25424921648385 72154572285236 10489558662519 9076616998541 62981347783398 60709092635789 65405703627686 54186794115329 69385300715132 22603494868953 1886309943032 47397028620632 98519010591604 38783220753873 10038480434331 84307441486148 43539462411244 49456823045040 12384043146586 43106952382192 18031104053472 65810611711195 17573876288051