1982 530923
675232905 95354793 781093625 906356161 55913457 942589948 753703950 206568154 277508184 644000061 420484313 731742244 236974023 274110700 216466006 309090821 389925979 928183890 617854840 279324624 396717881 513025656 332617056 817810527 529882214 353125322 394085762 797365682 172593448 754474644 654262749 29894194 741835086 354970305 606444113 979433584 980863631 496235408 714212451 269228198 299108433 177134086 909201267 18162609 636172660 412577752 804490893 618929520 121579088 77350064 105211622 389053096 172810138 230954670 24503353 96863153 977478196 486992333 65756823 321020451 936521691 979984184 610575569 804175730 450412157 369095800 393618549 207583505 675624889 291849173 594384176 175353015 313169516 826649692 456557931 421397566 96325926 346360953 434793357 648230451 764436933 523429181 796849412 654666738 853868486 207395356 467399043 869583663 321653249 901597395 182928046 417830243 854081116 953913608 102876362 142020285 691022569 615152277 103664200 686478685 124381492 913578281 259088181 166056986 873013975 738447195 57916007 467443912 812728553 394311439 43756683 192356400 148083325 897100466 57142000 93886638 616908442 321472166 570762214 700112331 773673011 524597135 781858826 123428954 845387589 769780066 793529768 831601175 984385959 505969965 755767309 283655542 640644693 603951605 794352725 673829545 609400237 100943746 267185625 524382460 697577375 793500977 788402972 771391676 419466495 493274076 7994748 408151605 756599642 109961187 698920853 137070143 449351374 938127046 738906001 138507158 162526374 533942764 459746516 166459587 621055647 525191390 781415856 825901171 58796891 542648584 589993085 774546173 765982870 261414632 659931344 139784088 575513385 164020309 910079886 544749035 54953133 549275506 365076418 307598529 658263239 145807520 979095430 714105257 583552681 32623499 344001945 42647400 554236443 281019269 515419024 204620421 916766157 708340239 139159927 494654712 976230465 344605696 466700170 243819293 217673487 436163423 494643894 569197615 301009365 838654109 122044129 541543338 360653386 435962185 441765609 485400025 963709614 505199685 779142078 424257618 229159076 135923539 137673460 69285493 82457120 659973270 48199677 562178938 100297798 722351191 58941940 395764559 726343797 793134045 95395422 685547132 584895958 257342124 36219380 453685919 398323926 820716097 732687132 956128922 802803569 542767890 426829813 103488651 494980477 676561551 913553713 852751369 212830430 682195031 293349430 405858803 770203008 485927366 37138188 322508834 6290890 79274999 50979828 338358546 858516170 349063631 732378818 549736317 106162590 205201452 889561732 171398832 181665402 766440987 889676900 502997156 983659626 247900491 338835601 769792688 688549604 149307475 331300085 140719357 196563225 213477166 447970463 885408511 544659606 793566395 164914511 789214527 339014166 260963501 986797230 675265964 757996 5160806 206513389 959243625 185826453 56257808 990508639 22993010 419951560 691049215 232651302 282787967 69697857 203800498 98082015 490032717 126362906 443783555 419877386 57368186 113683978 212023974 331419523 391032473 641286053 813156537 120279059 248455966 607228799 705535339 901798646 55548503 979572907 278559176 742492698 676817012 183682876 316561668 216761105 820721460 349507250 105631839 199062745 757387768 371455767 808650313 926944842 138429155 705023079 397723089 541066127 78780043 994957896 402553515 617747342 644334368 261938568 245123798 807191812 127915153 506454417 695084038 283708275 872351708 31094366 959585649 225324695 578918382 769479776 224195085 350555415 379458033 313947801 211072408 466059296 208020345 230499655 580186028 165004507 523490112 683627606 889381170 717925991 792572566 590159020 888940597 876906844 826525859 133770614 798996532 772343572 172883906 296298723 694954598 747332879 469674422 420780434 934455470 312468913 803305895 866736935 254488166 60167414 592814150 249903208 995198258 439543524 771492118 903165822 559184246 197571798 226579327 859540200 326665753 129814583 933397666 74765412 947994678 694015537 496241649 3926928 736073736 713016277 842020969 721564135 593947335 113613088 896932122 824831395 422987485 987022497 157289138 164481013 474313436 945240180 893362674 283813165 252631038 796658 524146570 917337322 785261983 946239534 350329021 35859286 694624419 204078190 912391741 63787998 203948684 885544152 756374840 110159223 174263228 419586564 507058496 116367453 161452535 620115006 89518091 531790301 232692136 312603046 982642327 721534085 568216068 771926557 486480669 917680835 207156660 695178693 845259944 329941661 755760444 713923670 115408676 763977221 108253394 555889927 421901029 442366001 72526228 461878407 108399401 975250430 659859962 131761116 375134948 251532920 779177190 575570156 847274281 649360279 998761746 966370033 426022751 45164739 495098643 552901380 797229505 202377437 274236776 822458713 202858735 407245476 795988945 495550626 596823929 413033338 697476389 802569738 604311364 606921399 169993181 851723228 336427947 146909706 945982828 658132390 187594916 446608035 990044144 287519681 653424178 976540169 231068602 446108146 239915099 495349138 931047573 801087322 237210966 478318220 304230808 884996847 544286925 463880736 124839919 292501317 588285929 218567964 392386247 378528292 567008193 753257753 218998118 670544592 646467653 895688471 73922217 466476542 792791802 285011360 27061537 46040037 208724167 969914915 104215678 845236922 381613567 163667765 527248642 492294943 932463379 372121242 218591740 629276979 292112525 489974186 451886724 663259196 299491044 232278579 682404476 892670959 177545036 209279714 103780750 643978694 683346477 246038851 724625367 828153316 443258301 619749536 654407957 415504832 481435580 97916839 224944676 14974584 578135623 324041134 984815891 596819089 962755261 498251378 648346197 592953075 461427949 493148579 898150673 240215760 424832567 663802067 95164266 925884056 460104655 66414377 499592285 856155668 850801772 144483472 787927120 114864445 234842569 793048972 501171992 997472667 121463782 286716491 559509906 823810692 553249800 384535177 539326615 816500676 191506064 961050657 495529861 653375954 5610113 831460429 704859874 71751771 767794193 480375628 961956590 289440957 95183480 399557868 983289340 575587837 854972141 458910937 354645555 718084392 455413405 658214968 140541696 616164295 541435499 599584211 44874551 69124269 487745888 678067936 150246615 278826306 961177655 681647440 999375357 476280720 373436738 548046110 69543980 929565024 708940071 172625586 970080205 706022801 224377431 114991353 513040731 14046178 854979252 879277932 684197145 72466604 892629897 231445445 579425102 821137300 480150824 871143321 624484379 121706090 479298148 962327594 755529890 598701086 844242244 564665044 421752461 496048399 520503962 80311343 843835877 630234141 518266494 449794448 139915407 327233374 863980442 490386497 109577520 383035524 154365027 729766647 999330312 478770981 214495760 99384932 752883977 283760746 192859373 607322324 92812697 640740584 348620460 399169007 690005078 863888934 593339303 206335173 947768855 639609010 50981114 780940493 56382524 327240757 153838142 781118984 159185286 809713928 756702720 661011113 354116958 911349044 902592659 90492280 711651532 946479615 689016118 855904030 433613775 356950257 216456450 27827452 423901030 499227001 790922504 15755316 925280305 189441081 543357434 926825118 539708769 585275180 942867040 728183616 43394752 309813533 272919250 475800339 37331891 982984040 580636980 988518656 445336337 361027527 632210476 480387159 987131948 483589099 876656222 536979138 404836594 788599251 314088914 618338864 35285318 140304233 902004368 726839700 283261516 317349392 567645068 768732881 774340594 703142896 829548937 238610976 520359121 901008125 357701883 225672246 964869369 590723871 36856125 22387971 399883858 167062980 298500736 473216227 244690021 725957546 601070865 447888915 279129486 323187162 669138461 347309451 281679134 840087034 785021038 197154671 470188125 320558587 993171114 372272842 191753122 726275658 143926573 107724088 785785456 691133589 574443475 897086550 730353338 255817170 405862857 581715606 600428540 498347 893728245 897119853 330582907 396416516 513965556 645789008 858084212 42834799 193814278 770333894 125323850 91924716 40791244 99344332 314630310 197813741 111127787 735284065 845723805 175342027 368381295 257192241 611896963 693846740 973919119 334580816 204688611 395628023 611611382 568056062 598857151 687501830 694462703 877096774 182985694 876846879 76709427 424127383 956088478 457495879 790043615 46068088 498290130 41910349 327025246 441270822 586848800 585983771 967461170 950834539 708118929 452240795 589571112 532645515 61285396 740989086 558374921 171584433 832346818 292583214 384776291 494203808 31246298 984812249 601585342 383455774 213090647 579982753 948075434 571141222 296366806 909731263 662596429 774104405 147930958 195033622 301674544 572858400 880679750 825354291 660081465 659214504 506987027 757424152 650356086 169433057 735668935 831460716 541103514 357627627 802030513 564289667 465590775 572513298 593139765 798490077 1003700 621638176 641650150 840671417 639619728 517604103 629343289 392462470 802435703 905200252 689800761 749155403 335071826 452837642 129326506 535864473 833329794 161156538 644519487 653233968 45817911 739645106 52556387 831159095 363436703 521875801 383311754 475466772 393340489 120932352 969505992 743601276 408431492 23735361 234810580 866512393 543012823 817869264 222090143 213211938 740699983 576507570 806880379 3623858 706986620 292177847 528335913 8979500 648977804 661464595 591720755 967110907 333643368 953652763 334973155 72562388 341306876 171656683 798920081 310458909 35007906 941183608 58424095 54958665 750819102 503299236 265665101 667988330 58914753 249094242 849666212 157433447 279635447 138258469 556970903 272575510 647632368 274342069 574797489 284995140 804296670 371890570 444197812 112227735 681832336 927064647 914496790 569927190 209171450 594744892 87925938 325297790 341000685 114884823 86081224 615180115 425958230 532958866 41418025 504947108 835485308 876232564 789199819 384040848 886702439 233260698 242120690 541703952 102587178 290656896 345757926 381348257 303791079 607749308 756138041 196536570 606037049 83151580 455533161 68205015 679450910 97175178 211966944 169977562 503796428 929879747 167267256 323514156 587780048 986881364 186287227 422292031 528456468 327221574 684140348 454222954 835862924 461801415 889160979 237137477 435604974 752282538 98976635 207111191 285278105 898566104 152530318 927631984 591505646 585431923 531950373 593454220 870404153 294905357 227711322 28941279 296460155 122507145 23177596 999920962 228750065 515081867 69061815 552505680 127125678 500796738 757693082 713300729 701651480 366429193 382045285 910115823 36732104 829146737 687815922 870973034 519147976 689642641 705765853 552700934 382458659 833430584 600933231 784811516 650354006 226272247 933122056 203251536 956027366 519499410 98326185 161140159 527041801 509658449 390392107 958562623 643344389 245694408 20359871 800222539 769958513 393633696 816025866 204615750 677851756 454783011 450900217 646957031 732361351 498338000 516724081 713146200 495649382 755243281 827809872 978054074 749325695 708852357 905543031 837942815 763240565 639888419 635863744 15582030 556199356 796132849 524370551 554628699 397944089 572800109 894951003 84746984 351967112 295773995 725449786 625907125 710133786 483412989 481680395 915584041 272516929 756786759 354770725 111221630 327369434 911944611 528348406 965650663 768935432 443896275 19606798 891679306 417585939 153186071 588898900 406159897 184441475 306115652 543954241 503960018 130133518 291553170 753994745 643965462 109437151 53599393 618118891 992341014 724075565 933858774 804761451 438638049 369550521 833412411 85774858 468039822 873011407 277785685 13692249 400773138 357465504 593323567 288522404 956466426 500292272 253925385 103473394 136271584 438286051 894694277 289792367 276746839 998148743 752640611 976060102 177012520 204314139 373101786 107134667 70811635 843422970 853636721 174327433 597709039 399794926 592556397 908774052 763780078 957281989 681552188 603573453 308787237 494486154 582696424 118987705 109230943 54295280 498402706 557491692 258486886 441692594 626771873 700897166 704284146 250044946 996116278 669626187 457742342 142419242 321850863 895522298 705709713 464146514 452724003 563876705 478051061 743204674 583112090 311489203 647356991 381069353 29926532 702956555 503312301 939387759 527208866 46784855 230301986 97913837 958495443 148246064 825383767 296857188 221459864 822870263 863445976 998294094 337785526 88343220 548888645 782947570 682862945 529967377 117138901 313830667 484134202 49985922 721782918 563500308 527369648 197445011 761925917 960496535 127915199 556781044 102926885 326761316 988508703 474871249 288030448 625365266 372424365 454903555 984517175 400591275 460980694 517628860 688620445 435284342 125640367 879923560 797751532 209888237 79305694 429586221 288019461 903583700 34971688 394367564 117168878 571251143 965006926 744302949 716951830 240914121 292081401 576264490 325634725 322473871 740750095 856255600 306552405 80702277 91000746 881897956 406840285 288638341 946575331 731723960 603280151 590001207 306265363 82811459 38366469 75742549 123507788 540877439 75554353 101181672 562552307 637486020 506899265 165237111 405799888 12226323 584608706 652115037 786627758 152554557 457223679 586397289 512074845 65278059 738390520 309079493 489442489 676316777 17258120 767536455 66632674 815036557 696519766 857555284 457776556 112329804 674717456 411881798 876458018 829489377 810619084 455645343 27158626 996476552 10644591 787730278 118296881 528503210 904920030 416954279 520739319 376299835 101726833 593851367 839929185 233067646 872648211 220638999 907393140 884462017 919172368 363890201 787260235 251038868 968344798 915519336 725597702 156998957 699819318 930945288 252127915 436866158 652118254 585537215 878342531 184431871 532721954 644341229 165178128 228356082 906951288 430287850 451931315 909075092 498190823 710864236 72285070 887333027 607169327 613592585 407577491 75162368 316327698 28086428 260852714 3421584 895068281 2494432 16561397 848970465 879532378 253061708 152686336 174309605 617150621 169973505 203917961 911097239 971227375 149655092 968804831 503530461 456050137 591278528 90923995 191848572 685990518 416741566 135438072 734176133 884675315 492233761 596698020 3025537 27190784 586043387 718433729 484312 50314063 488815459 750438829 498176849 384035653 894549166 658988795 468766198 638110147 676836671 53072806 460856347 718512878 810923122 82929288 291889230 883592865 74087954 108906810 261213822 800010171 578613025 187534998 976331752 757065732 852300970 623764122 811501567 352761516 883451611 856986807 593568574 334661848 576620775 568667582 509134572 138243570 940212792 616720370 354765169 718840968 946511787 343962495 920851252 788872704 444287400 809217685 887653980 994218377 281902636 182057751 574382795 771020830 392121093 657687960 838685347 602210183 694644164 703551221 337898083 625965375 495072622 505479473 896544525 378944934 290210736 177263657 888141395 513979596 169918601 943822712 445087459 434463318 325648716 331773708 425976169 463566954 354473579 425880908 825268079 792667848 989998422 859820521 225800626 145100304 977667252 545374872 598146885 584545728 66825671 319488676 741820644 845685254 204379353 175547569 303565009 91079293 568031537 192226653 176331218 496099031 471157233 880693281 654836520 507993602 193233856 606723792 169152421 686286791 553396841 548320732 795536844 540625121 718723425 345192699 897546349 398677832 677262600 367190453 812467764 888385326 177263522 463218617 84877042 95463936 73697448 504883216 639807710 42305248 607918594 835568623 293552209 313503527 688277346 687947763 896234829 973399708 524764433 485915653 557469446 824716467 898074631 20616882 403206531 649808728 786948020 67685400 714269897 832524561 262888865 275404763 85094599 92209605 556243418 450703018 620062813 730899227 253680098 512298066 496918299 782562836 763281027 493197840 490171648 114923406 700946479 715598177 468453087 778481604 671708453 835770100 460711630 133449146 10731608 821916031 370331323 627311225 709399658 239363094 185377618 596229815 360840015 538767831 184205309 151657818 101405766 672640845 173431494 563520163 459790881 166707300 216147626 25023923 540807340 553716303 904780888 671550944 704702755 903916745 806092235 865979744 772103949 462862798 419420369 589601571 522121774 873730470 89409104 526333330 684288186 505224390 299400850 339713612 841809150 389229479 357187372 747198635 37252994 357917732 536907057 803196157 584424699 109736516 179815733 81516930 53096526 340222503 756255836 345855220 251125273 933942938 496262157 408731136 239669072 716492215 321424748 658661647 90383999 768130834 620026955 269916390 9678275 408611718 36739400 164698062 733972066 188058531 540011270 633947745 766597627 480324057 966382514 611508586 93544129 39749422 881993149 586500119 310723973 97085798 1320655 512385965 921364644 996862164 633894244 629924535 610007212 645451388 191084499 441437286 546949617 69384031 91291848 359756577 764684088 371019752 876818970 86846923 790446997 912416292 883452069 791478781 948790636 110586018 392027530 50870097 811883371 890525655 772943817 203838261 910376551 616298258 169517751 720893386 636664207 40047324 45864487 145762335 367440437 488539021 177322569 234017577 241485092 986989008 79055485 388621074 290854732 704458824 257285496 826880422 347046398 63326776 912589260 17508640 575031242 178326132 69553069 667761069 676814332 679785185 647553686 456079625 954050188 890357321 173457214 824275706 843611670 741363382 887882176 564242336 716272202 713929911 343050568 872603639 540437854 471492348 862111278 447201192 725988565 115638619 342508832 679857300 650374080 83495709 562210370 782221590 282942015 258248925 119505888 486142556 166635727 98738883 124945015 30360840 477801603 487610102 983181004 997718404 836709355 292138050 832409832 754356693 586478248 998723746 234171094 601654922 49707817 315919986 693537175 122040482 906809208 269568324 181451607 926197665 103597709 422614313 237740045 99333871 802338148 726858228 387792267 126851337 194050634 771040747 299625241 948087922 848056685 189348496 942851826 620284172 404650672 195017941 188325978 660317822 754236545 967814075 278339948 750713361 932456350 952366378 362725802 304207405 125639067 141311403 376336099 354467158 515689909 854829838 867133990 355018754 509820707 111425776 29728513 727536036 798162283 776539689 394013738 958705267 388171216 32857367 78515809 914696398 408375638 871968172 207292298 986678119 762405262 222600277 249603613 787747224 191114177 374543690 230420619 582649763 432376107 636700294 343584198 618275711 32844670 385461542 348385744 395281734 327528299 831212888 750603709 281297515 985714720 305965768 449918226 279878216 579282913 657707292 642231202 882720708 959244065 321370174 705390389 909354762 491539477 329955088 256511153 38120188 154885745 676835239 740896687 954884200 869108168 402779693 453564290 694619104 21174428 339149083 817464006 807916604 175488596 736998186 674475836 358465743 833106754 727654564 228914323 10369939 258046074 693742054 416826712 109947955 869666915 321129296 228396061 925202211 83414993 376734511 169857382 155598339 161996860 907998650 309706381 488165612 474708227 820852031 246302185 395371228 355633274 130274469 921265986 33999906 936882662 144994954 631976602 310806362 103341283 183136408 975091578