898 48 498 48 210 136 279 379 904 86 347 132 897 597 654 967 425 642 20 922 878 205 919 759 411 196 756 546 684 832 747 251 157 851 227 470 248 234 798 841 719 200 672 941 934 836 278 145 221 348 581 707 333 385 760 16 864 340 246 343 174 234 858 969 725 156 341 771 248 882 386 935 187 482 128 944 350 683 845 421 937 894 369 856 855 879 9 526 814 905 581 41 550 432 516 989 999 259 679 161 240 785 659 167 829 938 722 221 473 882 852 196 636 426 146 904 495 128 772 241 526 824 307 362 844 290 481 81 638 614 760 502 128 654 137 7 117 739 80 130
40 113
8 72
12 12
99 134
36 82
15 87
7 49
51 91
134 135
71 89
59 81
78 101
92 126
138 138
46 72
86 111
41 74
34 123
44 97
17 106
83 106
100 129
108 120
21 103
9 32
101 132
25 131
82 120
81 116
126 132
94 127
74 109
101 128
64 85
32 40
50 136
68 76
58 95
40 110
104 133
66 108
17 118
84 107
28 119
114 115
63 111
60 120
136 136
22 132
105 138
18 91
25 108
111 120
130 133
6 81
92 132
101 118
8 59
124 136
64 116
94 122
134 136
120 120
107 129
25 96
124 137
11 60
44 71
29 56
30 114
3 113
12 131
84 110
70 90
93 128
18 19
12 45
115 135
3 131
17 53
43 71
133 133
108 112
27 92
120 121
77 90
12 41
26 94
82 111
132 133
54 81
116 131
74 123
131 132
16 56
7 14
75 104
39 90
21 119
79 104
25 53
137 137
9 73
39 79
57 65
52 67
85 120
50 85
108 134
53 120
80 83
36 39
18 33
82 136
9 13
58 65
111 131
70 72
89 89
75 138
38 135
52 103
92 115
138 138
115 121
5 87
114 125
120 135
126 136
48 83
66 78
85 99
59 104
82 136
69 107
70 138
28 136
7 28
53 102
103 115
25 31
137 137
108 118
35 41
72 124
41 92
18 99
112 124
138 138
125 138
84 85
50 124
48 134
14 52
65 66
35 51
91 123
128 133
81 106
76 110
26 59
2 133
82 90
124 125
22 41
7 21
67 119
29 84
3 116
29 50
84 136
25 110
22 110
65 115
78 118
32 99
117 121
49 57
91 138
11 72
80 107
97 98
8 35
