91965 131243161
361079189 586063790 540939460 12347451 104193939 362490758 204752680 219833888 908045759 425349574 917361306 74362942 750688211 232282651 640358769 70111501 919564390 216699104 705425770 155403872 678756230 130754811 248913355 138060142 209599965 674264414 705964139 794248730 343872242 710792453 730670031 812045776 932159002 819838968 31782488 100577198 301910475 68352258 963873681 798029139 234222660 23310693 763571692 199193113 59800121 250997025 180902221 571310522 166272796 624296629 507136244 893966111 85998473 919102007 690022113 905401565 569930670 213133632 336224084 117028685 678183094 819573336 674786460 913701159 864218625 19702398 737270244 915624981 166659718 781320440 719752908 130387945 150172136 756699072 966063036 119301665 949110862 136144103 251536062 155058203 330329885 751736006 35120362 552088715 354866275 345521900 887878469 538418721 90603622 730932159 748318536 854777696 201436535 550388199 764388194 891528171 583280480 952244623 736019216 827909807 878284978 955420393 83557116 728120776 908380717 785345893 998986883 777356523 327309695 245989362 147290273 563064147 283066984 94785948 678802181 320911491 246984877 414559677 354222488 907818530 740736123 909338342 468022457 136609195 192297506 425294245 472170445 453431829 747557659 929369415 891557810 800968317 392040582 261904015 245250755 791221840 538176529 842901937 686232193 83575266 340759251 418615794 662026024 296481494 876762317 315717619 974811089 665757557 362405259 523785098 4876738 346872311 739053516 330952440 995022651 863775009 593059412 155113402 682239194 763734052 368355401 178937218 762645807 722717440 976152273 463348767 694006836 378626361 77820450 95775086 751021323 790912468 603892357 616953081 570627511 497856157 137470073 484257759 638602133 997548074 962584512 403813930 556167377 26986639 757652660 403585766 682300617 511075185 993133429 206123730 139785080 956573133 648538805 972336164 624605671 699773655 9042432 417166806 572373244 704543221 564064683 154678439 573804719 595282292 41233360 418565022 139551596 94423426 330661708 706382669 368392054 105232002 63284952 255778625 497251727 137652466 961030095 851230055 594818211 667645452 91447511 50868343 750927622 125278413 641979319 123735349 574415353 109879789 345154361 614432591 532657066 604162906 197159271 630191189 291797393 310020707 349826882 414637418 818005105 723398673 518526363 865359560 42874722 14790676 998753036 421533205 329090614 810207399 371260954 662305394 600582987 954850094 813116129 763184176 697188746 518437697 815545798 28651714 3789334 591386896 204865917 676164669 939454604 134456156 516616892 262610418 473629848 664344 839438162 647894161 653092698 607011685 454779985 706532863 49042535 600131719 914236090 559182188 433953977 711954970 946838484 531819385 61494161 182793220 486649590 687924487 812531886 971009256 751139850 628242101 177004623 990710598 540927720 686120306 109587842 161382103 624159637 942689436 149691060 594371657 330627995 60050659 298387347 998878998 887869442 202938112 927725463 217855453 635337627 452868412 88832343 681551280 754384008 867775965 358324181 14928188 633052285 460846080 88691901 836485895 398271363 841345524 865218429 638868487 944202047 999056429 765280270 91854359 405191478 189185183 696128526 589343173 444395972 289101841 918474498 604618871 109079561 333168557 938389931 104060300 761090518 241789664 920075015 796328327 900641222 227888245 315401425 758834031 668624929 953429984 567723181 413402910 858363850 581803140 406593848 866629877 921917121 285787097 681636172 907775115 934782285 787092811 562966943 283860683 496043702 665748244 266053832 445395861 83428877 95254471 454372617 355640763 781668540 689624726 628908437 972225471 415486456 761784049 63054143 301481078 645198386 643907342 273526956 753590281 971332968 462918498 97360035 209851794 561119117 978546380 575782672 392471938 12188476 199457995 430861203 312089017 115656339 162613036 750348343 866084961 971124961 905528193 368044624 740218527 705110080 46947829 486423808 737155174 36657023 100275750 591213537 141647666 988646079 555775195 474045852 34729516 726856347 144270258 702029934 452101971 904073916 543210117 996207761 654150904 726234546 876450616 250365695 425916724 635945840 116118719 257506447 36239092 300242788 94637886 892173286 612886447 62906653 513642367 112143172 74411746 10101599 606223658 988926779 548285430 614174595 293326393 950062101 829321728 393184973 467800171 879234629 724796130 57487294 121059485 473353529 1470637 258489805 295233531 92005511 634812470 905861851 857397345 55713470 148388159 68102119 46531365 562979600 640197080 993747391 231104867 306332792 365536022 647307622 410310811 978764699 178452290 512489061 359806698 475070952 112086681 275891041 301086450 474957701 465557090 806718944 622098208 937230628 471140351 664731269 261218060 787631721 964378237 24249148 660066791 709131671 34053256 104290966 292139046 419427818 715904646 558882774 70956654 636714118 80915255 68441958 941586603 371373357 572352721 532221250 51092304 538068166 615140508 2770953 671555328 468715714 601323713 321905424 742603406 714099114 438064816 889957906 850847467 236504842 672630330 656028320 627222135 905354338 389367202 321888352 672476091 561499181 644249160 66243376 321550872 119189021 314243087 959693322 828794482 153782054 45496319 222191672 154084256 775046411 464327448 219917345 111238744 665384691 571019808 372017686 761188198 427255131 757704247 755460015 550633068 942859260 718034433 285592360 337187812 27935637 433172261 30526589 982188956 418907600 114904893 884577960 992009452 140940717 141174006 366978875 242298174 32366226 574552909 61860374 550011662 573195894 218765873 376632897 990085091 808755787 308453176 68056609 182063065 332414303 45453804 725737697 837073832 258597858 684592037 301138763 967509890 217965326 939227335 108553233 2963489 165571158 697558085 645802626 238525732 807695920 246843288 967419194 889409126 661046562 41482723 111355425 336787313 995491716 567211880 640937325 909849743 343606174 264053918 271083852 526440362 638688653 10986679 469693666 460377325 520096356 39328411 691858086 825590015 837393861 141661840 244310525 832054070 994155616 519663159 795526706 248563239 105917834 382797233 135752798 545469531 546641277 414517912 994587675 669607432 699090690 644367438 630335344 712434369 323888913 482751835 263958149 239407810 3344844 415860091 408202893 36576780 704353585 957085146 25047226 131676597 983100120 810101558 27200494 63751094 550435639 900139508 768095266 29516985 807865771 854141958 423253497 263988269 622737093 338064345 709593940 23827259 23505665 335529285 763626541 970392417 44135622 473938776 656328606 954341545 18166439 232356062 27200879 524277864 192831549 996318589 23437920 261301730 326434992 211346997 9535446 115282687 333489160 158452633 715950299 251671296 342525644 448249761 993250649 791157141 823934295 718754354 909388454 2669087 814186475 491987017 418657258 11825601 883153454 973962438 998916064 108045440 208900172 1137642 730407411 342759030 897127049 442973685 45626960 845854389 780400942 920794660 971722937 122730969 490621936 62035797 973584948 552191436 842654425 929483133 244816069 698638959 660952045 504239383 228242908 706978344 487698329 171256875 78005550 598071315 168308176 437428104 919176692 888367469 715156176 74088707 891819909 711698649 913469807 661048096 875508305 710788665 871446602 73327062 207429480 483513357 85419365 287898644 128877972 370698158 437149037 10473759 786656054 908921910 479543527 580119081 206885021 103039680 107330364 298261237 561512897 135695547 1044117 594192254 673525923 322178181 167873036 822120759 274983103 633818373 785745136 136125830 211734375 241104704 732481440 684719113 349523266 990197603 515892534 188483028 371052813 334575504 961287786 313644870 93294956 641017770 740113061 233973235 956903259 649467154 238368837 286109138 313284305 769710134 47718314 384073062 351667290 929311693 114511139 816064224 917185151 683516193 25977383 428778516 354131112 70773111 976517521 157204634 660707253 372984207 396971822 721267600 967150618 749162441 148992270 508093351 972985048 272250712 319498756 291608909 28596974 795996282 493371725 664384866 165597881 378586627 21871758 654765559 577628871 115182808 861623058 17634125 732464172 998114446 278083727 765900572 428224742 745525688 842914363 898810493 612416738 826271586 523639571 148652688 759153683 544851966 199205257 653982244 744461077 867807139 588320516 312479160 843358842 879423152 749539597 338105006 853677778 722086167 923440905 451057308 399577228 29783574 475566723 208895912 673320434 128047972 690135222 123120386 684292151 309218608 771495951 328664010 916856282 149460899 654638236 214212859 590015010 777755729 677201273 722499104 587271834 767918911 374850712 880080720 678090193 961665034 83875886 849070757 520362052 145716186 990511631 442740273 967103423 839071899 989162326 798342700 431605883 665651071 152996869 185130841 832734797 792002274 161230856 519368408 677774371 337005484 444791730 50977529 415568408 663622261 212444544 313015460 655726353 566029212 606344745 458472250 106963004 528979956 406165851 133988177 913031837 486157382 966376821 616005495 88615351 606482183 983987829 473787343 812628852 582253692 9725867 975032120 716893438 219393793 192399797 750053993 547276259 459921750 247913030 365741742 94256868 868468505 985166239 603468248 861550515 926293789 535216086 500473146 951956053 718012780 580017875 288715715 88380641 939344506 770514205 735675312 260952760 924769671 667385656 101227907 14024663 975983324 749003421 753502526 4919442 479926870 749867473 537002126 39385165 10370720 259534564 274079415 927636675 118499602 40223098 835486471 306592974 428655408 59587402 156882350 484181129 620605995 918491858 908389180 518497057 789166265 461075029 337178798 344146395 156408791 791403136 61563639 445408370 154740710 631523311 324938501 916379008 514347087 316299480 42363760 188417163 337104419 410942741 587732622 401775060 725775035 976423948 254384899 286291054 25794130 270910706 218192144 293415340 676969358 445709702 164063600 783283812 816118454 193419729 833426298 221094257 79513333 992006857 963526244 73633065 124315764 489006688 690443491 632138737 663133985 75582295 498898525 677418820 71929819 49288076 397652883 15111864 699256495 138579058 981082978 194235135 601865208 545921359 519317474 346222208 544322094 59857863 649271801 103803350 67593502 713334642 898790869 125594990 508484643 443130203 924321487 668194142 262514740 669205830 622090007 82930362 608545069 502246023 907715796 399907100 411352903 553641000 235696196 962955808 229441222 248644335 227850843 813169140 391216816 353757371 521446345 299700079 170813925 568362095 946280828 666313208 498148802 148887041 551496823 139777558 339125324 370979603 820593838 357388492 719473938 386162347 265621418 704560983 342019884 840875936 470420651 531071063 932469923 902135504 951823665 453578349 656545309 199534781 798709811 433758666 770427599 763132 613081193 253084915 228825346 605370492 153802276 160743239 81161958 223225373 289835114 465427656 246843360 193566563 353510912 910811997 288522027 622841080 825568217 762124147 92150344 423295914 203104597 130242611 566354115 498311248 440511669 79747105 556289814 294653569 624927758 571153851 625958197 286429379 782937634 444791135 787474364 494794542 2213952 561714455 989106736 99910484 434292063 706406124 748112606 530619990 837308595 500356771 12647130 630784816 139020309 961737658 166068019 849281932 984042574 106025870 625804378 504632998 955934713 270411602 612941690 345006717 86424551 147419215 188904391 432403730 495100245 540890360 81021749 287924000 410445014 292538163 356239679 925225258 687975716 127994230 601888140 422837294 327833028 298123340 153783325 901664083 391068818 985932617 509023434 549987626 145663700 765656033 594857936 299487356 677655796 72648255 424539806 640412717 850872532 585532263 271830230 100827550 911260805 407614204 935516558 155985709 670199514 600127695 759605128 511086750 349924566 932949471 53829377 620681940 435824681 389122923 770683936 100868722 936732195 746848807 555973486 189833850 384746960 118872867 267665080 736675193 157489756 756527221 207809966 172591886 111990028 973983214 974729609 535790186 764216161 561702814 741498005 528343563 274805665 780930801 323000565 450206471 404105770 271236600 355226574 17768167 23140256 77545840 298892480 211374440 810765361 880449767 442263987 302426816 310855395 347086232 932393772 19255766 765703092 539656107 696478633 549857578 350736460 264593787 515419890 252283574 643930004 96344979 489251583 257590977 246051599 672344259 36763999 116847234 642006975 21585231 842462620 376928628 41753754 602839866 226023240 44293130 868130390 54149064 16339742 688223825 651550979 215875782 710251161 400392495 540637101 315300162 352498176 407937724 975982295 890568773 381209980 822759098 467157687 828228762 94857499 464837483 777683294 612956670 504850866 774598752 545402919 799821361 946217903 328781994 470391496 745029683 306430717 367096014 608239184 971177545 499996346 217676152 226753020 586836202 220887424 156698797 624760084 743083730 953365753 549761745 9861442 296853611 425765903 728040074 286295645 951602209 985317011 716779839 418340651 133840115 365928210 601629925 341694166 603109291 939799568 861510109 276671620 521107218 794058150 252226559 748437856 937359877 866766444 884087974 241543538 828781762 34191878 715553304 828193121 202941070 172462983 655238158 20041114 559844784 539471162 490526121 744307925 441532252 101862425 729375127 678619512 647446467 392088920 798456201 29318761 582484842 712625246 601860858 575759385 425672469 90156851 152839708 350024034 759935391 532318675 995305313 233792382 891308017 490395264 892302452 642933733 755363888 317489272 225323685 496152577 555106425 728683379 904999876 24525999 128156614 73012898 35356764 338580010 141614745 289759 623992616 337978527 736244929 653926083 517816641 173836897 356982946 365040658 593030145 693400897 109517801 806411794 139033699 670736764 67140338 408142264 364927645 244732527 671104620 989483244 423514750 877546877 275978961 196689295 65914526 493750795 750570292 844090915 347441631 830276900 913308235 308792897 951058770 515298067 303590321 11260427 971597148 121573049 292115520 655525435 756126692 529163701 603957572 802662881 260459076 501914219 251657442 855982415 289311725 915242746 13829453 687500852 889146904 962241283 321067992 432018525 232093577 160582991 249581100 480237010 847402251 834299983 748333675 709353954 760875085 681742686 4032947 863872497 436295501 147491729 911865221 161485143 305741845 15026112 246683010 62992020 63184518 431348532 48611165 416401879 959955631 172593222 605528784 254688211 507061142 740536715 754331843 429606215 165914463 737009899 803871227 888017307 275072635 432857069 617018106 870125746 882384252 972634025 984665794 966920583 836398031 112755326 513831326 335159144 845886413 777589091 856052413 415457505 624472200 296705230 114399613 30573579 801385232 316173672 757205064 602234349 699880994 407145739 150809598 374116868 260071226 544656890 285069031 32094479 700549274 946048447 422430032 500060580 327553191 235574823 424133605 427518526 547915933 704596211 563493081 858601565 451856912 532908672 712191496 135615195 269336650 156320139 447667472 42971389 719188296 5269677 569138447 312404751 340350951 836068656 381677957 644744476 264507734 777874021 994685802 502746808 689520745 902580763 427387697 831347860 804074448 342917776 949049135 974564469 838503637 93511348 267798741 337455711 682889678 857469637 664909640 907368631 427451682 632955173 547964057 707388513 920331202 39049667 484197651 579574476 65636850 53178772 314496098 488278038 344401283 565133936 770526493 153327915 735290701 715000906 500401701 842188981 19777600 325776871 8636115 787032553 635401216 162778308 848409055 71957725 323673228 254892922 661739046 99630300 387086699 540643179 884644440 443387998 855860580 400172369 86571399 156986230 57762402 974881318 414156116 981424263 653172309 496883975 78375713 610340589 967540066 493331397 357709333 136199761 129572203 54807014 620158274 194995032 319285276 265655469 131369272 17820249 999495476 316445707 273063526 795745412 518704446 282531919 834353117 289477134 660581933 746523385 411917109 281198608 554134764 519737099 901280345 937903128 400765572 178036886 459040776 967680342 539354391 369544263 933477136 614195784 715658048 319132046 122761164 380439266 247280551 909180326 893353023 818047822 270500348 240129788 576495994 209044256 800781154 763392076 486394578 771858404 41816080 340324051 481317045 871473588 557568726 326222459 281150577 843713129 315259900 569802434 787977281 928566314 914910956 634065379 195402951 454966941 466598877 421788995 683162774 839923760 654289196 599638063 616864006 26876180 474661806 578821362 72001341 547895468 677514848 550307235 580866603 987962575 198921597 34718321 747662547 815351736 777760063 16188108 427974246 62342653 838003069 515122419 983957809 206141741 834653786 127707743 332114155 880389470 747929601 994968516 328153417 869754871 623024576 690436152 986226181 754143400 149102146 729191027 291297588 186906291 978357139 519225606 576352880 159083080 87051492 479179757 667936817 612918889 543917825 479932190 314027920 122842874 443955248 437569933 937907561 567525088 420382801 403769431 154906940 68691519 288045366 984357485 654689405 562314197 282053725 226299248 56770661 513939879 695085743 133730530 917090442 173952890 771274481 823101729 109525044 753347512 28746331 586897584 585899141 496993683 756837489 389270092 491919282 635222553 59630116 835964587 113110253 912576685 5973015 22550361 943326902 851259066 316623540 228404907 647763666 212054521 759331389 820001496 745410747 3403857 682235341 205500149 222497592 572714833 499733327 862816337 737299454 623027325 16577280 271955332 938415849 817477215 992718922 982683749 282686646 725707892 360448574 780437700 459634192 464123271 996837708 172789445 871458392 881535063 689948433 324468571 388478517 683515379 269738275 216521037 103398567 733788055 396092498 653578542 495156736 355161723 364463370 338542690 309838815 631423311 334301090 708045243 108082154 609430415 52563735 476600391 483147330 602855321 946025696 644141306 288655458 684065572 975189934 416648576 88638825 570411680 836548084 327869641 193522292 21842237 930279392 663573510 104211995 135717128 246774927 837649052 547022680 759740461 872961096 934021837 706680746 577761932 183876715 89915392 758954709 469204719 242094109 546925662 855647150 191325819 319038082 8985340 31256941 432237828 910048249 872995958 710551060 640852021 586931491 348670693 537945866 387119097 965634490 869420474 278610537 490785401 921704172 752633994 485875676 815206185 718222355 339098228 842541471 96680700 290890473 23295931 190002348 143307536 5891059 478555759 27878837 870969754 484155912 883080201 822880494 545664597 564268203 288758518 193602487 197021870 767361231 92820887 267122081 159642763 433217134 837342809 329506072 973096783 758239488 643646146 152972959 546806350 669652154 574446041 963528322 614556297 552948143 401802573 383681634 714492484 900470002 955316681 652184992 837746127 243462963 574914353 877317801 438216532 417568711 597138273 359348115 89624569 542302063 395762215 628636793 41022234 505170729 709155137 288116254 481971125 498383820 352234553 455415383 583582962 17798303 414342009 288393506 978364437 452244122 768809121 225619509 803015471 172430062 313858324 269629680 297887884 129141153 311927457 699239305 922484464 740954317 608510099 37167748 6110956 418873193 56646194 532456313 184400581 914258224 38288464 706232875 880748790 221172993 534674774 66411328 510302251 202794662 887019765 406643859 878162213 103379465 210806317 718952813 809354514 274175124 807270650 585899051 241260865 647444140 139975318 472222103 60719397 317616934 747712363 842951861 70055986 681560548 200116999 211833838 257174887 538677014 356750263 545753494 886689222 925365094 543429112 471151689 772174092 7525896 134764970 204182419 651373017 274769826 629599764 686613664 657536618 958699192 696310869 319605326 55815758 145728573 895077001 38916413 968259215 778961331 79058990 190942387 756576061 918899784 988183553 891838640 282469246 92605279 603311072 693829609 716978009 240963845 890593662 252921735 437796334 734011222 137113474 618516540 345713118 515536823 170571762 290819307 305323753 611670180 419190063 114881418 502825417 151167393 77788044 294433830 610421732 46450856 550704013 511718706 809211465 406827696 346159225 730702446 633503878 554043042 389268625 595780027 845549912 225229598 668945131 16743839 655058839 474129366 366864527 653818680 241193839 931850839 440000068 345282795 321447340 144561811 533321020 568478441 114260300 38329843 562874351 95871220 805531354 519877381 693071286 792339370 734652630 810334765 930912601 932083629 372290774 297805524 380357603 998916530 198265392 364998139 950757751 133050303 984150405 510401593 442726142 233989073 354044717 164655647 195566090 242260466 267076922 438502662 809009265 798897845 696279964 739325866 7043997 719630058 227011667 720037900 206633828 703779053 702708451 258056703 637038054 375420395 237209104 333095526 395706152 872011118 520184161 633436292 680489629 406399835 885102459 26153176 897491155 371706579 252601486 724678785 461488960 158681000 781832721 56867625 642446804 64852114 625749261 373221504 485649055 774264900 86068082 427103123 328406829 222219079 675061677 186274368 303389232 400621556 501282966 246119805 824674880 232606692 613012080 335533819 121278743 120707811 457979332 422065324 720377986 373960736 717629148 815325474 726777640 365468575 751718391 381517484 710434170 986718024 995331755 376613525 920337143 381801103 578199635 890311121 880180061 692048618 933551815 138180744 515769513 699541982 40691390 171264122 363629445 126254167 374363136 688670425 713375547 587726229 690161540 91896545 282631341 999808540 75599670 928398900 455439364 24022609 508414065 427431752 895973603 832762010 631457502 812964516 862953480 284680962 838326001 721093692 16526830 412296148 827208571 686924049 296177152 371201528 863211543 504760346 644251323 956886709 721017981 891283741 647081503 678085170 557728081 532694723 183013560 633262273 760657513 476203179 207287896 280363968 405707210 74224874 450476118 22734239 319805510 465908380 967762672 368547430 549526586 820588717 915621203 533856281 857116644 115410587 255099559 154215506 819177850 701868651 521340870 531441941 522033491 235104611 558096401 680458427 473245503 189162815 846179345 297499099 933584636 307092654 341739766 466358845 235282662 789108519 577852505 161812978 731110442 681772817 246645657 644876151 710806189 599310509 80999145 446359837 917427380 15007494 324305941 534693435 738210782 351313196 873029935 923228166 422548106 721182774 396942150 735605547 434587758 79265823 674281259 161675188 169987786 666311710 190414119 524027325 584743840 734013377 617190480 409871632 518413975 211747633 358306700 537814907 188872146 934290882 893434472 116046850 30017865 69548387 507712235 258636025 761020309 105632463 669090420 490814788 989786468 29589757 162862664 880312975 769204399 661902580 218996443 479675595 47928617 534685438 3398889 255559260 381548796 282938320 97796854 668878709 338594874 316075685 531137557 474075396 987716432 176167501 331789234 321991920 54535510 241924131 836113284 729872490 626176063 803470558 278599226 656180467 860348061 382432628 109592477 352680061 628323595 172925251 266107618 301755530 467254516 837843077 220670181 201158810 787811151 51578252 610855648 589650139 937146976 596746159 712946746 3152486 398103552 400754614 126180912 774019967 462513756 997824832 313385453 128563974 117935478 802628568 692068009 965891445 969390891 369463114 61277986 700503835 440859176 393258384 524309221 932461093 793283448 200098725 311584468 578754847 668576463 822079055 193239392 147529067 480452653 270294005 334855484 29540799 537371719 805376079 23993899 875375098 189229831 44031333 108853263 964858812 207511963 401520867 958308154 959335103 680703545 14641712 775360595 871076995 234687960 512034163 462678091 946278741 669236495 586216730 600259027 448200364 112897026 325741279 40137502 654616808 577053124 193145970 258815223 598648332 474609819 972318508 307925749 847314435 681197978 386250060 100386977 740140888 12338232 510143579 13431438 731924937 358676941 348398016 114792732 196356607 225219050 205017219 900621835 362327589 298274729 535755918 269023012 379365715 120533282 857160747 379672434 451698999 61676974 810243862 286460828 733866958 9966740 965076009 819751122 45222173 992071202 639603015 310137178 986061866 939570932 697109311 903806097 206112028 508526313 32455311 531096428 520632999 258023556 558766443 97905391 870896863 712081101 466385685 330651620 696116193 832089136 869750620 350389575 479220459 420697535 490168116 283811413 834667141 876337154 629723248 145045211 134669353 146656277 331418472 12381111 247018485 934812516 316106355 799157630 7438507 413719916 389954867 138078406 324873781 654819715 990145617 51174284 953994869 564412243 613562285 699465575 479466549 674932496 602366577 975227028 426842912 456688820 713646019 998480987 877892060 964942651 256920412 220450488 685108039 457716585 921996536 847820462 6482567 933052724 420461230 375508717 113456275 351083666 680411825 178957365 700636729 708716009 459398464 482681616 26738484 75054321 191898643 517025039 124242079 392874825 294429569 720400307 418420324 937195468 988451311 683449232 276498035 841465098 572287305 470754171 385024074 601422348 875771641 237786680 594270497 787256490 491015393 274955124 554622038 112718701 962410834 63643552 891058866 972803735 925552277 413165647 987494139 255906269 709368602 719221013 843411807 365091472 25511513 62863288 89950609 312427425 559459130 659742769 528079965 514792149 770544767 882228345 520608725 17407929 762049181 899035532 364673915 342112828 203795780 823020074 962412813 767138400 934807528 854016369 220940333 887787611 645649873 826011661 296832289 640826624 806703077 42018506 811167224 264335971 614805512 949700460 565708426 318272986 640050071 103815872 981246746 54439664 170719299 371694196 78637081 655024003 505936059 838391476 461759727 845235067 332084155 513585980 821627500 602074311 716443990 485400739 362954154 924590408 174992091 715698732 793769047 569000392 560085724 554486438 717952390 757461045 702162508 215290422 206019684 345766415 353311246 185173467 988552389 648133444 194043671 382913037 170198545 227516470 859910984 159169798 178283505 843968378 232067883 800799282 477219520 433417502 643327470 570343563 761711712 960202109 37271833 292369948 985098512 460054965 20797821 426128840 777490504 417638132 21937008 595258441 670891447 302423810 689239595 496817846 336185061 573146810 771983031 827803165 368950586 209494901 419910926 613565003 36560460 616675350 7142897 470937500 584007827 492460683 720757549 938572555 266002210 886275274 567350182 360947119 507714884 803853188 1458378 331086783 266160218 281311015 431380192 784679751 405572354 453523550 254751192 804883004 449034948 408506527 250942529 181977616 442252077 152724014 631458956 481384793 889301085 713000158 852236447 442009633 985556968 770014240 961317454 495050786 866500756 315919940 223248689 627840817 808682684 447920873 534302629 43932346 324087912 325374050 720126160 335956408 251008217 247832243 637381300 961947556 280264146 756858250 450988746 320167954 286693976 722715382 174771742 681022929 489283670 914022952 209811141 253242120 663647384 633603542 612260777 573196010 694006452 83494359 397292035 21114997 282351091 844986950 321186959 587211768 60282165 448230789 306532834 573850647 260899674 158366907 845447016 623498466 73690846 892343757 307381642 995277449 719449402 484530121 922335681 874668198 150136788 860606661 692440400 823819129 539206970 811621730 862120908 594069093 582950959 217958128 410887631 640187369 279867174 814265460 79225302 182847854 993585955 663253316 357326172 102833553 6591144 79090872 14956519 674450519 839463134 523425719 4758223 106235149 974837352 289902670 608098276 167671676 412027371 589726412 672445382 106136411 32041541 177153138 88361200 319033375 409184938 469132275 35893586 925518953 854428465 580865002 911224426 122613253 903328042 416743727 587432875 604578847 1129319 174586320 708421966 656192887 439932139 701491705 404877776 573011710 212011259 824953818 96713504 73406223 273886550 747027879 681431197 843922806 24904650 254351436 499176081 364600314 648868047 540505562 895063289 887412916 115930547 480226188 536250274 691051185 274982782 962457747 455558620 659275485 170907169 514062083 761442786 510875182 277847030 263233243 895721991 364535878 842960390 361978964 169190871 912486695 878251968 944697167 16692172 699569153 309044216 374476096 442380521 711257263 983066778 799608788 473661742 892071008 512831861 35421516 434261220 31952446 733223213 843624060 489730842 906724740 67926275 893649924 388365176 504884817 700755561 927610002 308767063 304161219 602093167 59109463 67341424 453565220 288868908 598462081 723455322 801340328 981526478 345978316 500018006 127260826 93892485 994141689 718792442 766142972 375126683 663414837 692171240 82970959 155795568 440935324 282697737 561253204 893630204 776567474 290547691 467459314 699130621 746519829 339556585 573522326 507325830 232808252 567761558 676751277 546917463 580736502 464524293 885750542 792408064 505233621 596603403 572137936 739620376 751799501 946301047 933463844 125589588 481170804 898048917 720054570 787181418 115653131 647757718 283608481 529820971 594001784 168509836 63333915 807473357 682227430 173619139 432782118 273904776 539865021 202310853 690505705 536168960 768828074 994101203 329055834 420624301 482456395 602514489 414846875 280525181 932719446 481764154 527774836 521910820 203521971 538459837 255505184 834366782 935333942 519894337 930181127 570932751 134632768 352669193 154845681 381514064 829914957 470252230 287399160 784894344 815622518 230429955 792987106 401867272 950119096 510879491 96552336 906465161 640093355 542868598 73907104 837979244 160033443 76821549 921715761 550625401 476913802 699876184 800372266 994023092 524460638 464553157 329415973 806094106 798566279 71334736 580203239 506856070 207795927 671634188 839974696 392257037 386990768 413303939 884520590 317740509 890776216 820740867 312476194 180006554 276536949 749908963 356527724 255146266 15323418 768731908 72064262 482709475 724238464 858171961 434331969 506868477 121748488 178428612 271432939 682665438 193414967 997795875 292999055 3910835 433385610 234720244 168980769 645515938 812773529 692027392 723473255 573264987 518079468 299470198 970746099 96532183 918083375 15936150 582727229 710530747 325713706 105218009 733364174 850321810 751358266 439902671 205948288 948902953 633479773 263307606 242300997 889797324 202339147 970160398 88334606 99456322 516807179 726336815 986624926 488408822 569213096 247777775 409921022 316908814 841371590 99590134 340012097 767947951 406140021 169222185 420717076 147543588 458874312 342448239 353082297 376271859 505954633 665078123 281297332 969992208 518543851 244882023 344347282 554659976 987630879 511385092 536838213 366984578 100452298 930846255 96719093 613184230 799318907 150906237 184858489 380994960 670061967 837317848 566190755 55721066 440403019 946260372 889070363 794397488 104435215 762231113 347935281 992632827 48740037 553140572 439005064 386314381 339557332 420533484 479237605 290104831 233952300 695166700 414013455 228701922 65377948 253432730 187881068 914205857 466346072 696169890 297268940 860458657 659234207 29952057 523241920 362407465 842008122 732776636 257590045 492225357 434380197 471945826 375279488 61835461 172965075 306196181 776254744 697623107 941282420 969522464 344758348 172273960 520905451 173532145 68021728 792112188 649604738 772169484 321432486 608757299 580679069 3038503 649477195 523460299 210946486 427126427 745148606 238612552 726618538 710012940 184690312 71713675 973318336 182753403 773194376 268035805 876878027 58453619 289629539 617420593 666871314 197882194 326602236 663916655 208629303 779332183 813871991 15966965 729972706 743877777 886206122 729213939 973286380 739675000 463999794 613734402 456600566 552675257 863759419 39238781 906657446 825305791 431786655 505347900 45799166 863935007 153610651 335861401 395030520 864413147 468374448 839121198 953194048 698226864 838294828 895923445 190650964 778908619 280601473 142078628 253948900 845157317 731229836 105567118 315200849 774394812 592656004 840635860 128454408 584172681 918969538 898839685 632362455 240483382 961335967 867796752 96174009 217949734 610929152 34062083 408285100 876028545 848445081 344603793 220712137 459859096 312456192 55016807 498836649 150595296 237590948 560639403 626824999 811854732 83606592 925894446 373173623 273720245 441472823 520626159 885159556 750839526 549659126 413670415 559607280 28673798 456145008 162631022 51047961 564420478 844067369 610016206 198618584 487200804 535537878 396409314 877196596 510688555 339048336 509160965 992320728 311188722 903997088 829038679 563203935 74185145 48889538 346818328 814429119 947649266 683851392 549681538 853059224 760522780 809875663 303082160 37034616 121033871 453810171 241620579 777867157 180953489 601580570 900980293 738389739 29416667 765729197 874982059 169022967 304881851 876250106 707094277 668769020 499850275 649205505 85557646 710917863 137927895 575601836 696302946 311007076 117676226 381261936 330557705 356189799 127298524 772276176 714976467 267945367 908106516 757791992 183522821 240825048 67999457 432362439 408711082 639901024 444568694 939434698 229697300 298645781 57089776 677723464 528279849 327212632 590964872 408307280 821670676 701588724 339900576 75161238 299297542 726170215 484550446 337928676 124185619 89070722 186803567 144660928 573514361 403494966 442291608 720985167 296529554 890630040 342354612 983630251 700802939 571290181 63781789 482873750 243104358 443668363 344948611 164568032 236023925 66438161 679171744 536046560 421699067 336466602 577872206 97449927 174341516 221027747 210837750 421583408 848302347 476208317 471848978 687637215 422666009 623082587 780319002 752522790 425543393 17323030 982416392 879495003 177705791 612315549 884439681 976124372 56398818 340216338 464969785 231884511 248436305 746287780 521012897 510304477 524545554 877322724 119494559 841201661 855264585 772428489 322455876 600843686 831350130 238729930 8558917 797686550 316145716 257487796 397364699 528106026 419917934 257839586 983560469 188120907 295210316 520091811 285265156 238794494 263610853 271705105 677690967 937076917 987414013 769504022 361091784 312420068 885208768 704715793 734441598 742500279 697328035 954805347 483061097 876950751 998784696 723167947 729232690 166429964 258334271 629993679 685520448 767304723 210276675 833870020 16986068 535803921 798301135 82108387 333570007 297620063 955610724 1328520 350415928 571804790 876506019 845421815 936777701 150406343 135725043 512366582 847633615 765729339 467840341 67036745 975850844 140530695 757405133 50806783 505561432 308093089 721540529 463638878 835658384 79937084 724102631 591696735 267935723 845890616 526227332 901940667 371776309 926035997 340903904 966103324 820013545 411278142 741750018 116633587 396707006 872272647 404920357 167886940 673325118 933945095 58696698 424086877 420971067 990205822 103263740 229050657 16457974 103171574 667754665 642142223 634643626 81462273 457238111 134302009 515455542 670745106 890706158 895684308 692704705 319896502 883208905 263800577 169508710 174076288 288981893 382768656 738140416 186206827 611395562 351316309 413747261 206934139 880488728 144250223 766983543 558908550 355151034 265002592 453258334 680280799 686743867 524279046 189323941 830140532 525253446 321042592 517123473 177057331 639392877 929495928 820978504 726777566 415034429 181558308 158176143 191274338 558530400 314711754 965655560 556558171 472599237 35737142 492442891 751184953 985521755 631582504 941184769 392513920 475236999 339633383 851688195 146658249 197717762 459258940 71011153 613700293 26057095 273966582 290522949 33650340 957447083 110939480 16254844 543641712 461473814 752644252 732108021 959469090 161931429 383556333 581875230 458009278 855080254 175941306 915286418 587620315 374629905 373749243 354169108 580252223 420990944 777985822 627481831 876455344 691833579 81740272 179530915 516762653 52739892 298115728 125265871 599030167 465560557 299701570 551580604 938864688 233109994 531194736 680421609 292213844 309734767 149442712 855574452 450997210 147318391 561734089 433851860 500163258 55286187 155558198 421757106 400062334 737802862 326334520 311547655 658202486 761080577 19013067 931234333 466899944 330179477 437207413 262367038 229015191 51194010 545496289 220667876 55321733 369325691 310155495 228866922 150991556 696429101 547185765 951839663 754175359 531819964 361519140 764170695 370280493 951077202 398627801 775146999 877777642 713690089 221621663 376946457 111721754 402969977 413774632 294639016 552125389 405890318 343719637 745267447 733923564 110970500 331988486 515121163 457687070 65627672 433231539 4712840 14117950 324363617 999063125 835974169 283724701 175037032 353950725 813711580 29577900 454428873 464764909 192893856 2207691 591296266 427798626 226019380 3767258 739907975 229124735 253285608 710967730 93340652 817584451 438765959 644888156 446290263 497771961 808199362 833533615 755183258 845005048 178381042 846038012 459717609 310143910 648871594 13064084 188569430 87588938 219226835 445371380 168835344 334759929 982686574 459379283 938813798 981708688 626145355 935320882 198813014 691796792 125310151 523548143 686533200 457509523 375611750 346164528 516705127 634653673 435436891 517948117 856576287 163045116 176038005 908596879 665489657 610667958 569067 178213579 711769877 677163859 411307874 413259289 296338416 880077157 801784619 729650525 28727705 875185993 133766226 618956347 873246274 751468725 295570388 516109124 850754603 31054868 978336044 630844898 602474344 141041657 531761438 521787554 379689642 268339358 181357821 339683845 581317529 42825423 117068768 602650879 334346565 140516508 951979008 406516080 717479029 374250866 789388736 812903384 471887222 137754596 114665195 633393805 785393916 185849093 892012343 576440137 26561097 180328613 290370131 860549139 233296649 301349652 33391385 540406254 599318830 245613493 288504844 178716166 87242758 301133525 352400053 973782567 300023008 497732048 490348213 32168128 649661527 309514108 505918732 165046989 898040362 184091051 540970191 614512781 831484506 546922085 33875439 886639929 193147102 464574799 21033238 423248207 426761503 521606371 744892737 438202630 976641653 475154334 217792988 590470133 695884857 830493365 695239335 956556721 541524957 444442468 432212710 502737909 689041215 950787716 69377624 162014700 727349023 722055638 349070358 80554908 475075311 21058499 282496425 454804997 434650018 865169113 694754624 801507575 480443349 403965653 306631228 898199774 204188480 188669073 687180927 229075175 756900625 862346888 885320638 915594259 598543774 626893333 355291140 401812997 994486205 305790199 48119208 438403838 723197084 780028068 766712924 73606031 844362448 967903694 875098536 942783149 51479204 329344250 238426935 113877072 811384211 826953759 254823693 414372709 639714842 119158328 515466787 480684655 576231526 724470125 393966101 401068988 774678238 707281497 778327304 552220823 814759427 326656333 310719894 851010444 267685390 198845459 564602462 331624947 77877098 677762721 175608164 783389408 415906024 189527353 388709744 725023681 822613247 908993439 385779584 149598541 866849208 887777670 941636464 659157860 836562016 917938663 923948076 567069374 479533071 899637659 908481176 798521224 311524371 189474807 448282949 397400579 348515329 938279508 523762572 123051317 169748200 358231849 981656085 449828794 348335568 663520137 720139257 367336266 83666283 86575144 592375788 268816242 279302477 953516171 43296881 804345748 84281690 150569248 139892424 634741843 743537950 659155669 505786534 620688049 734477649 106256938 265508051 113092497 859029098 384507205 692668528 286644547 574405736 779182930 360675247 718300282 859250442 36360585 485508771 977297006 493711925 131373848 845404458 567945272 809804762 238359834 53256540 516132019 365431527 255923968 986255940 27959554 399135294 70754528 998252141 912605440 29675481 989084586 309294047 789168334 80862142 78117763 839991384 354486732 365044298 142446633 632074996 437857115 783426237 480389338 5532421 771252065 213255390 540143306 182863493 901160138 965888424 585452966 744120909 877739416 291085016 699796107 831634066 123862097 625079042 243756162 100207967 650978615 344057105 238598221 209795833 209349509 287736839 561296230 435554064 354886545 796477473 429585335 73130818 676877165 614237345 170000705 92633142 470024724 270243808 761993824 354746569 634797633 12705344 960466125 994522791 892792215 888385896 105260091 674558625 611739260 215952214 7290723 534577968 280691180 79392295 174749966 805842645 970446762 702844301 274132363 987237672 138538686 735568750 587444689 705640316 414208014 234496048 278947626 807777212 136235475 213516615 959950260 612638920 302459163 296273198 239032263 279399375 619089027 958985102 838534200 744878313 421833696 970085178 657209510 492280660 939947172 248738690 289840557 490886449 433373142 891714802 359973329 878353558 622365660 314747616 974062863 770907007 354501818 800419263 151506838 894455870 901209713 855259097 87605195 214587028 904712073 264874908 805706557 824702160 31136004 620901870 695778715 528247647 790299636 145563174 718124884 27480731 781417006 464046718 173597214 268240271 512980290 858827392 973671349 196853624 392679944 618312462 823027370 256415573 840352087 540586288 634206788 822765667 853889077 528489652 623265657 694717344 259653424 21133786 127110810 291058546 32150567 298250665 772009222 617094791 156269249 487032237 901753426 981752202 178065251 986555045 550241575 399047120 146410703 726027099 801577396 365357238 460921472 379057721 993256914 971168898 799300611 153180090 685664366 861589212 722092888 895405617 648038872 978716604 712374781 316098409 1374274 633431200 912171986 742302826 680678658 129454221 392278578 933460048 73228790 599465254 984044374 291006544 648930609 461097713 642173709 30668655 690376091 315667501 154567755 981351554 121644420 158005563 26789611 685784059 524915935 106847859 460471990 794101544 151933783 84580678 782520397 202715459 417515634 928176305 117745744 630018802 231549584 758852170 80243415 873958459 942660585 302016164 815868900 263396290 133058197 778364863 969325881 907361451 678310827 901495785 785877125 558864433 57339152 561191901 688258758 86607626 811187123 689540545 746422302 560076780 28804025 930982088 572738555 660783748 407493513 90183415 71993390 798287484 909452842 992716964 186256001 856094215 744978714 936439178 600405086 943657296 247162931 698930205 478453242 516861453 9545085 487522728 22357771 608771697 36160043 78452807 918476141 341336839 945057135 284020977 628747642 913810526 819495593 96960865 74514822 288543780 776114012 268472250 454237998 571901777 322975960 539946472 222113611 29738169 170817434 458128176 656694018 907690334 754463801 417886974 705786873 431478210 88499722 856275203 515944742 643584934 666009266 948729631 475937494 169038565 210044309 989866655 221935608 481119697 227604123 31838027 367292529 130813055 533568989 552729865 536502760 990425032 167500883 721221887 197823302 381428257 573458021 990932679 249824730 345169895 98225086 443826982 167460417 200223976 842588020 670803854 383955377 393590506 898978505 280233159 948991357 511261118 311218750 813557092 336513370 861836145 638202865 665176149 787397506 194130306 631735048 971278569 293289527 491295999 940608425 159229146 296046796 539359694 312452708 365251941 541512390 550477917 242418349 464919333 153775633 337422627 825593709 557980861 334686453 284211838 262283366 502581097 267315512 185728886 608204016 667118468 120121081 56277663 227286147 891866888 540329395 468515788 746458576 908020929 815514594 987060419 160340599 653167815 136064836 499766491 400137336 457930561 41937503 871222821 715286945 836136436 203515262 361781319 356121498 276740069 154231374 828301693 82165393 206388159 590310446 575555885 944636956 84766141 402601715 772699144 791820806 542402923 534907523 573072697 524477029 302406090 870592358 4109989 761020831 988805083 375848569 225059078 824212118 624288640 466716394 613416149 480531041 869908636 495951092 963049663 868450116 110647598 382113580 79669105 288628836 706609521 361898531 53648445 899004318 813336331 16939737 603252230 201695442 498437324 298306761 534752310 808583924 961014225 673013692 962066386 136168049 678359893 237055960 167665287 869118220 707719084 351141085 330102892 436023825 206685002 887823410 872740973 320992403 180661889 396510933 981466079 694078754 270437731 125568504 43108359 34565375 203938855 480800937 700654691 974170268 844963611 287105126 40831664 950692322 583290059 741472743 177312221 230176043 427854106 923598863 138303549 569473559 328210331 608168579 227054222 120965768 192089488 53648288 834730544 256709011 199350297 442619305 461900130 323123104 486744521 213985748 146401480 785351701 496477313 602833590 316074456 519945046 961320763 527269534 232956457 745462608 93453565 9780257 753230129 340760457 749321149 314193858 475518252 700774098 164507795 362505290 962388569 267782242 104192271 435825186 125505052 822759012 360927395 961980990 628990291 109627824 901347201 602792719 395727482 523865318 846586902 115859738 932808491 283747131 995944314 252855536 861296604 923512091 64394923 839523514 970879735 959944497 222851513 472399822 696038339 572772523 121748055 219047780 847731793 342265263 33135389 642674465 463868825 304394866 810162905 224596477 333442047 50842631 82299330 708048141 444290502 701640428 289134005 388468397 119343673 249303227 615109214 902738296 824435177 61329240 118996773 534328559 376341503 332604745 970065173 628688377 628837101 595450714 23650954 146245667 78267705 971063262 168289260 930653271 821438496 634084058 673763171 180739622 304622697 28550739 336595201 929052642 907256145 754095222 967404462 51415781 967254463 530720681 38949872 979458397 971488395 623433347 458696749 940146827 486547657 220645708 675294479 127286939 191762810 251755076 637112043 401276268 675052111 5444604 654026930 324812526 608289142 926550734 523361585 682907372 93694761 380366337 582267094 489038398 45940540 286966373 531202496 468880582 815768503 14831447 932490462 688657928 420179835 593450135 588737470 337439431 916474737 565613570 288925843 503107765 867766494 985741125 28003847 818503442 125558756 300119960 941154121 486195591 515418149 797739521 578351734 191394142 985528541 823084504 184537842 824616135 669669577 529295112 739593735 966268583 862579258 288447251 15373896 959657446 677718871 672069596 89763839 704395943 641759986 821798523 66740439 561284444 432412008 669565587 218065292 930866239 710406973 491235580 867977325 170768529 942254939 790908032 417504396 320819552 156763431 177174270 559769317 906982279 685992849 491541019 953009427 872400010 636791901 766897671 163378170 29671238 127915456 772981313 817274676 609550379 500225583 111647073 982697126 375495210 559240741 327817137 496232748 759531158 793942562 522837912 363731326 528590458 780094630 894349059 953623343 174633692 187475201 894708210 403083556 137005651 188335153 284362456 750119995 638752351 830198229 114558974 692277053 364581761 469316879 986545995 803095478 464947805 99119207 558361065 491696430 146547681 966032875 256399992 621899066 810137898 589699063 577115974 673030974 278852280 294053623 409997555 444243579 706002080 775286148 430615944 50524403 639595374 199881151 732115718 939452083 674303563 815355093 918118003 762050091 666798316 204151008 54403588 303528491 288175024 781862242 864386955 165130634 431497665 29782948 905575040 114053970 921914458 894262851 542757110 586022237 909441171 351599103 525166744 387941521 692407065 933326330 562259274 556776641 782670019 715269452 895268664 142595714 244238850 280964429 307814198 660277301 510163978 960261943 815050052 71571406 805428272 956393464 274648206 912708428 435799828 153399384 368837623 848689447 472143503 817289896 793509385 260073759 742004821 590826254 982184043 485764037 527663365 96236121 276519574 100520174 964306763 809377214 524986617 176279206 320517036 737320002 146569480 305864740 692753468 518989021 917135658 970008109 755493841 304931515 534965880 555782532 598190299 84511929 697227182 298075374 956948710 397915518 887343933 750890736 513175504 118968869 426309203 457115705 571832116 546737942 370196886 300874351 417980110 898402723 433081688 618845411 102021497 313976063 616480920 202706130 228380243 50275435 214010525 956263053 779890086 830653228 792912796 729597058 25665621 896530659 249361326 724054568 858422483 824610597 434024342 820090993 99860501 949137941 23399803 375161147 210389817 833586889 535703584 199179433 643079889 5491940 564986682 991310652 874730035 984717320 98786550 928797648 865892480 890472456 702464739 48460535 940204475 508208696 799324488 801862172 940117241 939674075 458617535 179714731 545491432 485637657 333648723 561513396 482544672 660736075 231340406 230840035 761125074 924892929 511393706 321209585 565308010 961559076 450206139 943958208 632957621 816654221 223654629 753030649 549149247 65473916 439895753 644832544 667025881 306555346 268172953 153283273 481091391 251044310 526451386 474979355 319681333 321819449 251721560 632592416 336068101 701595196 138273578 701670938 446281383 499172597 932219002 104516926 74247796 322866338 68811098 87681520 528620507 727936704 712772570 126734823 919224269 499767479 689286370 346737658 348759656 179408833 14404093 97845591 342066499 473560033 925602616 702363563 420628493 917391009 146660862 526551296 269869362 149473766 768067186 409232897 202519277 862884799 379858692 202718657 202798054 901856527 956541520 236740375 930778986 836989384 637443367 34498585 729856119 695904559 494392707 775813617 260725176 472403744 800951145 581843670 877447178 983896997 460403709 502853152 275915939 533584316 757429090 915487806 460994077 130089933 296640468 400698622 154747798 192692496 252300905 661682730 293646942 833352549 523165581 242376775 444217711 620420165 980599622 890541148 914827277 631370095 65276911 76228662 709943643 885890143 705819019 976946126 605842607 43048071 940712130 575612837 5871072 636954953 21855094 714803610 905992428 798972983 105171235 769532910 176071283 620272267 577147972 134834326 255343885 419226771 847977709 482695983 926981622 9761573 810053717 385828158 829722954 19947322 993457731 882031978 607048304 998225459 914646067 884364334 62690741 982883738 185561848 636055224 537313093 485897919 854971793 901453982 273697688 491656757 712724133 635153884 295860388 846046886 900238819 993899366 706431345 960411083 313776716 866076115 965732255 314182624 99389644 499646201 348692987 778597077 53108692 622791397 143963801 12264032 955073854 117136736 106254696 724055621 459700247 960980264 673331882 498083896 68149568 524062075 125870151 214938357 55312395 896628454 679578949 945652792 579324045 620676658 742724840 144669604 807589524 929512428 705798110 571042571 629901627 762492391 616383291 73483874 391204941 873387932 487982676 287316715 154890964 480151435 192548825 724994920 528176366 409282734 829238089 97341900 651878026 775542706 250734244 310422154 592054478 590158358 735815832 438184808 519762611 749651657 268747514 824623437 819690799 61721900 21276853 448539010 357535361 116680331 751827301 95579456 369204117 163877405 508665523 426810168 411088070 716399944 116995399 41420547 778601961 988271696 130411512 28106556 684181767 798015311 740388168 270882335 511989815 864136611 568391454 979261478 351910798 116664670 962812642 496150199 545065174 937236315 993643926 967033467 915221580 7762039 630061351 194630432 550084011 326115847 613297911 188080329 836472527 237857392 397374077 947707061 50247792 546355729 586319701 675795302 850541930 688456005 538624413 750270203 648502056 465497991 338218407 160250401 843766330 5383301 382843732 291081444 348760932 182069947 587553370 649865443 44503748 539180598 565849884 245975486 790237218 989358093 897756199 28625489 330101319 490780362 434657418 780500818 912558296 730088848 598018929 325202653 514468457 646145943 611790742 633488337 609605492 420621329 370087622 923953357 888081782 121809580 668172412 688334795 492154899 781853329 127321010 891437872 218745430 373923592 832686171 593782175 486588860 786785586 589350285 667582141 880366519 855880950 853811914 123606442 603908787 168278623 862404423 901567904 503742452 56907663 121534315 95130470 261410800 714830225 511162265 163780737 370604977 122231190 212250773 131473415 787534787 659796438 774855737 370891019 345053818 64520413 624813500 390787299 438232384 204402855 635796079 534924360 261723362 358532357 2205392 981753779 385480123 555663291 477323179 298305214 969747974 876591357 300068334 202439934 103171014 725911634 555034345 396631911 547046335 961922450 43100929 426897953 109196162 109012165 956525375 641370464 223953875 698457033 169941619 980982787 503906461 587422377 460996928 24984064 925085957 684692716 468643766 444465334 437978482 82432633 835236426 879750720 344776238 437093728 127814952 381170788 386227708 958244622 296546098 336801522 490758551 200132206 840168674 992065215 336829374 223223561 390448002 66405879 26799242 66547447 778999793 247138556 237052367 323334574 701680715 758184431 95205660 85890774 368091005 327796447 379756598 980791404 163498603 615987237 730084967 560057642 626317033 186511450 287912023 933813817 231760631 590630933 943861809 444579247 980439134 195159975 62721704 588255318 67221783 776200371 778605538 733726177 175632844 13454715 79686998 216067035 80987438 810012976 324100041 17266102 702681812 204770896 265341095 723488295 607577571 298270772 599723850 395519928 196274177 141292299 233542339 532103178 669859983 565255501 92029392 374372444 878268132 74292118 716172893 210357548 330986319 931829029 434405172 558347990 783835492 644727125 162622900 114390799 395438440 157463006 77339920 581490287 773526552 445649375 434306633 549881157 962597935 55871333 610825865 860909500 297401160 795503753 997511601 860957187 823176704 943019649 784392045 677668840 480466476 91215841 12900524 671499754 786588956 547028639 102514585 257386168 279561072 11876491 959173222 30629857 607646972 348484885 160272962 318015283 981901311 421423562 268010100 461004788 427226378 379504678 772478988 527420653 153961655 117908922 615978158 301119280 705701726 655703539 858050874 374283655 405825907 37843563 501902854 761016717 599210753 975644690 68690359 941906074 498877782 359295356 973552564 149939069 621609615 519552032 378464942 461646611 973853555 645695528 490005557 784933941 218777560 378251534 639801742 158921177 737442495 480226686 483489450 751982729 442667278 704910117 548720104 659804316 595658940 168697522 115785813 217099575 778356446 177841950 729053800 932430054 953236146 545149588 277391755 658966814 767791237 648843996 523189058 390407917 676792594 4670010 531539192 430120333 98548492 21999589 695850632 627225347 913287346 641372545 34988845 206427212 742591415 98448835 183624415 404914625 902822858 25292183 858816228 471478164 584089245 426356572 181198414 354429449 695069634 933722567 984866666 950585551 112399040 47576544 325372290 96576025 73931648 950523292 74374138 739633154 756189202 972186703 286944508 270623955 808645884 418984011 323715414 462565119 610049145 536267963 896330980 905682260 265074991 137854005 481174694 373210315 308028794 177977367 894679201 703361954 353351401 420312939 535802709 475813141 858314307 599391771 968420667 499320256 397469295 734422874 532249514 169545664 299516823 677211215 511004568 891117265 660658908 780076463 961635361 109830598 821104933 61353893 453889700 255951770 59751507 377472234 271320120 314457706 782215701 726987176 787411192 147073170 802352203 477386213 932386686 474386778 602756124 689897448 293454991 419365421 605029249 792059595 795837246 790557586 621243835 694272758 698529628 919213041 232641824 490602362 987421775 675099295 541773823 357853810 370278310 54639188 472236610 817940920 462694215 668166724 422707185 484522585 294922269 945991067 564409757 357859751 479347721 398758161 837885420 519742063 384048713 11022532 958288562 237967439 639573601 326652426 640921014 298393345 930649912 358513815 235762380 608702921 62221876 220658726 17993510 254183506 132110780 525911603 508668122 370852417 945433607 488464413 99222614 68534727 204730483 214826759 506728864 474330817 843609684 993926107 923103468 628000167 830319014 566043176 956591505 844268252 101641699 170807143 4633449 954239416 249604174 13348602 455464980 575479527 175389855 334230629 210385402 182187905 300104833 461464034 232657442 556293438 273896948 535134370 745084229 850433917 500323337 354124416 163802716 500026950 747658694 117624708 616700337 510725952 889459502 259571603 724402840 539565855 16436528 736871773 996345576 955526876 634354718 828875338 412182026 745236693 37207893 45646906 56007110 952194011 548963479 39068461 708383621 697332845 219172303 91116470 164388376 347451742 164075097 224888941 630198382 459152777 407792463 486397288 260156057 891482062 117656886 409928043 352244892 962045833 525335160 361140494 343349996 614854083 113905323 203492279 263622432 654689337 553615777 755698901 872399375 44817230 778152770 59173315 478610011 915713777 450790215 518691972 579967486 546792701 44898814 554130472 743624187 572787985 999203507 311880739 438321552 869939549 6627892 626687074 708387089 524270152 486512096 275785047 548312969 23393172 988400482 596883592 731427166 234771276 862135746 128493195 439472777 467563013 677412101 649761298 820407416 293993602 766386393 215445136 560928198 382720192 730414552 888552210 162520527 670958114 644382897 208266242 337398448 390908017 95575043 649678272 141377228 391294380 396465577 579011596 97282334 337492645 31546348 283524852 979289166 780616954 971841848 394059110 133035324 407578106 229690221 849080213 867202525 173273641 561675603 185851103 611191338 542646743 704994895 287353995 235412769 114327490 144857348 835939467 334368096 915949681 621270201 647404238 367162366 972440980 768351777 606913114 932489878 59746579 673033352 455946547 640714661 594380233 987913798 472349008 939514255 475470635 801451508 676717441 786630673 405404451 674699012 605939331 577761161 453584542 594467870 288807941 474702936 727270516 142748334 698562896 779548490 512794522 423230382 526824903 534806117 758745269 663580063 654394505 644487720 277038710 858849508 965771343 588849385 485678911 548125764 185852954 541893599 205040763 894817950 405028180 401357711 527573777 792666060 401717164 935186203 95451253 253223090 70772994 645976617 724747630 444923314 569019118 565790237 3395510 71935056 391263780 64685307 782922685 916369926 395098450 234528755 90270369 60522078 838347923 202959930 118293744 467943000 991601299 654116269 766833466 425541437 989882797 154663552 473355248 551314815 970879172 415970085 712213492 13528833 101088000 367131067 862825933 504446853 801004677 316619642 90748785 631381923 418722613 980581800 323199463 935506513 24074927 736383618 295524536 232918703 691449624 517740639 626696806 143511094 751503888 604362908 95949458 348875139 78588205 483461066 990404895 942803674 244289970 898143030 63659196 10911522 546692637 950824547 587236368 763882987 69987129 757269145 476382889 806583509 852957270 657202954 296964871 555477135 178757579 826669262 624062756 717320665 949734319 178230784 606719759 453263495 869178943 946635098 349757097 42631102 596671273 225639625 611829259 975229095 237700215 25562462 827073548 130341 763688625 643423916 530325249 818386634 498853612 528499567 384156991 647921786 917342688 311856484 568053923 829028545 658746389 983337354 270438921 100125117 817303517 468721569 285115118 147493207 253724692 745027994 572018949 804126005 106491826 977410526 772009592 937752819 797347907 477836914 425646353 291751345 373608656 85480858 578881356 568221026 128710576 395606714 746719267 128440384 716792009 135586156 615507201 63244325 639909860 333794617 369815023 72079639 262526682 196521505 163677414 621345272 315791260 45811765 230509693 717408316 130790256 492360082 307292018 926541913 692805767 141992157 970629757 782947943 835001629 134928773 359440276 354429294 669340259 630055738 410497139 590510010 924225834 197372239 785745235 878136912 885228057 122046759 408020795 951940774 533312575 754346577 946039469 859662323 831831294 639946535 140602206 941899506 83005080 78027892 383806716 790504877 805326492 445557581 403158281 616912590 529821915 217727830 752131324 813667363 584555784 527118301 300131315 876335195 122496406 293185245 256605198 983052046 330150205 414694581 740777173 306157261 632846767 714365991 736725521 611386369 701531263 463306581 527852858 225073812 61216782 399877490 37284247 27233344 971838382 500391844 523485790 388923869 619880845 65362812 875479947 378672754 696396670 922371603 199577470 48633146 408282078 254824176 412407697 430494469 223069621 104831742 261107451 731808614 788349275 244061718 603844435 434192042 117695122 721242329 801624459 667793263 999580260 295769727 616004424 458866355 51383454 811922831 484926847 724342741 451918156 358870268 389693329 431448675 663654089 176873688 509009601 928247362 761572129 476277992 550366498 708489414 594134992 90732926 863074835 352562865 108836852 512510196 554028265 831070944 733057657 624067129 614402397 215725156 664852860 451009671 547303468 932912915 855806864 478563450 457107466 401382067 638296585 238976453 25343557 153704765 795370220 160981030 257094232 773768592 732200909 609423399 642482854 287634437 390535123 149689742 224440353 777170679 264282558 692025950 936123328 644384475 721198630 753815167 693592783 397369289 195178247 990936611 75284694 1536704 833583846 806392415 269164371 906687904 25791160 215995091 961563934 782829424 66947220 418435720 311565102 864780462 483196645 640277041 48252439 144472284 398110015 111198830 58880378 653795549 860497673 871701810 286486548 598075989 670146788 62223543 253466733 746609607 970196425 154390332 86985305 280819334 434918349 143100753 226542893 29661784 799087455 303830699 926392114 696294543 967351032 741628255 293623557 173920586 836682018 393503810 233276521 498121933 630982050 692636135 946161177 249453005 309627740 282777302 386186378 595078662 969558453 205701085 372482403 131053112 698699929 971198060 436323667 331907474 699593165 629374945 785720853 662648721 488457354 323244453 149294754 585409891 463231037 36004560 99661012 424668140 277077347 322325354 31377696 476668407 828645568 283395062 760330095 615985417 704882271 68737590 976673441 350107061 435031256 304353129 565063524 737786251 905290287 58704255 558991661 761799716 102536765 509573843 989622018 965505522 271413404 983711711 377139798 708748179 527941940 163020869 631341018 964987658 750073869 637986874 300889513 503898567 712753642 226296946 825004314 741162862 929144003 733866095 11726113 326570901 324454788 589287195 901638529 5968717 71595172 348762031 208074037 743609008 978835293 39650231 120410519 296175480 36345962 146785775 102516769 598947703 732091580 320146637 776789413 185513794 249011460 586270452 116622055 564690935 409104788 208147909 33700594 647736310 608381295 339877395 52476466 884330706 410728600 960251574 62597271 380259701 76813379 135594466 851199760 620018350 918406464 35218245 409924496 956880069 740224283 773609650 814851784 37261315 157743646 969378604 366553497 305155462 203495125 799303629 547415031 943106618 16714942 819815953 561998788 27085440 360768012 179593939 146039909 494575519 75813573 808183021 202371986 722935326 518241977 350421985 671628812 441392300 514061588 464616280 635529353 570470418 379962343 259913754 137000332 194355619 58845404 370141192 576842503 989666796 121099599 326429875 986218130 971809078 321542180 963962152 986362802 969102680 398973195 123395339 426434709 183530764 892907947 450634001 415508978 608735372 117858081 302197272 183628625 735078700 279532970 299143367 512958966 56626620 584879398 143396486 658136096 910762232 230223395 493920405 609777694 568337545 936068174 927614720 497557022 443356294 165228619 255630645 737283130 579437629 906128373 378415679 412015216 632562805 200144503 576357859 442785426 384261376 90084143 561314520 511462737 448265296 81025269 442223923 751954743 926369154 529677208 878179693 461012087 658137166 429530966 301747354 442762486 826360467 859058780 182653685 410269570 673733796 161418546 6519119 37418673 917147601 677353150 116431521 295580687 914931640 451536504 887702978 204797315 239442561 678996348 944112331 528696959 265890832 52635991 733147174 650293262 693491170 65180265 566136802 372433954 345895275 500088578 453698460 737579341 251470295 534141376 142006321 571029403 114329075 749937294 733312604 467167150 539038725 310677937 880113848 706894860 249858767 70058256 848694542 982648892 604347312 99708996 540724273 953039005 84806707 752836182 699373844 725323711 682916230 75776030 80279483 821937236 783628633 807400968 598946076 19879652 645640302 778348677 884627732 641899514 638375968 690489847 446149766 119864830 344226600 726143097 50914381 53118821 397431175 82373324 31153950 320928806 261472074 345195539 148039717 807534672 843540370 169917069 236293767 437039835 90909357 401660579 450757662 982537236 591780520 701316921 555712198 534157490 531922632 44574634 975712989 195012807 819221846 105856187 931335367 424245903 789312733 385403604 113486462 817829912 962035206 313404204 180365167 416808814 578597859 301069126 978910277 844405298 951986581 326124200 163543082 717416305 153461831 346386451 588893801 997526141 68474150 502150677 871774680 461966145 511649763 219748300 363929045 84185708 894869698 351678355 686534654 446848088 930901857 434343824 473329693 482828904 320600499 804823093 460025560 886031434 118017795 923679656 277448025 782445519 380061775 724514328 268074541 954028906 918829171 122176161 438134931 406934412 735779090 474060075 816246753 167293237 848359893 914902071 287606581 405155025 746968484 105935242 538073715 100817941 339411160 582458127 989525590 969677198 401612374 441630797 166317807 952829215 458019858 974719773 391731708 262553468 338486205 415003813 505476171 192711133 341044661 496152861 344702249 673770133 126597608 762495100 419699064 479185506 819993530 556557698 557113386 403777084 241188069 282684377 259668294 842961302 694029273 45006829 642316588 202078392 669058317 598363670 273001075 92821852 850803043 169753715 894351259 31942347 606888782 959407282 161772818 11936007 973389310 645695811 198391965 585988796 847722693 774110617 637070404 617316937 270837491 971219907 619804147 913237107 345164591 485609024 619528427 427434503 994130778 128573439 885945877 69470720 698288722 809836582 304088975 497338722 538886238 954493956 261565225 259026922 519699371 251091778 254510168 772642636 834565043 493539407 791287140 630928045 771029507 791658417 546021186 272974159 797261483 493148113 411310893 566988405 144639500 89381736 927229042 3723942 75345699 618875087 222919159 765841417 583530150 481625442 620485715 658494494 365911757 482532312 115859510 50560996 40906185 54415498 442098808 723015098 563410028 502480528 569127104 742462785 911404884 349043769 522346212 639185010 928920357 306633404 996310249 302939020 801380212 967624779 321398016 643543590 342869570 613089604 739191456 306203761 191454112 150757876 30625662 619136386 385756750 354137429 894021295 392760659 538084651 505257705 980873619 162319700 633766806 837354891 555379852 551098550 206290175 771949390 472328257 363499385 538135490 566465180 382048386 626648877 603231242 321178770 557785848 2427650 70243941 406218591 209807461 831501114 966048105 708029821 812797378 733977762 422205222 381691502 87019250 334266783 899693515 150499296 826670670 986450620 599884303 536170849 337071793 544240312 808755602 900539967 585515862 660488984 147218911 888277253 504062233 503331335 915672003 617833188 838041423 951753625 928531843 664487653 28320602 416014818 596766884 541585079 773951824 964131405 220900910 754821408 601347291 456636815 54026303 906655810 263592714 174201387 391496601 280164114 802737428 611094684 562681212 773826864 686148641 550762894 628601808 869680085 243666854 193870037 711348158 908399171 676333495 862067239 660553690 124861851 760761451 145047733 798468338 186384827 66476441 502122111 865879478 231626691 437760332 549505300 894767746 645264025 788510256 207370586 787607370 571396280 426699417 848518134 149642834 563373874 618509121 724763388 739645902 865860833 199312739 995134699 114321661 315363081 541692871 103165430 369576741 558714416 376649230 147273565 596518486 467617473 762024438 176626088 694536347 388604170 282365881 335892662 929085162 256821782 975036566 556446730 25459678 928143024 180635595 968043432 146514675 100522807 541984758 421687673 606446839 999880009 137898901 242861739 685677929 211285796 214013057 924692186 149444883 50222127 268648205 199743580 141303801 64864448 567359686 620496291 185524897 477298547 552426774 296524941 959456428 621448132 898990924 608093379 926678173 886547282 654191692 711488798 254161687 813000631 876815643 744792391 820770727 143570394 908568112 146835987 859331775 14414878 699181973 972927031 498361689 675101590 304675845 217091583 956336518 609356349 516424185 967004182 640888208 150647114 192589904 213228332 591498035 80466022 979131726 335647351 719977235 389563019 670186857 903533447 307046197 566841829 23927382 939471147 925169783 532932762 928254547 760983064 293412856 273386596 779655830 500552165 972947141 86238242 539193011 141434969 373108830 350020289 780839449 606338386 241522973 476080875 529343791 467253186 568039984 843136911 614422162 567445315 645201271 597783624 230843474 415332376 690925338 488704706 569113895 211003566 287782634 329110079 905218580 462643524 414901147 910925649 563043025 368622463 773878502 725697092 900181963 700104285 708169981 81964395 283987370 41407854 149480583 787269817 755023883 497697643 624870436 305522375 298031019 273663569 839221776 898265652 324881246 118939846 371411453 25459679 67177667 163798187 437616814 435239572 70857800 906460464 730395239 761441423 378660558 495867795 449799735 476887652 570437003 403409153 763322717 88195287 25783041 998788050 470869911 857623738 161883785 57300368 379094914 197809932 744720846 946239837 599130103 214497607 703689022 886533962 925474864 52229474 556625401 289427451 252415433 271851407 458199795 965899694 184357340 147512201 475648313 146092299 220071979 700170293 362664494 622027759 869044891 776833335 975537136 571452829 921912202 273581646 294461926 270153550 962071478 152881380 908314819 938177814 722529724 515927269 328833520 99349150 258569946 173524329 482140189 349905348 758461589 39655303 993544110 68950192 221466564 561831721 54436545 57013082 756208503 331564823 835313115 671355669 64982466 355967495 218853744 531116639 632455906 735789500 654081499 864063547 140331964 823092114 289983944 331465564 159811858 361398566 712583051 395319728 570324028 957355083 556099961 241208031 953854105 487745589 51526168 601391968 165154445 495741710 493953168 352781657 374971993 953672191 489707528 608666486 564530150 925274969 883191495 212086527 163249503 44148714 239925200 438713426 728250375 394416946 490378880 780971258 483208960 304278091 792267132 512840024 871178540 402903688 871070037 620271629 99374628 378964995 451909603 527611817 455444573 640410216 767652544 999506470 235721496 428178024 906044759 610313823 292276119 347679064 110373749 785530887 300626847 635811617 646536926 171085475 749656901 335714560 634975954 565064590 3148746 585181422 542700073 866805757 381011106 694166921 668141025 836156939 231842715 329282482 583747676 502626103 345876860 216851673 541214720 119900422 486695306 990850596 18608788 809701047 860896444 277284856 808557528 124494341 628581245 421027757 586553159 888543882 512424096 542576451 657441798 268135134 476950581 695274576 269145563 286419902 142960806 863179134 174904747 786760641 85254093 234318432 486850022 439319589 328811647 295314706 118404482 765657599 643584007 444840558 935060651 177612631 311596703 360487805 169604718 937445478 565817434 621205866 450153370 471842978 680551537 246339179 679695588 924235513 655864914 973245917 412751398 890802542 361798286 131729770 740628178 686632202 798531410 88527833 301260298 962302605 228164474 972679014 784604648 320919973 721828755 309088116 847253494 835235754 492310412 573572207 701918761 185210811 160487380 221019011 102864318 555687871 305740466 816611591 852479894 324808813 584594928 408451059 612941126 656118930 349456135 139390624 223200114 981416371 944902899 377695946 863775099 786364593 575645210 832979136 74899017 127265887 312036068 659858786 371982813 870672073 104623812 342783111 744765890 707069015 588074707 680334055 653629467 92729452 369720829 809176252 535224681 473546586 980918204 868027471 498551586 723711371 765062246 425832219 574129261 11239248 84887901 266604708 87930221 587740623 945064163 109680410 757905677 954241332 49253581 225465635 223464758 553951410 741021059 6510048 321898809 932860018 58701555 775968471 798836517 156146402 295432062 206814943 853791153 98902294 983645736 110819782 507479341 574194993 666845046 640511783 89535409 439556945 104693504 136918891 178016035 169405900 485151255 137314649 257446318 327391676 254244382 345026889 774512728 138950355 475393634 79158461 294022868 686123145 980579390 402383044 483674197 134927342 65813288 154447341 854344178 245472254 699576270 745275185 41742030 887207459 419789883 237936200 785689227 297567155 363781501 847755221 477924094 298897729 486321462 207125711 593260253 67034142 405299668 282631165 857826414 46198305 969933851 384339176 875500001 347222342 994869468 144888870 529278018 543627071 761966765 947512161 280843780 279690892 6401045 510115561 657606631 15359399 27387315 470222318 691817450 192170696 577347056 649644257 455169777 381655432 229969327 75825815 402429100 889816636 304655852 693917173 222282372 735926510 369378946 676446086 326912095 940208826 304960967 128962138 575360204 266279312 17582441 390163552 557498190 260379314 191412198 790882236 560928329 464637833 113450207 889890635 912760817 918207247 94825618 214470909 239728029 281127373 959166301 88854630 407686990 636190030 342623560 674023354 285282625 100117546 642273113 631677628 209520640 902313540 672692178 180010874 91300943 370817422 664220691 37369904 187928903 947455416 614280491 431509874 361472246 788958342 183176819 620432282 651797326 401168584 498068125 23952777 204689140 746834475 337543893 337802062 309160348 153525562 459047596 123951238 179181652 360385879 524944572 561853365 200722344 364851709 436482300 67511276 658765975 21486695 363227119 653089558 462367911 736652300 474254307 944199865 347346870 312655802 14427011 433167876 460925369 200000853 153443911 858074750 41347628 826657741 695780383 511952434 424482560 147136002 851758188 484622404 612085589 96982715 194368584 69236023 132500471 611136631 207737344 581194750 813271190 608031726 866771795 857995355 492745734 535533222 451872023 524214877 649486198 320579543 376118869 22420851 529772348 654877787 969563685 995102037 770722407 655970614 924873597 561514943 233123057 575026590 877500126 392282009 100177461 786850860 345405651 504373081 805726237 514622681 182675426 741540588 870102964 405463816 900929032 127767270 860712950 829597105 682335173 80828692 566084461 256543507 890823384 174897206 717883751 22301970 734178696 221434913 704090394 21647264 163035530 611453850 252610476 164837781 435657502 281187497 627412994 318173451 708829748 93235401 935552178 526021138 60667288 289489119 950423819 946254659 995849239 670551856 789246189 897761212 229012661 196119146 750009110 257078490 223223869 369383922 287985198 323201561 262032006 208854024 980487605 459163275 299203113 574035065 503343151 263733668 315891416 92531850 176716577 230771415 126797744 94824900 95432056 648646613 457801914 377051719 266748225 41979407 126851144 306783636 249987024 784644260 705937431 508938036 436409919 738642038 544621475 22083381 973695512 41014479 439867309 464681618 220965994 277625156 319741199 418115176 392835483 118103527 515416336 780932722 831231639 88707789 171984824 855641172 489981170 849862310 158369567 512013842 766437135 334672769 395256349 256989494 193288253 879824519 696797222 491494222 359709906 475090071 698845380 682834141 235704096 393641905 349562175 697878108 683502602 507177654 776933523 754006836 221985653 32790423 479933438 25640252 904490447 866163254 483037539 913300959 823637919 7864552 447117063 463483285 643451121 355260430 663015749 214885931 462035456 203916794 706609577 556690157 624028873 591580715 40776427 288728226 393361004 519714147 686842002 548524856 358180779 676635198 128041643 887646124 299488399 586224169 913268942 334837053 872838518 279959338 189386466 562126658 588225301 262607214 262866609 52946825 18727363 273183266 163596605 605811935 702960922 481958327 47061177 381871468 407091015 118112666 79189353 912581937 220027150 204635296 773689384 624633319 688134794 47187060 675390860 228225185 338629270 615703495 789833018 458566663 792868199 274036292 963982575 140291720 154784172 76337500 365434972 815430773 148188786 805497639 396297808 209957488 443824076 608607722 630528970 200228592 991728664 468817771 300923863 735068385 831689590 541792712 164441174 585592031 799729936 178954974 672695217 260069347 330105784 885923803 789586638 743941839 769123648 606261937 148676886 158653060 328899812 434308700 748343644 456221366 296967028 715705668 484406210 207795539 206262778 821248072 105616790 16511837 340370020 875624747 653271912 678497325 110498215 954078206 396023343 113963368 538044226 73496594 887333182 569869963 264007226 216148870 638340692 680780609 565472331 272517380 242108204 892074497 533584935 707247434 714275288 311324910 372521474 574599716 748557178 184783704 30740541 233975951 911356306 271846130 668824893 759706183 172774869 82856806 230939034 438359121 365466025 662565816 797048716 886626849 824222042 606257841 268290411 651959110 166359421 694565686 403344098 509707466 293985668 890441653 368028678 866975594 746830036 269402308 134155399 599901717 316715883 957729746 999229545 894765096 707915797 131320383 190263081 360281903 110258190 907095786 400510171 27056705 33954872 93209269 501743490 942657072 100565834 493653293 646918760 737048133 832101943 802378166 14779960 737827600 886947297 221837764 4488665 5492298 126292564 950574289 448449109 746184465 431487704 482397713 486659539 964074484 382831225 88994823 902318592 828342215 562513077 314130978 537140541 642936229 597852917 573175978 636278479 683125591 687944137 915486369 732525529 761245529 892903557 400886719 484910994 916847253 73716373 48159896 752486750 16012935 598290495 433342009 278767114 898191186 124530636 350429090 948329268 523875248 752341972 819776756 217245634 517202426 682011757 238198899 338573054 122002311 555292912 169297169 742243721 220175077 502804778 176699759 827805266 793778966 195370398 352727688 166146904 152825049 173819348 712519507 826916039 965176930 242535401 446577522 672299223 262378859 151930184 38307474 129398209 929303012 694671582 368645927 285029768 313240429 579957558 991090430 230214295 775655124 315423750 730016424 147179994 800513647 168503866 440879530 833512852 619927879 647677942 230652442 709627970 346510469 579834939 362739810 603408718 25729071 214469215 741886615 995293103 823151019 857985579 966155405 356727803 10325929 785912847 905130650 953975055 309176205 34492183 405025952 887256398 802707113 780349359 898682229 624972698 150192309 38008844 281926509 726039524 819875646 335806177 280801492 476647315 841023309 100842056 827354002 502026169 680991003 781900518 924305398 87911505 812211153 118267425 312889823 358889502 966277133 845041993 674208638 111127324 93617834 673655281 666057452 856934937 710952374 581840807 235534762 573932403 146797994 446074908 613454196 821325407 192465936 570891733 654220277 345838554 522214243 493214212 164048479 327957141 364942217 320629066 240745522 99775344 678555022 167332868 434842180 375031946 759769118 480668513 670606958 297310551 25395578 793142789 717307303 924082856 47444752 861320453 88043466 118005123 578387644 462659339 53273684 786448814 884246697 904913978 899001028 394003131 480825332 685160873 142976872 923038368 339206322 835671471 756737808 623014508 74255040 478790914 271595558 269198895 215395817 2430376 28163329 231170978 74348494 573193474 738821693 783099895 669797138 759227768 260153609 57415449 377504073 498505892 395928094 679725752 568078577 162214493 518738269 466515225 861415963 124282651 105369283 355304194 77726018 382193187 316211513 45979436 414040530 605365277 479412418 720164825 79759280 748686177 733799411 277700865 821981428 781016795 668973444 58294860 727926514 665723106 230810448 436254565 959123971 842294404 798903733 883637016 804508575 986555172 132964725 445771715 330918800 841102199 878023648 639966016 195797414 549353980 122507781 847176489 8517156 431670518 95248471 926972048 255042611 93916557 868711821 197800420 59927967 389726021 470062031 389257343 675471411 205694204 236170108 214986025 781327880 144281769 345469560 545519560 200819623 835459080 989324821 880099568 699408839 123472778 599349412 494709503 776538924 397851660 888442997 845541435 15385151 460297594 929719397 188162373 939925082 189119493 903390476 892664060 357493749 641260532 530227155 573563057 47738441 176451501 4309757 986878960 476772011 256461417 418300553 400625893 467460547 410524081 54549533 301393455 319979733 241061470 171585155 984355129 55905131 4837432 632330520 513562515 596894255 214551089 615481025 132146895 923228392 755343326 923979805 463082364 96649551 122567267 503424296 473562419 682628889 353659642 473761965 108723151 584884700 669531467 559445093 875162791 58385268 618912630 552153713 705459423 719271254 524749291 468354499 326044422 831898570 258673848 352728232 218000756 569883490 454841842 421181648 482605863 365890619 625634845 522959237 191981759 689315804 96617077 207221175 682267228 656031193 38044097 75313625 87940297 558505277 318353340 90874981 779087623 111992942 609208243 514510735 375817684 710237798 481986221 117511816 939016412 945449359 86308250 301328114 987229055 442638580 653393643 310878440 302796971 217386574 304491868 352911132 918580138 508848151 260081789 620546782 496216423 621311112 850367241 965707448 4450088 172319017 532839174 777300848 548888568 22488634 70435353 470275930 153867603 588280771 2028397 918603161 61337297 898706051 812225373 317044008 858745391 994487107 434888142 660151961 964656061 17211719 869847449 613631840 669687845 514779903 953930773 236093768 378328479 226183536 202572816 493644978 784816776 866440504 929938974 225908077 197686540 75220634 340203507 111993643 393189679 598579062 122872483 606048080 228109868 560540970 135848261 260690323 937613999 317015785 882989587 67633569 403909354 55348400 837557517 1988349 277349354 590949025 186205622 334041418 986539726 237974945 724084994 726556482 334554113 192094062 674614884 769419946 584271343 811705955 459910560 599712786 862304891 269845854 45810996 508503136 204428728 483005967 530558796 770717781 822693866 22941872 841690043 314242144 470724641 385523278 687908143 672858600 553209730 860723497 87057117 430202543 835317601 71386939 174654459 242592452 514893121 275082450 690287542 168116772 502019033 210936997 433535527 417627944 131526276 533726477 806981962 80639031 626696742 80451671 689396816 512716725 418957003 501565369 778511499 906014898 881002386 725960970 695517790 106287128 783009829 554863662 719247319 672482699 262487942 658594263 220840240 528353016 337734413 213660336 504925783 196069630 349299029 137935586 985280791 32765226 962970118 102029024 323395937 269376769 500327241 679466680 233467234 723685480 143105103 162766046 871746176 334701357 416944193 163548314 163320655 388506585 408151553 711123740 432116022 576564322 496937537 218634937 568896752 644739362 346593227 814776924 771245646 938496740 109474453 90761281 976703907 242067887 211623094 773729746 508892342 186448647 439019513 416922225 419491109 636692142 869514145 110693379 913690102 227244098 547649401 891690242 310471577 919027000 652187173 944102994 586511223 644735452 626166769 602470703 265179821 15309731 41389970 556704976 840458358 259994323 757590926 551439215 569074495 313788179 785680284 920107547 192661806 140339104 229388131 54210490 500786950 967022803 169423915 40323326 551280418 544317681 817374930 514251377 746606841 54051040 245876873 120720798 263398641 772656689 283270405 948252655 485492868 617928374 447797228 598419864 465007707 566511726 808979987 730385778 364226546 585926817 573446693 344342291 391834217 991743282 915025263 43537519 713963083 880434816 549449602 808078589 745750293 140855310 155080007 819025628 961281060 939110373 702352309 364979964 562353504 340887337 988396726 573248127 47301662 672614071 17406391 315147116 168996360 651686450 841101070 883614841 518839627 814834266 902016528 417489522 440085661 996491539 102264160 363324087 313316620 812604539 958750547 727851437 162606024 403683231 822878024 62832356 430205329 95280066 17181988 103002268 789982401 598918859 255199263 939773012 497319883 175171771 868451621 816513035 922086673 389802014 122290096 956598685 358866023 13370248 365887833 225580534 430689674 872664080 142910977 843455699 677250910 785839013 311887720 949004642 721972688 538243104 329178347 503480514 582033568 482015925 903993531 927259191 599583773 74348913 127144471 527871121 389207553 504044393 658286786 247377639 421834052 377716238 253806137 48385429 551199840 929784233 250673192 242477265 848693136 165213308 544799780 610282882 63219213 987373471 821326175 382069036 817777741 145919603 962179852 623623275 2916236 571422900 320911705 858394957 843127115 919689078 328518075 501032900 972331329 409218361 735686727 153562798 289486500 622489250 85006317 646722463 436844849 979563475 440429453 318006525 177642527 453352460 561518507 970050637 516865658 996745750 909034211 535907531 151616966 124375364 214017777 334576892 882452203 712793905 18806022 405965537 906068969 95776240 773180635 43306654 934971717 470517906 348840653 613240471 187688640 449032139 188220566 680550872 361725921 472322503 98969652 521062982 189855005 463017964 377740011 462956317 564946398 584278330 443562509 542074484 124045499 195575871 859968066 519358614 370541096 709710250 530684827 203606423 179222835 557667896 636030390 847740571 515893887 12238462 793172126 696855522 295860054 116742634 928022256 531222919 333120637 629890944 294704779 303579323 140347618 52626693 96887548 771086927 273512717 921975748 648693816 225980711 780185080 351054963 549607431 357845242 602047697 620089177 987442090 493455275 411974740 461850994 513425276 409370658 287603082 343247840 366464388 44826363 689475103 913935392 570726850 177576979 60537227 906499796 850448742 558718974 650804765 542514757 240145019 329146616 68679275 498471595 739400601 560292453 961706258 400210261 605950876 786243092 591430739 32828714 103824619 176559984 546493980 67855452 82886837 359943884 184361764 178577866 303096608 599110505 316476214 499095805 549472611 401039360 233838834 912709630 641897271 193598913 416453073 38178813 93904639 620459335 393199435 798828608 40943936 253336552 215891838 118503413 33201139 466763672 430233508 961087522 589774018 319671101 622088143 1752571 549482799 817372191 950320283 835049333 149718596 338668707 198866281 2572552 704420928 716514755 737772770 189679678 532353666 725385029 508225298 394989859 919709246 189125814 803083767 161414436 254046222 859068452 541373476 423773273 742536637 220124879 958918861 109630068 769566880 533606254 486314902 583404839 114784169 448677084 102231002 957750903 543683759 389520983 445682835 209189304 675566954 323561273 650567170 860483791 55485062 738305656 156479132 996135878 371228055 186026294 103363414 635634360 174740157 774802969 769064555 917014042 464569063 291519629 745144429 149496014 114065070 90418065 788455606 58481564 460752932 280510210 84445363 712500829 198379561 57967387 642057976 313497192 577472910 275992347 318579921 921650754 986725468 210162459 630392287 324887834 168064268 816126832 78744330 668843816 979092076 682893571 474743682 321618601 832291101 264301066 761743249 868080387 855743809 338951515 439096804 619683219 287997458 514392218 711351646 380266784 749750024 748665455 240595285 291563491 257870193 768638612 8324945 819594984 475310900 509105414 62745190 378186499 324019954 449699656 814313757 710087722 525851193 112795028 815721641 863322920 642361112 383620383 569647386 262489150 834223945 514770367 961368638 125789124 142402200 702517501 874468893 113303564 147719592 425847053 290617073 212673919 405175944 551651841 265341451 278292522 723498488 459156066 178066260 727990717 435384196 96044014 902130779 53946641 617569980 639121899 525614611 427298204 335863624 733152554 12353884 365071287 969132476 932452081 458970404 125612930 610561080 496572888 382993853 595289748 938503799 809567264 552916429 890930786 181660107 243474067 634524585 230455820 409117951 791851431 572563920 786008110 854427356 249739390 907666977 15723583 930672454 136722788 192581260 600530574 416570019 415893724 161953663 996887474 252242362 803688029 352074380 676471250 93265067 755235879 664442892 314099595 87530122 128810246 966423795 647686878 243817323 129163508 654510281 185702009 100050498 355335000 262315385 401900633 893510882 782307341 93057300 307166176 423131649 423109998 269164157 552545972 96377078 13506067 850728568 393203554 318713443 274197332 505995159 363169287 740843108 785280775 946455698 363613468 886503677 158188054 45818252 283246973 526900656 171493171 381284648 555849052 699114930 471149353 187569019 214863168 553470916 662280323 880450893 111798385 267089748 687569308 474309733 414495329 283094175 384546400 512020535 154952037 379149788 177146510 797504830 301065109 975184432 529119521 208181252 114700118 772748860 202142617 560665420 301594624 125718363 49158290 760609661 317019783 105824242 875944126 314031042 310525467 660125552 536887509 820836127 915905570 675651241 33956614 220181919 814074125 411453914 478188106 341230882 383538432 718094736 55779390 173844337 376531432 347128044 396658166 950392560 185317227 30148651 474649850 864475229 288317987 405312519 59501585 339495040 473840763 151591198 170190429 371104372 52039542 741340915 475225362 367207815 28490040 57777600 36160097 308518916 974490667 897110585 281632942 680317843 913207489 939187684 361301299 686702348 137397096 223490901 613064907 588664197 27853038 608633059 347676227 526775761 201935406 839544451 153388695 879865688 347708050 215438024 22163933 99069071 703703908 523555946 310876369 28534522 738899049 113064437 914373906 966194753 397705621 73497589 485405520 588582593 878401930 735146670 136012507 899836148 768853270 656341560 879769194 903782151 75562850 167735194 172238989 878453725 526973521 133136674 705967254 917469 38538482 502320122 924248474 134428541 446470815 206552550 414172171 67614205 95362680 656618757 588299856 815728461 197379447 885673994 961081994 471623314 215566063 102007297 292253528 988288726 594356505 641251213 269473193 484779502 174291532 306143549 944258236 233020722 935833679 493666219 671751492 54468619 404137505 405178436 556953837 186865105 498607513 529541186 162106872 239948912 632078577 822250229 640087208 921919023 685887280 946792708 489808763 714910690 431745243 236762952 735981022 327159887 495293670 97807061 771122322 555540954 98493764 666641420 490868518 19452171 708569187 21895600 809419451 431968603 568115353 372809183 737471650 249286368 400930884 896094494 784864934 574288069 156330463 976673474 991550902 905534625 72092628 448764251 515780643 182545906 603381844 381455579 542148727 716763548 120646809 293108721 789094154 857143909 563874788 862529953 205230373 504346517 380401238 391810852 638119305 465122980 758472836 599136029 595446276 629465382 29332509 247785960 867061921 35799351 605224385 606657926 373609321 801032570 864011018 493708077 25338959 85467931 745807545 897472451 870438489 265968170 479149613 565645821 174592651 545683236 918996296 99811421 707647961 680189895 63081692 681941702 630776570 262016636 845830775 228944759 339594528 112357434 193044603 357582367 764239441 102300569 269102911 641817846 142301336 69102038 659489594 720829542 639917358 761577901 462458895 204809159 826100565 207401843 447977937 656339446 757406572 771069090 228369237 609660043 15750920 667459865 471573757 542211558 921530926 837304851 365738339 757204866 881036182 238511764 795423222 717840811 416791406 186500096 360783340 407928283 328790681 176583234 837823965 598072638 849439549 760331816 928253080 175493958 766113846 463817052 601439989 519973597 778382954 534720839 902897839 115236486 728197597 113080750 171108656 702443791 868775768 133157884 702607217 251979230 38081549 981245850 450762939 288022306 436290420 501121894 707578824 197769829 641080197 225910611 582351186 972568508 674478761 725173789 911135025 276398583 198609474 351236879 455075992 179140394 604463214 731951007 261021111 258859767 79220714 9014860 967984353 200551700 973068107 632650761 874932551 561476594 693862095 434025393 860176785 409322397 207374935 290183872 934473591 315777472 56050115 834427489 706322351 134173946 478142786 108171 450728361 517241140 694100377 572606623 665966821 582953046 214791675 320860464 842099965 557756063 922578665 875544805 169629951 653345831 85634783 259871271 730393166 633624115 263753949 25578320 861464358 703213012 117525663 198207325 452679996 197822652 207077061 744838835 28030498 323590846 886726721 934119235 754985355 99535140 151701399 774399187 686367850 744039852 528564234 995520755 222257413 939345571 97697132 883417373 755503107 132917150 178919282 432995163 682543963 978290680 285409451 855993629 473403200 80991150 83909324 536616827 867932963 546499635 132251717 260577584 809948819 319973591 791868536 792965096 958486021 801060960 310632633 614043275 802877950 903072049 111142531 809770231 178253154 925456509 848687260 442913948 707152875 850300994 704514797 109039841 511618006 612959068 153143856 819366938 489581542 88323547 667708523 318835960 527781472 829892838 785248704 386306224 99501915 401835718 540719644 887404935 794159256 452664193 69773151 824703041 472281399 592008525 690279638 579974182 227833384 313940797 472958682 107073625 57658584 328222739 901434021 916627437 690500812 780600697 131588130 895352374 992651601 687058162 275632383 477266815 80427327 315858885 161610756 756697600 224939916 366480137 654629971 618166056 582526814 647390899 518221629 984743156 24737357 857437083 765693772 123876800 288734549 119106423 784925694 510641245 38314179 145240898 135774058 568859882 149241606 817115951 548614754 191966563 914366883 520418144 341161219 580334092 490306805 644212054 118803300 940230216 761027683 421590805 207143609 488949970 866851195 254548300 478193213 805107199 303911150 949862207 464094963 398141794 945030675 41752726 511333902 587749784 474495010 82627900 875004547 831743607 584247319 63499871 279209991 75262868 728479672 692414274 857082105 580411389 787836035 877929349 189092568 23431459 165751713 50048985 228262702 427148564 554743765 510493007 900332457 555552641 337080609 978740145 300362084 929575409 999387259 316471621 705280765 643412639 264001051 273872103 516638793 700672720 216486743 279687501 362163604 815570299 147284583 802790254 965401974 597635870 528213542 395235233 266899881 678516250 148311714 259305171 380043973 38361350 622710465 695537117 258387000 437037635 783977597 91051394 116926760 802087482 34007908 723645907 119878698 547793207 362021132 3783052 93289153 416475532 321814558 203325468 832207342 145415031 526613404 407370146 781457185 654948935 802215607 174850146 854029499 681059961 917263944 955174929 371486034 121798471 358373667 940663774 448521794 991216047 92921533 667159215 25633781 222997028 688211956 572695311 729858077 965826047 284228913 11605914 239513847 599041704 965888761 750622908 831713914 406659001 758014149 192378794 570560828 488745054 36530362 678674806 53640573 761734635 431701171 568365537 173438276 205790193 421006972 308897513 172397442 349302707 938475583 643497229 535088410 482520586 772272425 28736389 313788799 677991978 746515177 84790571 217481523 723886275 719834061 915635562 985791362 995198283 21286698 897932420 605978653 384407706 69958995 270378877 288809374 481366798 875453761 746623891 347408842 515615635 629661445 478730254 986693155 679325943 681711526 92026589 304292127 545214203 663258047 344761526 56187677 66341625 566800798 80389597 811289902 714578027 153119966 798613878 52518648 393106330 227245820 524101937 108012387 174457369 744586625 746982101 442404817 88196136 135070444 62573238 598016581 829026477 63605444 152156619 322591996 515435451 249208965 235685160 45519543 334048838 225193674 914152043 822512861 660111885 536566980 67536456 182082561 370410270 166448760 802905931 908636625 168884544 221099146 5485177 856293116 333289950 863078078 96338182 401982720 807441525 55737957 141020951 972918356 72262881 303992918 538381057 172777303 42642243 897773496 251515433 728010401 347925114 175931170 938433609 881577350 92057867 848062586 759962987 46581615 529219935 585251103 882715215 132853291 639585699 937983074 907680243 632472438 802597359 387983885 14611822 136392394 925978588 964096321 850885922 263699870 471431630 477864407 808268417 954797503 521093540 688414025 854807562 902379612 427390886 589426549 477217164 271518685 227673968 961413427 945680706 728762179 310370339 171658953 548624989 794448734 804815766 550853836 797091054 592246021 15039380 309200901 27812908 885672540 480162163 530202350 758344648 261443722 292985239 824200025 483395347 665096350 128048879 580085149 645868959 591591894 305705668 196046133 723107678 805866755 430731674 983965215 42348450 596055797 162399056 28820394 456283751 86053295 336748926 34481583 271749469 796326827 869809739 334183002 798440144 648296321 88578399 8071213 574197527 613099741 901682221 69742849 349700632 857322451 271095187 72177872 604830868 334186006 573839915 453191043 391582426 931771754 144850640 35764086 849035504 129352338 666152713 950967696 882677167 325925968 464851723 909618210 421958448 606484764 558800498 337638811 226422855 862045554 488200358 41367383 39074087 541707863 774031548 526594262 571163440 470852255 92403196 739851297 735011278 646152042 263648288 688427175 283036817 205064580 378813941 476789177 981608714 821700081 145106871 102976595 660087841 108355827 800543582 293265707 497801948 623643377 350731932 155965714 394269989 79640169 72885384 380270859 894276659 394472663 366000514 846334329 727528430 582123899 672826200 699646552 58013334 944612510 705782144 997675074 684163238 587373620 187649086 852589901 620976306 523793975 413271912 37928542 997771686 974942481 189289278 297779424 774078724 349288489 592356711 697869902 141948459 405097499 264223765 271492167 623655397 897756222 324890088 652786689 826738435 336407153 138510024 111856656 873147883 448041314 938178839 792349170 140802956 582720325 942631463 163795473 810515231 395400102 971945977 420340891 272180484 967353778 785568353 717931862 115348963 613294020 262447571 670431800 528837694 223703642 366421644 282570462 328740044 321625351 528683920 203098691 442952962 389820452 244162344 158593051 337291610 554715759 48681474 524673617 993999043 682556714 70519825 464354860 815202573 622778571 893857009 463483471 962868003 559891649 312589124 922430258 374002090 170769550 186853576 69190209 565158846 802752556 568539756 539286272 376820710 122995212 507859157 836875801 412429412 366527645 248469837 385675070 3280762 703758678 71033520 193199175 390460785 80818970 22840754 779819273 988960912 706487921 157286625 601641378 704834187 795452290 845280903 977313843 617049881 552523930 60462963 170647993 829245021 298974497 165892395 792819662 15079660 857710200 53738670 339816668 534497393 855363787 872467766 808209062 322166184 229501619 520345857 263119569 937275934 524787218 680032405 961535945 197398846 854315274 40104345 979722002 480009635 695131256 218830255 686089603 673574210 500135109 308266235 861063007 955187433 752321652 102079654 222679899 455421130 360797245 468634075 988062119 323503782 294963647 841910519 882359731 921050348 7615650 846481659 721755147 580045455 974434168 133776257 920137380 304208319 431485760 452354841 908731217 936314177 170406844 191821825 403282822 180613375 73844471 807193819 94691684 334991918 654936504 659910956 831242617 576489474 790382324 56939560 923214867 417118001 17265109 43093200 374504985 510988880 88323459 72036516 238438111 324912563 613169752 985427155 581833350 450838633 909595565 402250150 236913351 706402312 377283912 565659655 943344717 201472912 144731394 225882496 539443946 805966784 616152139 77449901 3001074 617339955 260647946 230606882 204411921 726937089 414007383 465097132 264814578 889755066 200548604 255942991 512226290 667177905 282598466 464708005 395351392 249930535 654458702 552951514 276315565 8211086 679985820 250581152 124523241 529547191 795678223 393821618 638987258 940908827 122247380 283141280 220387261 895292445 598901636 209654140 730903710 647396929 844762535 604566034 82212548 559403028 314065769 962010811 315173023 562794968 700195199 865127816 955634360 141373098 703109302 628838929 387521594 750476566 558568253 190827059 462923533 589602059 680640268 440206955 139710638 722168633 545152069 469639898 789057981 370685786 31691607 329439111 653243533 27383174 319545525 30214596 924162176 872242237 734299824 599014878 726553913 242685193 822939391 961900607 736169218 781486293 218206607 816640711 92632338 962872832 437028551 182227975 58789059 456493598 438531282 818310266 751800759 164674787 473814288 39666739 869854929 147862595 537055611 418613768 511674194 650374488 707553251 4874549 78578252 497676513 809136110 148783122 578063238 794528892 58672368 32212624 18558274 388548203 7881854 131823158 875952026 325318632 258482793 184410167 370457952 458578527 595063180 713090538 512354721 350617348 364872225 637740530 259156737 273882531 880602529 65029416 781858397 831963665 795876040 30063318 144103047 727178903 303186389 876546348 358393668 850107759 371673737 178665451 816820542 875551050 432147608 34297351 563070442 473516405 681552632 36125829 647415516 157293510 562433657 160143127 495595024 376583351 949706693 398843894 806686962 718035468 743147784 84108740 269757536 65773716 807741740 467674489 948107565 200862172 66774838 205348681 938311733 970293168 8570482 241402379 101304371 478159 136669963 39167125 486734024 335708892 818027963 836692668 452587595 793258351 134814823 225615716 785107654 964969287 243302165 884597297 309243503 722621978 76828187 94026835 623947197 85629910 923234957 305531877 385860094 388494737 271504220 74275333 151118115 792011808 934144728 417982529 568137072 590462739 980803428 962901094 230647056 651182967 787758746 185254260 434257172 213098683 115658691 260979204 416401338 368384882 861903355 151850161 712925182 590071336 719146979 61043870 608041400 118538728 399109803 839943663 258604522 39508312 392193181 744356785 160813435 459662102 964122255 647071159 109465754 250373890 514443220 292452561 613068376 613389 794294522 829399495 940705917 802921584 842066133 230049705 589691583 808972323 303511022 495384193 44143988 941278817 227351516 291787405 937818261 907554873 106344813 25857481 946012121 932945951 723369181 125316361 582983291 251191309 473624855 848979546 491390513 853185690 94375832 145589640 804996840 726207465 845178825 505704107 658523503 480730793 12230885 385615063 894459181 295162575 239944452 374199296 987138826 56786717 889104589 278033949 683581463 778539022 900639569 47847437 436426047 164662926 773468242 688410538 444064868 194927908 459988356 202964936 468281605 992067314 100548823 548085014 213377523 112086241 988324091 577273113 887978443 68650411 697665857 505284648 526994330 5658233 184346395 87016084 388682689 908109137 96631571 676481967 705526132 644017594 84762361 542144331 42487188 633028816 260207223 549081160 385563586 682851201 256833005 969083205 628485775 362653619 759393438 147499498 637018477 557067045 269947502 458878964 860943980 343248287 614671091 544124840 312623052 424855606 564095922 483611413 798612343 530219520 121007460 653552694 736634520 376507391 353191444 495361421 152268020 788460786 196898553 290871993 835947436 415694737 798477667 82330046 374716041 351619063 884457216 449656493 643881586 363438771 947787555 537547520 747447116 30683885 298630779 619851817 583592980 338062432 983692015 106231889 866951120 600991077 118682119 849990272 41244875 302113166 517704308 192171886 475366971 950357720 342324553 533300611 523410317 829883354 122628709 768021965 714084877 324596278 57494074 319183510 141133692 460188850 371757143 886359360 373855169 878670611 439239344 565502963 17706505 376980279 633571686 356021627 501168537 824443702 636105357 867915705 852857010 373760912 552296125 405143395 302604417 966773364 919368155 879792620 274469506 68756964 718844759 916488963 7311766 150646388 156950886 210131266 587392378 473707358 244289589 371104031 740093672 710651055 884022925 321658258 273976338 394462460 101263146 194945800 567690052 201536982 917918071 200323360 467733665 788630479 551305415 998051333 903622305 555009695 189152950 480456890 246551280 39124321 310963982 83359873 322113444 326165955 945991713 552910145 457541059 721849033 985779035 495556956 28188844 734766216 296061471 161630648 264961433 317743173 147262310 286979224 812707615 597675616 363730731 183258232 373464142 163917858 990688951 3556623 391753076 398972082 311143688 193952151 839099754 652393054 4117934 775159240 756747856 705345197 855661368 785387060 744463521 12586286 554001498 65945561 781112677 290737037 18319434 885130244 371834335 103058489 224018076 3443772 469194597 235000130 109136985 386017029 661747131 949547581 724953691 451582391 572580461 519651639 687672694 880762250 95712572 816628542 110391836 302484805 603610456 824367731 743996980 62215905 16910774 456926462 648947326 581237963 337285422 203458369 380560642 162137222 124343096 499871780 880448594 985123513 192859920 20952220 640906750 259451118 456644953 874827907 161944821 257318104 307714808 591601046 485474247 987833044 593548946 351484151 713789264 607602444 292706453 135881396 746217322 873169508 938729152 846160653 119949951 518081590 476733097 637803064 496566502 293149534 774862482 266198186 629276597 985423817 695342776 527631538 669746603 946789615 63787713 393794237 125758875 175174081 549149898 712933387 500119959 748313806 912393950 722719005 538025110 504565073 104085311 218543693 440569724 464973099 717232632 630663153 166285816 689161673 365662941 82036608 821461753 349046768 432828546 267280174 213288625 437951160 208520264 8667891 374782788 902688135 286015005 125233936 937720182 546239859 166123302 910548416 354023584 219069795 115454886 334193143 360043448 28660348 344409787 864455302 798467198 142897938 957614375 132331762 7560909 131562109 238084475 782073823 793809722 783336203 282412366 259257032 998015252 389509747 836086300 454373394 367090535 654571891 812773521 490638856 657395931 537492043 136272079 689747243 161303733 815250617 119377327 587992768 66058435 692643521 453378143 516821004 327117646 547367220 932903389 853679875 254708797 229399931 38577967 891592917 298789420 845959447 180472033 785017583 749336834 162694406 420591014 136204151 453678812 115236289 216905433 175516025 261626132 742435573 581338298 655698103 759964499 209579249 758422403 303843909 5537000 446219567 614169850 215476327 120567724 290380488 581698466 326444531 914122760 480006565 887098003 271058824 29254166 661208565 901104932 810144977 788475205 151694595 167912254 972469696 432584504 464327350 657432752 415547660 17871854 440985167 805430703 975227485 517483505 356277099 165241437 942412120 321045305 879026764 391022780 886634698 197512544 578943835 525127882 50493232 541425754 503565462 605579062 932409817 520279869 136955651 784053665 590837692 267685174 425541399 420470047 407983536 829806307 595108778 688850420 731962910 873379218 336981905 171570772 932928257 192727866 637569728 946465121 204915731 238896047 545537762 66316653 771434118 755235046 878302440 401642379 514961263 684885885 541817124 277163611 964525386 825061036 620708348 75385758 50354718 961095726 8064477 712889241 401782516 293036998 999859913 935571888 174260790 218417842 821907205 579728007 15368759 828849761 922572604 757012952 692475338 279529959 135248043 654102140 22306278 869276002 193800483 521156155 554429352 271394776 449507643 663924153 321666717 188552260 777200342 55694818 500364582 16364963 732292188 648733528 608293532 143464359 79669210 323508131 892055694 270338236 305682904 3232080 365108904 297220709 438698348 656759040 183602316 849192566 191248187 826620009 764512105 511926048 369634703 396614435 130020806 249908449 340669443 322904859 755084297 726999126 641372704 329786482 209463675 353623261 391845082 467958535 878861989 618140837 457725387 419276690 177579912 874273848 403114007 161756720 120780713 43826569 295313996 373314178 811695499 23986046 958847883 374325103 382735771 495001717 891585988 990642945 202470145 399696687 413114069 452367464 628681834 80323677 525441898 303486306 947661449 202294006 873126804 427596131 739664171 314030307 660023443 373102230 345494524 68771415 111933730 961147450 863722204 489621856 767729220 31605547 198145294 931924632 37866140 246211307 687332633 52508013 898362917 435177122 845714291 267866987 587372118 840636412 70302603 660977072 153740699 574685281 197533959 999738920 694123352 447645461 607237567 468602779 650713780 395313727 876368117 165961536 410448969 734000604 347313477 424732761 431614505 326068527 165710466 789102151 754924018 381547907 520871013 913314795 950720657 451884140 961907914 264709822 679392364 998168209 887375661 123475916 381964524 770434635 759047048 1771144 648508469 389146086 811744281 454123582 552204357 260391640 546895164 433963878 629809031 1988336 134014854 541138711 707769882 818023601 96341696 571105243 284789426 556763908 233181178 336195292 366836579 679808876 794959772 766021996 114863016 240572067 442098990 308268630 762824904 831787376 42425594 260828062 157440716 362921545 110911985 542472334 119618945 474013931 367751504 455697568 214829276 905379802 735946582 270521948 964956106 652706174 128813607 715924424 915608509 927341122 433523589 710662716 417827965 240706854 460305150 261977242 713458428 524731764 316404162 888614501 586848320 547698120 555886934 26133209 317518217 79501088 668635261 187266602 267381117 782772089 661819036 241066834 158978158 429727715 17046575 847406743 781418605 563933631 545307050 207224152 240658584 684995685 311342578 509823011 662593438 643861784 760059294 698321285 198112264 80414166 782981468 758729848 934798825 165846088 886446734 603920020 716062188 961534702 729413974 473270604 942516644 476652383 989845752 273285624 760908811 161531638 697639534 308389218 113569963 379015164 240391735 870976372 533828969 995069026 690433279 251106085 540854524 401004348 722796869 201328854 842073461 262047339 313661322 119109937 589341802 748848149 972413178 356082584 370361936 514168914 425681123 795392167 677093554 175980590 616113481 942247395 553081774 87028127 618185886 458322634 765009949 151004474 391571930 873234837 132829500 412059158 919798435 825844884 282240666 510486903 783194190 607891577 722520358 234634409 213678778 5512698 122487815 938258156 937318360 342309810 339845804 882337558 408265206 845297624 776329419 313610693 310636758 908349042 954910942 533977536 310465285 149346505 345061505 452671835 108236058 272665662 471624174 113947802 417596781 31191853 228186330 466322042 592170568 442911503 101029876 163309490 694867788 939674024 642385461 199624299 39574707 942511124 178106122 645657346 28303170 49194623 357778004 412073458 387966451 140722443 897119857 428791114 586728234 697326163 902664831 187602861 356279677 649233354 299261721 340178067 451007812 366571365 558831570 35532160 4025879 189770951 978545778 934504730 892554326 186295213 438887946 212478729 907066242 300210450 723480048 485286577 948319178 501314470 646180493 53402399 322112323 252621657 220506303 647302163 327100915 117847916 540716118 398008239 193737380 391309537 976523822 128299482 173964754 625072131 450303595 217338877 198901269 126234624 654505047 971753674 949129647 632517531 377383085 143182951 269289126 7711904 287672511 540914898 552709573 951199023 334002089 932194092 633193315 644540142 165622873 510881739 729375269 991767948 747874298 475151712 437903968 472742575 135836931 449636525 451911737 407954186 659149123 253918043 212478636 744827521 654046399 282871725 306047988 425542590 2719035 22881565 835497376 810149013 268230351 485127779 176127060 851533090 452423453 301991412 408574539 286292051 387782278 105320067 856174982 669286111 941961952 910790947 314227490 423403740 725513963 753949368 211805178 348128494 771703068 420270236 500530275 633697870 323999543 55841231 588079456 613335287 742688890 907608917 350736192 111794378 926959556 438778869 752834760 929917500 136223757 212746919 898597084 852392511 912850392 287497977 591855412 347557810 180485377 81752932 648956764 929935574 55489403 917290541 652968360 678402918 653399152 311117270 527293380 992253414 737553459 143876578 478396663 701068536 439579663 830387474 112957292 589637958 72276187 930626572 894065504 921360269 263446198 713173302 598959937 375777997 922161003 157837138 424274375 832074184 187046853 190771931 747715730 200653833 979504908 320647462 651185586 624198203 335488047 676787503 948742049 632205174 874695227 687763476 298052121 51605491 54655399 432534655 573635269 442278872 539521511 392801438 405971419 727785824 449270111 161640270 828568464 8744263 792355942 528719572 571821765 949478105 205605809 875315263 430823307 254967225 81098235 135434724 942631766 30977590 373046179 387204045 707605606 22069079 221068328 636895119 671776659 956292651 193769002 549196144 662906239 238669267 984777990 966765732 705100366 959005819 472089867 821565017 780720293 825736543 261574157 217478676 452847309 648142856 684909265 131656658 278866397 792454772 795845009 43127117 791462630 725963566 18771020 568740143 481088472 338331214 52440132 432909031 233096477 380495459 280817611 277798194 720708075 345750821 920093850 283692424 882529042 952735227 243265657 844598741 877578948 42623512 959400188 744275240 106876401 836940891 47416927 130625583 119431541 708445606 544444522 281874647 358034928 317818039 446685285 448456925 458222618 287403277 720362371 747391577 503156583 747970890 489771723 648243541 191007937 808721440 990100023 275018406 534747661 580429915 611629283 469072881 798102068 892958011 308143269 29048759 476263535 681066744 42261066 704408961 363283227 902160491 744217111 749696309 133546263 666399326 299219615 39371888 97527984 750044045 146242412 228569352 404440451 20158941 86421677 594564186 416513040 112819256 473310246 23448596 204443793 263681638 704468981 511064230 716627942 301882973 579974140 319703826 634210152 492738973 898387869 736836749 49856974 816583278 269444761 822149979 817736935 815134263 640903431 928903782 553675043 719246839 349787468 543379092 349805467 24612592 727560340 949537098 751627250 456164837 885961910 171347903 284829218 526334435 284152974 344016492 294018136 275041612 921557777 783045888 261958410 629635548 779987785 275814578 875826250 30238251 13246836 378157700 218429566 968961814 99156040 888114270 915171826 852047069 257241407 712303388 939650428 960957666 187660384 592304537 823755945 48328212 592263716 453404184 219663024 505177306 162276428 253432485 94626143 552044479 773017110 830820962 915670868 698355006 604445221 657809425 27488433 132819280 421242932 324011962 724908502 699181937 74963974 953471350 976824602 983689723 784033059 480123009 878309541 132368675 323383976 517265420 208435982 934658792 641565896 136491572 58275294 596784812 604546783 234871371 316312786 779143116 952417123 918733430 285629816 413817934 800236737 4172822 275466448 372288347 826983052 432912783 82014833 584474964 176076372 922909561 633229118 316776758 439037532 917917725 856236960 933463254 363108250 856929080 96009414 737023820 379704092 635327922 803704538 624972976 117114303 986162675 890736049 706838897 855532578 348836863 244414484 383226004 600412513 877625315 167058785 661629314 722931818 565488250 885189788 196768869 924190850 697976486 745975858 715041798 112887422 965190908 576720047 580621812 583644080 349350984 857838630 85330622 460311711 155596751 443999896 905554614 886025051 961131460 556078516 808253419 937252808 611576822 799076569 274004194 421339372 29361024 663304078 73895265 857194429 992376575 455533702 242909041 428534088 114033403 36895008 187296521 508882075 992385179 180084830 138244238 777686460 375637684 941675331 19045066 557833674 479346011 589961987 463634090 630458529 727260600 159984215 726955018 182254387 976381359 370335226 165256119 948346436 250329838 563594445 824736145 89926057 989577901 303614256 14995022 343828910 37038850 208475578 745151549 529141027 488317611 156249372 210329716 727721851 729455170 974450927 984588212 914051536 500781248 632114573 282349088 167483232 244359504 739842003 990511868 161656599 22577011 637910296 543844332 487238728 492423810 983570254 736564392 709996042 943633218 733029507 453700910 235315392 700757169 984011374 925566756 876279766 73204062 364396464 446143468 971277277 323504357 66766792 207425059 606805874 761366852 157145306 120385512 262260153 37055068 174377670 952976459 107919778 617312396 203680538 142687809 974310739 257132907 97055388 909748686 65931647 647643991 635897660 795955472 867131749 375384178 621109462 542984186 2591948 303328337 938468221 288403850 401339758 607690115 149244057 725564335 83051032 628363635 41723471 262589778 421433243 555496707 563509770 147757160 937721511 634383951 875128005 772769196 651609998 976716787 830179274 116344832 880901958 691093720 386335112 805102209 839309418 51357192 446765336 702428526 759310207 269377787 180284631 913914944 744930829 566611878 35357653 663190318 488911750 371835516 701978059 277139338 295418348 834144329 124491368 738002336 662937668 377423226 684107232 992806823 158623756 679350250 693580423 128897002 963235434 994115719 381737582 848369197 176101091 51248290 638249332 546340639 892274243 483997282 862686954 14918240 988674596 279787667 551112596 132311339 544862312 50739366 872302166 192835130 242268393 163479101 426966097 814196180 577808662 146195086 300475383 678089238 100287904 373508806 627872793 107691826 126688625 883320114 51223986 173055519 279825106 364846488 12030037 152883798 941648044 608318537 430776569 941127722 585612001 149007356 212766019 288751627 994826602 62597608 504456867 430479603 947451166 408330247 30597908 282907266 237019640 734522318 223035724 445854600 6489263 822172009 21433901 640453004 180543657 536580537 141790596 843681450 708413875 344223130 435171644 681649562 83503313 312987624 255120863 917462380 790399332 966245368 975552687 771770728 570882109 668544662 714231879 770669634 856086069 747137716 191679612 248229322 194937661 672968309 861161339 599725877 37308769 777030065 596886450 476651003 628964013 153164547 534691714 727412600 988998221 950009978 683976748 537050011 781173725 518174023 241749194 67131164 455894088 282135263 308269570 367180471 122869160 589139636 906677444 749555031 813697674 132076384 987470366 551757989 355933333 622025462 981430494 15903678 646683725 67124436 371622263 196501758 800792788 303375332 209451451 776736967 811299878 117011324 619907475 984956264 178027789 252042793 709322067 201285523 832973625 119464717 958149511 214721584 564690200 393191313 226821986 40351179 70850916 946657188 68524470 579112095 200739716 641910931 2015848 913078617 169160730 218912143 365899231 357080856 440694566 659223146 929797163 824281989 415777403 66725539 517364823 79067589 521685484 588590699 422626714 570443552 575485986 145599957 551747113 736350971 517279626 819966581 404230434 689676516 814618174 314487206 129026795 638722356 953222637 973871556 643924684 699932202 387411519 106656813 439434246 76526578 991844865 924951146 431970265 298162202 698320033 72846851 429634349 495221220 279059775 848142603 528893960 8817500 868631656 563943013 170426249 395111818 685880358 545615516 567368981 12822133 794110033 140405176 29990439 601467139 658803874 110864425 401454358 195744043 974576633 352134510 77839947 992054365 887355685 649604970 341005905 534185858 561341881 508970090 247339772 671532570 146269805 438944367 144193845 57045285 106891287 819950491 721252297 722153581 617680270 98947526 476781768 291082119 929033107 144007181 341012460 228236778 464098210 750955604 765117044 862256311 398892922 856007773 365774800 263329745 941310869 486849826 924215209 455352107 35989977 89587283 501323915 73185769 170999245 697353739 707572077 508763158 913686913 416188456 596669965 806516904 711858217 405113031 568260636 935990311 482444842 712785972 977917484 352173777 236001530 985688516 60285176 591152923 50609724 739388055 27013536 394956079 620643048 640234557 967791209 117216575 202654072 298095431 697660158 535758519 637196663 552421137 887398209 100064861 803105625 367935527 980454250 437302630 381165957 697720305 710721029 406824660 529007824 664672941 817287584 377975853 672816710 89480891 967373874 976649800 494042449 282964296 661738663 638257525 290493016 148326548 702579698 661699989 103201747 176556824 415873444 49817527 44256099 537788604 943735567 42527740 860558381 681597181 442522494 707127780 757854561 14728124 372069394 416441973 965681954 756914174 11213481 177299589 279282239 622311346 558596859 855026178 299147569 671022860 487910869 327474537 108553479 772382096 553141106 955110667 644105633 187341737 504366411 241812664 562865089 181689360 593265231 840383713 298799925 416586607 382543785 400389782 792678835 326156559 101236238 525762505 675679744 461094609 430984809 669820362 185007550 267460445 546186280 399904131 754034869 139193247 701319265 78108654 394530018 136214521 189813853 489666882 27432777 994560165 585161436 331815498 573451825 958060351 381560697 83375332 469417821 445214681 562677561 395223381 717393012 633406773 253629520 735883502 365075541 391456220 155420142 650062793 347952229 343247830 204508403 539297080 961422868 623522740 724508918 456146257 758065022 885340511 141498085 42776020 539517982 784620448 339978327 171417465 347595446 481211072 235518225 379996637 843649926 829179983 99272356 84114478 737041319 558990567 393301377 201206001 929745016 887519854 51145974 444802485 181437250 316897475 22137859 890890027 29366795 385331534 375474542 834749928 806946392 905799623 254797410 713843176 418836726 497687588 192857373 964040700 600235319 948430102 692494241 34393028 668775955 78376603 445135512 784287935 408006077 128524864 844920106 750688037 327557968 237908179 983556938 13476328 359526414 497240078 649194036 221444915 315632549 699832011 268684257 917594356 985635846 488432658 951329109 179447270 658010709 534397065 583651890 116226062 344128181 998312069 489440644 808166941 18868881 994361307 151740969 107093723 282505172 346855897 252673689 954437754 88763067 515804373 150354665 122366086 107151753 545556146 544607831 199529882 34274704 57228930 799869246 850447941 803595361 558058281 425388059 905150775 175575618 521170049 159237424 966339104 878705121 529587155 388025700 934145028 600928369 231409900 633838646 526082018 925762789 92654240 357854598 914946548 892403846 279004944 169193976 60117941 487537233 197718545 161213954 135489473 179777533 71737926 318503059 672309418 436931255 141750653 862203648 405348709 173800049 491181605 176634042 958407411 705633392 652158467 645188879 487769959 423897700 899914258 606338833 974539490 352670648 737735977 316281045 354666978 395842099 976534311 926903403 593733385 9087107 340293122 770029848 878905109 954972708 498080739 185339116 714691994 612644729 967061643 971019430 230571154 130739406 281236833 242106650 744310015 769023276 173991528 622571696 608623521 421070005 899843151 295060006 816352340 5047282 991835614 435163007 421817662 4548339 550052634 265316050 307438432 70514830 345859388 127658080 202940671 960666326 847017215 255823441 28230896 767598460 795682101 743349483 604931816 244108475 733228071 663470599 465527625 148689127 838730893 58733032 208025177 565501477 241992555 753604990 868050687 340196639 961344098 471976195 836868283 508583551 203009934 123056643 896508321 654505919 127201755 418664197 559935044 374100396 113684063 909766199 226781654 663364291 818246971 302648230 509065324 928313958 46534824 447724147 831167097 152321879 444296844 699447896 650296158 212489263 344955579 342625672 210350855 787876298 187197532 130745976 363294728 503378309 981856176 353050318 477621333 881352569 669760548 124965458 519324593 85949010 75674185 473568566 808248733 408990052 520775185 681875010 221493571 700923676 553741840 687432853 210651034 201416250 3939151 731064483 557530462 569707694 155034799 429283420 130991915 163615825 747458275 417071725 87702977 902762642 577547565 163947768 983929896 269543165 459004179 444536461 543375728 368327120 578544992 337640300 208473660 708019660 340120150 899497233 152842515 845272427 242365107 464855073 831693822 207346070 626794285 275452202 973535545 614783067 24135089 943534102 228331417 631924409 366949241 558524826 660183236 751908137 132030870 704501717 976802689 747641519 134001020 508615168 377401895 518060450 289411091 455218873 393487209 589996535 565717702 190380322 855950763 670941250 175982793 171309967 704209730 471813683 125887351 762172580 390737847 499673400 599681464 45829461 700127408 625336931 418004587 552104398 487627315 59066417 816205963 35334348 542097366 703251220 410154428 575830651 17799284 821693449 999854462 198623510 855884130 17549572 27417432 894708320 446498197 650198625 363479776 878693116 79214734 212056667 698780331 944788900 368854607 554291921 461953346 958635090 680865700 666832479 744222360 98477732 563173837 891372001 888439985 59079778 784642575 798564096 490159239 505130364 209145614 723454093 914251890 319633195 651405962 386975163 380098071 197900933 842882617 515436050 614401248 875179987 294077793 146886464 539709882 99898616 491414119 90669047 144166723 721464459 834787917 380769997 152181677 112570799 234198190 847213719 842209650 995598053 886621758 470079097 589670788 682411873 282645262 475605865 213785916 42950006 509416530 508105926 898302818 357845241 108389968 913301039 929820981 902500820 256935660 560238060 326620733 903819090 583076919 219388521 719349381 650780999 150030391 322720732 707397428 64006872 28036448 675364876 975532795 292425875 162130466 834707024 281117988 136673773 420971962 213072940 495488132 30549304 934717035 492169231 648238242 583341029 371304555 679181645 26490528 210609867 258866305 999182223 59391228 59499993 144022747 482718813 780228683 698530552 680892841 508734603 34445613 319683520 607962570 580427705 455709978 939612550 455909667 785541323 14596354 393687953 822168521 491846121 659701458 935114634 282547876 400188844 588516681 902950681 789721123 867309264 434598964 957091855 480674398 596571645 389637655 782310480 879005926 326852338 479258741 476311388 5253090 712748943 82093043 210162933 185538560 331747229 144147085 201206116 585136185 247891541 188715754 320384312 951474653 457806469 316593387 266958162 138236791 697196994 359948130 62567042 67762497 724789927 943741367 64170881 812549081 558934257 18831166 228691033 229861894 313314786 941618590 93522423 229579413 254972434 690993820 626336505 135936499 849304633 92274056 801429339 590260835 20524212 100088970 943053630 775279213 592058478 495576139 442092515 24525317 362004139 376853420 934185670 866677564 35697164 549572225 131365686 627339544 66286392 819675920 986367234 26754855 567927828 412092537 935853832 688168521 231966545 185603039 955176861 168007801 839681792 487365313 139703902 203296958 392760160 524773846 587651003 857075777 523006895 591647208 90699437 132961552 196061694 506012150 838386587 215551050 344182052 890193919 463367174 628782383 204282114 948144908 282301658 841160179 556741323 213126102 297348334 435311180 31824621 433350457 968689181 485865289 398471524 170368778 870330739 236364760 320707125 306797647 383196757 67685151 524077293 761309560 232098328 869821048 973800423 178603066 315695459 657851806 394175985 837826166 641912594 741703686 195632733 806633074 907766164 289906504 478421588 355872575 583870869 891726403 206047216 861112230 531260023 33964093 755814311 302632571 999488682 327021716 8261142 926487545 508916005 873182049 21895636 402848479 577630482 528185752 674251764 909093574 22281719 142027414 290448306 269441157 313278264 897620615 549031056 82436362 63911916 428517767 84419748 105840969 158673110 634689936 67794781 167860702 470071600 347316296 723247420 693533825 479022528 687698202 603622428 624509265 336157347 720868020 345650196 429447905 785347808 897764203 134514495 295268084 510794389 261764570 871975442 493963696 492964419 455853523 695325750 248944371 603763931 591454459 908258487 436790399 369821283 230116806 813038912 396344741 692966171 500307258 961433948 970939673 58273062 431438903 306507221 757741725 246922232 886250137 857686253 596337845 605570148 405164964 130354111 69205951 241967528 922727438 987602525 251068985 116761251 764386244 664412688 881763634 349529381 940942604 865665948 558956815 919868016 42050997 300341619 752877992 374013914 973913751 447523193 663519559 625042272 858251395 565122304 330745138 763928628 505387363 760184629 472222611 554771834 463067132 307999703 712872780 471250183 845362232 908647159 505171456 309187352 977639777 600460190 29508003 444000746 869975722 954798470 904987404 308126475 125301202 690513278 275273568 359994236 182893107 649743627 431345479 978970846 226860899 953191459 141076476 137834831 109981741 54598874 910433691 460162787 707582140 794350433 392484873 57924721 204797035 129189491 998223006 794885755 686623207 104584627 743978792 252643563 954307074 638899407 763591454 383416490 346391733 296436253 116808588 896854257 206880868 265501628 71121369 113092927 468494563 326645491 677171489 149731025 430249832 582364235 610103192 511363940 23134873 505732979 908838403 383615945 5710355 276698829 235936699 88676314 54279306 694942969 706509026 705961997 349485236 596739042 350267963 500177859 647195355 489660626 782112564 15300476 506859278 208838753 45922904 145322293 673770262 831952769 583727415 78712032 282663946 905740989 158277166 518279148 947501236 285240573 531903637 600866298 846445486 659346880 127817600 66988781 76618060 439655814 819056056 577499921 572123893 22370355 661585867 671095621 659915857 551319379 352542906 229118995 934089112 273397805 298482717 103099818 5899562 262299004 380652914 444104280 44310744 810129851 664848655 507433570 976247177 736765457 756880575 151435200 879181416 560483451 381725023 371673672 365704676 616604786 396692525 932623944 683841120 621042142 135765603 278525470 670302654 944323509 988964897 495107891 893130022 15354212 438481450 236429016 981376621 551057260 770585046 246973965 93127123 697560207 817121926 856101894 799443480 858988300 748726128 231736803 8867211 617915569 370248398 450344061 334097266 971246537 442314801 209406285 35748854 884854736 120659138 22937602 643072880 566200694 339602252 272573674 484119503 599257852 559266561 993977647 656538136 33195529 601364419 267132599 204351972 787249125 334965423 224375365 525240215 732570172 212453705 606626719 758335629 141130519 707874157 908576781 834388690 811545714 347138009 572210663 597912263 619666196 706540712 47219869 658017833 103621431 920110213 434780398 397375959 576515727 944028495 164998863 236966280 170591382 846645487 305936825 681398538 223544864 918463759 496907867 602446272 227735833 18802566 58734799 630357808 248736683 146605191 2539006 620659682 900815818 977792462 653868837 888186169 77850044 293304714 263095469 920038547 54226925 11227345 975213761 687001755 58398390 352504729 77016743 824697459 50920432 305866748 73609530 850795934 633096034 48244332 717621812 80593777 174182380 875420477 859959555 611635643 551245248 750456254 302286480 405539333 523308367 876181052 704661428 942184792 211125965 582313729 858155300 865480263 187330384 596602684 488712277 1827599 625508900 49958197 625649804 926311447 323409230 977746317 625717097 118509759 132951214 417929121 60537329 529415184 349928992 520112614 172538869 35687993 645316278 553140543 205881141 374195107 425904672 66761103 847606032 216086776 735195459 132035936 6838529 851380721 972640819 197487443 295386067 769388467 695332776 959039104 773523979 53486572 942269012 903437159 151522954 375336041 439790462 255721434 547907990 514952425 372775763 795895203 134856851 907205290 713577947 669362583 502901316 375911957 627015076 868456844 281244669 72373645 146946966 940306611 318504181 742244673 193818652 176848805 858044110 149216051 189293667 583945701 460063694 808916773 142506888 300940321 25099911 315660272 15357647 170378277 234258757 663027096 853691000 200260057 316230814 317083143 935270287 401873734 311074798 100790571 110672793 657971293 239704510 510349751 643885780 65267250 813324324 775701360 217037834 329999477 16361725 388887246 610867523 706942898 236836029 417547606 15176888 47342967 784449171 146912167 821632971 731562334 706576182 895710832 385748841 532875693 216889897 763722322 86937727 57996953 858040296 157226273 356251887 962743865 773576590 948512997 734997281 858549399 263541229 339696603 394817954 96783742 295896436 813750475 253543018 324974751 335778069 353773974 435865530 398642316 848893828 712803190 190550154 944635157 58333070 846980714 948857597 729228765 701271803 266322496 257161690 982219648 280569012 823651369 13081620 943789963 850122175 334574028 856032827 701518258 426887269 860687933 467269596 172440313 125665763 756807465 98023083 260841111 8946723 39494568 382268643 822361220 865004767 731988154 998795779 393932610 164563387 730122018 905238696 586737977 515116592 368091241 894867890 719447891 322233502 995066476 529115708 94291031 134236654 267626005 440649811 165962489 471348899 808945597 297048190 680074709 842548758 979825186 384910380 596731462 560330575 623437254 461312225 160138881 763768298 15326064 857397057 201254332 400574170 276486084 340379227 7551800 31617833 777136691 352536212 43229605 630997155 670479482 89947796 148060335 139741428 900183525 52272892 519550455 56839303 129143471 180583124 788224363 414890606 304540424 858632738 924799636 564088396 991411784 773273321 893911235 958715201 554849612 321223532 44384344 915355110 708715306 777946458 217881928 767621722 145613019 688859809 781854734 42391771 327130600 29547883 719723269 953421482 502007487 693775578 882727103 634931537 440445630 647909978 930577723 482452270 570630034 755757 224183575 806507739 46878885 622902265 449886286 682443150 868064948 629373642 377390467 677345315 460774538 116850991 830437626 359542374 915081165 86560219 231422917 502330832 926408672 348636270 56457962 932177025 682964606 564014793 573520852 996323211 518148393 337886664 223767699 862651505 604144215 582681353 712854936 575073923 950498107 735986578 131248934 926164367 905683149 855131155 703569969 883138753 410248482 846050423 767358737 605642750 745476799 130838623 804094793 32982122 671619689 154060527 537802889 757225053 638764560 88859851 264847373 509565096 459695684 432629528 516888736 835850604 309563395 734523882 732124679 526604360 466049095 665448903 595212596 307359878 194088269 227803012 319381991 84973952 818598155 838170480 222114983 827103137 583302333 32964349 932886757 692371228 531100265 205292001 650459715 497136124 810852230 542228333 358931169 514412259 934268186 589029039 285580931 543953387 328623546 912914173 255528981 93911365 528464362 634697943 858414883 204335858 125336157 477160945 175548919 801377343 368894106 105158085 415410940 611357336 271727095 353751802 686667418 471683229 556681385 208521025 349845565 946624575 273768065 582442497 5745208 278602583 701240377 505383454 854591101 993135269 849476720 477706295 348967949 910280688 596462485 658773383 842693698 568530475 283566646 285566102 891545051 166285988 847383775 806338878 837306835 620942990 869579049 325358390 465550487 287563521 83690938 685383834 993494685 336097991 316569031 229934783 50918767 501901188 364429069 882967394 652461455 39377422 632914153 948794301 932971207 388497642 326350101 719298758 819464877 205466102 230743460 246988137 803444470 851499446 341429879 428299092 392008496 489844464 169015756 23387374 910452234 753835295 39480471 853850330 319633497 571295833 176549823 384027389 15185831 236331065 122307315 556200920 366319132 332698911 257159984 67853155 767239022 106865790 136199517 102695966 503703201 729590657 44314473 173698135 379663412 862275822 298789320 450498204 880712750 261754902 286782 100862657 498969342 216658387 663065563 545717169 546602842 915507604 290273735 706059289 667163014 166518642 689349401 15255527 940442275 350856686 708962900 209904464 613519314 868308120 554881582 781978381 12899714 687769340 472605560 367085280 172727985 497046781 473513401 221631489 760366533 23042936 883838241 934287506 573074411 141022772 293742047 840363881 29640923 387216275 251989727 629770051 395318823 6403387 160463142 942972849 135765567 368522979 214433122 556543480 968201645 118966847 619983169 707556259 267988312 802371448 274138127 831349096 878470806 919547014 210516514 326188591 852377609 406847816 181356445 726757882 820997161 777317801 568630904 614853522 688159145 108394491 135477513 189114918 992818457 324010415 228737558 558277982 233131313 665683939 649548690 338532393 488456792 34619306 189167680 115430999 802087406 184234207 246530106 770623763 205603407 364143690 5564302 833923003 229257053 402809279 765307022 509597885 385120982 931416121 576266072 557835566 171389897 178518843 179057483 749347913 529547455 536934694 795579935 132286696 452338233 582303431 871297716 970848506 813780791 130851536 378841063 626125391 68215673 409631753 475207233 608138938 28461353 402033834 781019856 234635933 421958437 217593197 355901392 35639047 507236887 565989181 712771406 357547046 956981659 152992102 764892382 605789743 620558531 196657867 866116556 977477853 256414954 918724385 91221528 440581116 384193630 236922512 278815562 901950624 676805403 550763848 199183136 942698705 169656926 368622095 67875948 94999377 991037211 183712583 686582950 352366346 926515395 112984256 46752582 588873362 366334080 514196226 709415901 416164190 748725996 866569832 350449467 201366508 656621830 876665943 51849799 640837507 295529451 294004990 45301517 170273532 956383789 379557425 92463366 5012458 36234734 685164386 130461977 880119506 394988826 762398139 598998265 603644629 345185482 272277259 456879828 167844974 834119903 641709798 234642140 682469328 784847901 123865912 538053798 612476170 255852914 762557022 512218664 644912304 388697852 62224759 104197751 29235357 611339239 411301596 332917069 536542254 173969207 126004366 586673738 486098210 642141598 56073963 684588013 455330432 258732409 384241588 260035414 682915808 876301115 983893464 111594103 683919700 113379562 574421851 305022456 837308655 625703362 148468116 916349242 270237898 587025111 718991644 348849525 581158145 219114132 114803055 854135611 345859535 464300983 774746708 746782205 570370559 170044197 701522693 186664623 138958107 981767994 517419016 337738659 390355914 937302174 2229836 422254864 99738079 674658987 982018383 98135649 86965456 850409466 679583846 748616102 703082842 469100390 450579935 493266554 316550497 13574396 482318797 407227552 779312449 457950271 377229678 952481460 475538574 977437882 483982052 352719121 19801397 592340785 918993138 227027837 669287770 667671709 792856947 602979862 133505996 616270045 818029863 890620861 411047291 909720188 823126199 169939801 433748763 875408955 892448145 594449068 554525671 947823542 826278250 765402944 823860501 956169767 680143465 313764655 410619771 558512750 266887196 908532215 88364712 72281921 572343206 522564481 568633610 280266112 757240852 490553443 462338883 15179720 525041168 724521178 417934909 503419442 670116915 937267963 687591155 888647443 651208396 782083399 364970079 219094060 929450980 8291305 623121483 80694522 264132121 985048588 830383945 417827423 755629839 546131006 760699691 443770636 316644376 697628770 836980782 808460525 701079103 164196486 716739180 831484396 363143321 12357820 131984467 574560532 945765863 404551245 642315332 766580368 869405477 285021014 160886168 669780723 257568418 889592500 340637891 130199569 519428328 496276081 11948795 139819447 221955152 693879918 283629940 578707515 86568912 271809247 309711547 951477157 498574725 613458919 541152936 190642409 414626321 908157934 860776421 890622678 9482960 2147702 339257978 210505753 134966494 441695099 836895129 408780002 44225908 423269898 508767564 274752224 232202133 462849788 858251612 699641850 440258820 631545811 487379749 377552129 171927056 499047335 754795167 291629243 48234962 858133364 378580554 958085520 178821885 482865930 883185086 362378288 659400491 524352231 633469393 327089467 862483180 159144674 749140995 907575519 10362928 118614778 571538714 698420453 737204579 835995092 754212796 333619500 990562110 575523100 140952263 378245323 380878916 700499540 752211438 306390357 271077270 633535377 925531860 452376909 749157314 503215717 657887118 556286557 176670547 863624480 892825329 764565819 285749849 920949312 776341509 274725205 176367398 840234192 742713150 439795902 834624597 801532901 493315577 731359798 677334044 375193915 262503754 746090540 75630490 201807015 328456521 648574766 693112092 841915977 760491632 478601715 775295719 328773477 910597370 658706457 685685980 725048574 125432494 824122441 98159639 983148214 269575596 533689779 487835354 469069882 709070615 24577469 763992450 900997870 131330080 79768810 642122028 459465145 788749935 549981479 826296527 173025904 777872723 789300008 27320882 510501251 855370154 716558310 779880012 847649472 307013501 696757895 20365591 476136627 447241517 880930517 924427936 174167310 433410213 965097788 417090517 126545013 493374288 697565383 752676487 21873113 459809315 103677383 162583206 167639169 729121603 31235997 968526140 281012098 202496770 442284223 256957246 761605808 857435718 768810670 266854349 360834203 352532591 265135387 197954426 839363387 937664310 223645218 894931066 541044608 764294775 42303179 81316227 428427440 256253360 775117789 698363305 329484227 847929853 736681135 669094456 533466420 378473533 57909506 604446133 742186774 24138367 27839965 36446831 133060361 110778725 936486882 162623935 56106067 761862263 424063632 444148742 233316871 411480138 301146486 298968896 809903847 419611735 403242102 415826963 197047283 154706002 745941524 540320435 365162451 597132143 190733426 419107295 830103763 110516072 423771944 965622515 846606771 660768971 632645774 478276757 690105508 263328726 707572289 341268958 191100134 231776369 530850595 348474639 542515630 449625422 504716499 816750306 619068075 972332232 210233800 266582985 301479812 39239813 905063483 243050363 162688147 704581081 756872516 267226777 473889088 880081153 95194795 782310727 921485806 226690753 486297827 58330118 990728890 696065605 996345948 597463593 381125448 777554967 298242592 554518128 548999557 96571133 120816574 691890243 974380559 101372200 346369681 927394791 532638629 567032728 280852501 287176208 81643812 361562739 839591106 618510293 464207471 707899771 605461975 46079667 732332200 834221051 354945620 420177393 126081844 291903399 772989999 778960736 47575160 407180217 238361248 906002743 756237845 644257847 149699176 774974772 150797044 469034587 438898527 779253887 477384965 421247583 33124753 869116456 81334943 945512454 186461172 751141806 90398726 373787708 239558102 964351038 137753848 827819948 863234509 574363467 500941204 333032331 427267862 522294087 920307470 451188472 252012983 112053767 850474651 19980648 636455963 849578346 768596428 977346629 169515285 818237689 127853979 383363917 41332414 409423755 844200164 435892689 129569607 153644850 538953156 292861243 676638667 884490259 301874243 420435481 947381633 775885697 392870321 985354393 308355209 793803785 373709521 499473921 122515782 597338711 868048755 55930323 934945232 601957822 863396629 56254386 475254622 269460160 261347755 398263583 218427156 818831239 554418048 380015977 687798013 165234199 916774870 99062293 747032658 727635583 604784242 43207461 278960196 822572627 204228813 656902206 896590907 702801828 175649306 223858891 806849537 196171766 899985792 411724556 125858699 922859719 723081106 564842067 180484825 711056348 329625230 260198413 844485896 523105169 889534186 360199579 778393628 468590819 353859328 238185305 138019216 737427511 743563927 742204893 659004578 205444354 843367003 381381630 185827661 697186412 769061916 684779729 443698780 812311427 806604258 990471437 274573633 102083730 175097542 728235822 991646712 225368819 297633148 522387775 252980893 837450308 877129096 420865650 327092649 257861599 807988931 430199481 629758888 705406155 887308562 279190264 639142993 230106540 77237630 343324079 760160463 857713903 485169857 289976518 895079779 127296721 48287006 894025308 882327521 108665568 134434214 161741307 779615431 195664513 665712310 660387245 780890300 571816175 103259440 440146719 907415068 557326554 415826804 386344994 481801011 263748219 354758359 718537566 897462517 989111899 926553307 151734951 852973843 227988430 843743242 93168130 718385062 374338070 949771599 588807501 218939276 271251127 148266204 160040116 700735820 587956505 822746893 653543994 186411360 129986841 304979116 788125447 978819125 160456082 174904498 275203736 130658851 535660274 204128621 600499849 877441249 596493976 962054035 267251662 411057728 271657117 753044751 426415812 544484013 717638457 776522394 994498521 113895311 647423394 483977125 72179239 320489243 862118419 445928445 518725402 2562728 116217187 629433926 921148735 314030879 316649147 904626314 73156094 467086530 805210217 225552885 145014984 745562712 155761693 356087909 296032048 815952118 364301577 933352857 113159890 502835048 2609068 875567409 518672272 824982225 556030441 49737835 553770680 449164394 743221359 662669305 607881979 647968334 776799787 257811462 257953469 6623059 907200451 331390825 123041855 745578966 318895836 821674812 961992615 621467044 398098932 195970233 422416854 849122493 147746353 187424396 845168350 411660714 955522139 175037893 726499704 871464603 832037438 225099259 395923179 721823055 879308647 75867741 456155895 130879667 981534988 115855327 678306853 807024453 642388585 655991524 823092199 625323024 860363916 981146528 152561100 803280783 942016494 402814761 713057921 851421317 825811686 809153432 970577472 896357984 385004853 534622314 759330888 410037942 983023386 330878170 966862011 894596937 187081333 783910248 734047510 263228104 998394628 728456797 493243782 517277733 783872346 561031513 690060763 21798534 278400471 274385792 502721603 39948014 827426685 80865971 808429486 130389976 246221294 556550627 142441017 616108639 984305189 603579044 504452345 249952621 40518787 516623174 814108633 945259461 257669686 139913315 982353229 767485278 445416350 22123282 368967076 809353929 300780599 830681343 541411792 123948372 923826840 993781760 605467304 808260385 298788993 438985692 307775391 129799440 837180578 472554105 845454900 56757091 266990773 811963108 81686600 300718002 321895684 112736862 314770288 716599250 542265192 413042290 899817958 205173682 730037627 763397180 993954624 35441140 394362004 866672588 706364153 644294339 292010665 562540716 41241375 557004036 810122892 528683302 750508849 700217589 168393087 810978478 60353735 187107905 595045017 685572054 125989637 972293030 930599308 708428484 14332394 15379145 678649270 248960603 159300723 145313569 775126144 761052894 521031264 867712533 165257230 884396196 510915062 705274268 232399559 522018287 835655424 187069916 427342785 317012147 814557206 482376827 931825340 526175979 69779867 117989131 985095237 531663758 318269135 401737123 247269626 850638582 785777912 741020678 202868767 190202690 293292344 335192143 759737328 48644083 981890504 593624934 833008520 201712396 986206276 341388428 198237765 961745742 640572702 117243734 794601860 474638564 904580160 960594903 760253253 150630246 655787701 896724300 91061627 490380195 928821851 846781598 98184163 177225962 317879826 997018100 814527209 255875979 629554859 316990022 333369401 657650270 719939590 516469392 585799537 730590930 972590084 449509268 744424800 547164196 927787131 172648017 648782349 252166118 555877302 853393009 237586049 986208371 194197983 566061212 160450836 120453934 665816700 960692390 353298184 315673735 382964153 432025760 531485963 226263120 989009891 647714406 266922260 309004488 20581654 447564888 254223610 325703493 581207290 863552091 634540582 46461162 912472192 624451386 829883606 272374552 604333253 754188587 143581708 492265580 70281005 535548374 702624283 716133693 383329469 285955834 970020265 72735560 682252 41536434 128132551 460934 122768838 200453994 807506798 398461928 140987637 456444250 525905919 710053652 565916797 414570396 73049337 446854417 746114765 710156787 773752461 203431024 802718705 576419836 19258104 227150432 20639120 669675470 387073083 222771687 868095894 99356526 288099792 309270425 556570683 491154639 776435593 702594320 211633911 31640791 619492769 373495570 665981023 865976928 532373117 133322634 84431479 414110236 385939372 595098578 951075482 90156079 143299838 638751251 773730453 547388462 539987185 857720970 479697027 77721157 571306980 481072300 184607180 277094812 669080144 297864414 933748002 237010367 773630574 227451508 756686592 562457738 867077322 180525459 108729290 913537957 824352771 716800864 705699656 529520114 15610119 513890606 485297184 767853958 686441684 469454360 545352625 964236405 535029013 622686109 525746337 729359743 16593321 45782726 392357923 961853518 82462617 927782220 587795606 736192713 104487601 914960060 935324604 33808757 904234687 815384113 626473674 191690779 996784081 450351595 711771098 770777679 507885968 606908492 939976623 31749388 277960237 114183637 458778061 333847919 118651282 185100133 855342987 822050898 474623270 950028952 866585067 86421890 376596056 71093260 131828334 417804559 773541709 976900116 618192597 549120207 32390221 215197422 649231628 712040617 691765620 206791297 594929548 242617798 19356553 258036856 946105880 787928627 517486659 700602351 797929243 125141275 848846371 976054703 926406260 21714097 982099662 665046753 712431162 45644302 553935642 126953642 105796636 277459255 29658728 497495261 501424633 269060598 643653350 737203851 444727245 473116880 752217307 513593235 700156894 778499635 689081233 59882743 46541634 231334266 556258161 3926618 336817262 728957278 965881676 350184523 521322682 927410579 60006192 522655979 264596792 167911622 793154931 566208877 832323240 70348975 320493775 257871306 899291415 271509954 425843194 765556963 97952705 224258856 865067321 349156656 337232539 592714559 78142585 221410270 531254799 15306156 779394336 763534641 266674990 490427804 835234585 800424483 587966218 564677855 292478366 244759862 623016310 944254672 448774544 127478488 478431980 398989574 567018068 35685875 64685951 578407706 534900432 352114026 309814167 821638225 23742717 653659379 76584069 316728126 942776606 970152669 499396678 879998067 832509002 178028068 768801984 445895388 140170123 797217332 209305092 686877944 270950352 650223914 248505956 936408661 922326995 91132423 451531068 782905857 642176017 228576866 743360564 126527345 356472968 528308198 162270094 792261027 837137671 533067087 425471185 872384082 702871609 753417428 855748474 763378066 115960908 995046690 504739293 451163391 378417600 687807091 167930039 960428347 426386823 859752646 950231341 674856957 915796694 516498504 603412735 918641105 274729288 540836898 247295783 906131810 683816478 348286947 653617992 691324630 580452935 659834279 277884607 167276768 383672640 49124193 278140958 519089078 195914728 125861239 546750267 513059678 181681685 388659116 650484927 517929569 942009926 743103575 349405517 628957540 376572188 797965977 880171394 30235794 274518142 247436094 326963152 223050273 663737960 177233394 135264517 749722147 895580395 264097927 600662309 418797003 913474591 981437734 550195140 57972081 664645104 479916351 883849592 765252197 96465853 62235146 181760192 818277224 139487849 541202174 907040370 519538371 986137003 96331519 317494116 634078291 607174597 15745200 897969011 861430348 152450514 179579979 103182715 53585424 269463847 358522611 834848518 411975488 327437343 502398576 836198050 505193932 775298748 2244074 33549896 129279344 319527015 571453958 143754988 249557937 22458667 395310439 200583562 211858381 680651080 247363898 117536457 24118099 838344019 768345370 509677825 779263594 73369030 519570388 489175022 645582323 982899535 417062576 853846913 599671445 58333313 325956771 472192225 818457015 181859805 611742639 366179097 507948541 625324554 268295434 552417846 983106226 840976282 345335062 311377985 58585782 980737470 283311874 763145986 830114352 225191726 18066729 172036009 219951891 203320759 782959038 518575867 118999883 428483565 484676219 919146837 129976161 926351559 174937092 463267397 291328454 351223351 578198703 977050107 710903429 935724959 538789566 851009741 258437731 950261800 865792768 776589618 68604215 903178123 854338540 124927150 496542439 439653609 172268765 425783754 798414883 342615535 767643756 37815621 186161868 502218044 258134186 737501625 485184395 970016066 670464919 669621666 330958556 882783013 764050157 995159096 62762534 412783624 692506108 429768763 386125548 143670450 638215921 912535730 513208863 51148507 938025554 468136696 980725076 629623290 598553035 437865375 356231722 445984885 800171712 868420318 205238115 181368287 830767382 474054820 732596223 138679123 914503333 700319462 505275082 355525640 929574749 969368216 645293274 222925871 618034608 245380707 960680579 888896673 732327814 406617344 516118124 508753535 457982675 577887894 80125844 8119483 13752713 274665966 883910266 586084733 334399991 58339730 28971536 334996536 329020691 400122653 75048910 532622606 725010711 673815338 390213065 521154416 939494729 191459933 801673698 33706467 316125300 864318430 449408808 937031731 174241180 883842773 421775025 791984611 358505528 334160418 62358173 274994072 590885803 526390929 617864277 56721645 290925228 91956521 380666512 695412255 220872336 444367592 836976127 60525754 532326496 327150927 849951927 483395083 958160710 962108718 19624007 604043711 915290989 62435197 944755792 494108920 635855541 977284127 702036817 393903466 582207460 568465545 496706246 619305127 411815228 366752658 142130936 376958080 561820446 760506807 437092346 270336588 685089429 372101409 781037467 938305562 817110539 757832648 971590408 876256466 287882636 271493021 849965658 781882187 621023397 86254879 448518971 781904236 338684694 424680925 526599591 1568113 631836712 893351947 335126453 296531053 333776326 378281271 760698776 957576640 384218317 737224607 750131592 373703038 569408977 15922078 830564506 436442535 13254604 630480100 841029635 153839822 513990090 29977742 39577036 479531587 949121724 63533209 683123023 288668511 247205849 393503672 407278469 120579033 247754505 943666580 443775030 463000348 856495679 412603792 249842898 725432073 322060382 278255976 85164075 19743249 565491911 907261012 364119814 789363316 258000730 354994343 989865478 983918357 317698004 855298373 892054600 742843824 212340006 961315319 814663809 299913544 522851722 510290915 405831295 113477280 42452733 513211734 126257089 698668563 162216753 830590476 858533673 127298421 2822495 420177033 72901440 56826697 354239089 57113211 6861791 759247089 771142398 798738732 654034060 79657549 999148668 840252570 127397884 375776489 840244299 189644815 313823390 358631298 920382702 849075702 55443529 713621360 647794708 849740746 964891104 157603959 499293471 570629635 697180578 266886607 464642046 691948923 457933953 828402428 504205090 933705299 237156596 875291504 987051476 451926405 610022902 459119107 418705476 794619027 255928259 937938911 678382663 723848184 804957443 940856654 389287481 953961590 540000850 225322640 585147179 790636234 583632015 784667665 646078132 868642398 182834796 108528807 990388880 67840549 110225583 17909167 61534085 935238076 381411435 739908219 839266049 240268100 199741681 532939403 672064986 52964242 952832261 745834988 872015628 104090787 277318108 694608843 774005902 225581624 112738655 123414703 94065415 197049300 39886443 801971517 259611309 618669862 624879606 691765170 453282332 93220074 257581901 810776983 815139977 297563665 205986596 72080011 109275695 244258233 96820160 164956036 558011166 473425096 875281436 139050091 650878823 326196218 812121408 754986828 22996483 63789823 511837845 282003438 935104215 94773614 496328708 946787816 883879809 534011550 931785298 481914381 108887730 741265970 379458489 846636661 797919577 675379861 523824322 629865936 987979818 515327079 373637414 477521840 40668285 413675807 82383675 779699941 450071667 780332198 758212668 585318643 391382339 540742466 546817027 100689518 827717172 808912355 898363288 428620246 846103640 780834808 496313261 404349583 440046746 325229801 50628379 894617734 41997636 162055303 108577894 778484701 581731810 559423536 314935009 705609064 700080502 709920486 865864104 33768216 350582965 610070496 681597456 296074994 804995193 989969055 946078721 985425244 968828523 950227115 267374340 74241873 279455967 155234955 992856775 498783855 563039482 577374503 101538067 204729533 692902053 358694367 322307495 252081489 274452443 803171364 624040500 929347395 926008043 554690871 267986381 176319324 689994257 186135263 153720784 249081440 47932054 451848438 298743282 439687055 635027991 522947649 478989604 588352293 226982999 351830536 392263247 934656856 95846923 924505109 48245773 763784615 44603667 952418791 123806626 647934457 100385631 870067441 817709689 890276676 394063091 159962732 516103747 438160828 36157275 751969660 514438323 724974629 265149341 575973344 895058333 245234002 486660432 237381780 415581850 312872529 248611930 528555633 82797486 16873200 696304249 254237236 582482534 226426251 836660266 326112147 568010905 247974174 749622933 838814034 998398786 902085776 204971518 269674065 691682016 345939998 55886346 950991549 627712500 518389107 15604666 561433285 910852483 170058787 196564704 225085854 802852727 512602490 581221358 575572172 972045839 218304166 523921046 621050463 951169179 503247079 499447844 296791840 767587520 408372646 174629189 119540243 456571401 500740363 498872801 6407272 108348705 689123278 700561066 138768718 438176377 223974020 236557034 783405225 439478969 883884279 710629710 873085408 32792129 747873494 156335341 613620898 978768465 830304917 19068226 514273248 182704869 517767788 783584888 320030309 280343766 873651051 506967482 357985757 273962944 22061642 398576513 310047152 874034561 225795440 634847901 188556960 352348273 152928721 469009844 171540188 361580934 451741463 930119580 97387820 532976835 6443558 581429208 370846810 803592772 554228772 157934839 343719917 245454306 970837137 545567861 73519800 141700163 370126900 303250878 545450285 156099597 608838063 613849452 137476898 916776832 700485550 366859089 579221263 619024099 327134299 911209394 658501116 776725754 871436844 356013057 941675265 386918790 105262701 613733605 24732579 953591662 662554159 416952609 346502935 985716598 136781301 647948374 996068227 966655590 862930614 21444621 372937209 559832551 343314189 383246623 93031421 557082910 79132697 814809711 93281144 447367641 598544760 251617051 899658339 111139040 811938840 33955582 572457270 491926828 238227428 743362865 141724440 12232301 689648826 311776052 765186052 601668446 956869877 269590133 121385723 258324964 539367037 306504147 914001003 16273521 898367979 416366129 991686631 732868324 472191033 860324342 860208903 218717144 472684430 183157779 894961986 602380021 533271933 432863414 295098602 565232860 187556654 904303159 715544635 588295457 148900808 463203855 134606455 453022502 256549673 818547242 328091003 615801666 163563070 10254746 830291990 267835984 774600687 478761773 379738164 525611610 750071432 427545103 597344717 467883656 67700931 792644277 503650213 518649435 651456715 713809369 157427555 832257284 682099433 143259434 599816135 585026483 517705188 775430357 665542898 884384947 949041008 629162394 501887274 809816522 46608071 503184659 794992909 892334477 555285481 760917101 221515525 341338754 91826324 568988772 117121982 7844031 461428923 166906216 244856765 26537860 609623196 907610324 287952067 728941785 819984467 706429197 869916414 415238647 49998208 637245934 554192084 262561850 594516916 138547077 309590322 967168277 577729630 444950514 86834939 192697001 623297122 647057737 230794966 653312626 633879641 335465000 3611011 583704726 209196707 405460447 732753970 947431084 62698241 933053054 32091563 289797201 87337303 73996940 486573595 725620696 170094042 61089697 390159826 152081667 433108993 246635059 401385455 616956656 137860203 441003340 973822550 320992705 242223501 969723405 72245167 863304221 276370334 403733295 727603742 590756317 196996430 792228095 872701704 914536810 631495793 507520847 996120288 539486922 490400619 652359939 457320943 314677721 219207583 957927901 47143673 962897973 905971139 980106478 673814527 740423192 340471432 936358945 187589535 338961654 84635868 78185847 668336569 211053796 797186564 935246207 840743942 614203598 667466467 984600147 270090122 158897972 585066842 5434175 481184106 364104302 536644507 547793930 815697706 528839459 181628304 744655094 437084047 482126000 786436916 557257353 240578888 942323931 152449425 488981729 186816689 324574501 868430605 479205907 402254955 802660329 141017029 74378429 575438975 215218701 373558954 312888616 970687616 337654648 272106265 444084082 141452081 817877655 426964719 103421271 485771299 933546170 752873596 846148077 710994087 477627413 759073511 602500775 649858264 735268358 312313412 822447005 439673296 633621230 385600816 456847835 29360178 682976401 16656605 656058021 497227904 980504380 315821946 787317579 584256134 675744922 526221334 277065443 463517519 344073800 303715265 835905541 784156622 42174875 158898735 844673206 122862745 543238436 971821628 774576049 728828426 761544309 935060971 688572508 745699171 857128780 185160655 67971960 787469950 561433362 296908546 569747046 221054821 609763859 617946436 74050170 75806036 255329678 592627550 670599255 844841732 126217048 452821556 117886681 376801545 961725910 674086268 580248510 325176006 819895398 114315274 205817845 364741946 197438458 753236859 75705094 302132574 292926497 964050089 942535127 604440005 419293913 253847029 903802438 812270932 519114664 909150415 491953661 889312267 167349477 826986338 767424223 100517797 902503674 813530838 429070367 766529874 68650382 988108862 872102320 134098143 645056860 782571861 51775909 463716841 419509203 50094575 836541779 151937944 482052067 500594737 358539283 552651265 772840284 446409170 924110309 478612079 261228610 661066265 167727130 183301919 607635546 679221838 795800869 443107607 781686152 856838274 781827681 522463383 654732503 617696935 984830475 764952362 920289748 186409496 661184069 699649562 273587061 307960189 453334496 682015769 843443638 178364886 884338188 465253107 293061888 662382674 620223668 986888840 91757215 186896347 521452781 594439424 655083823 867898215 169011870 69015600 914883335 387976829 11277236 323805215 160480503 356859640 658728572 20376324 183245810 91994022 564995568 764957651 591266324 42449705 767736248 67830808 681711119 626458660 365589214 146461875 472284402 548475541 802449897 464813107 939479516 144725180 779692588 617526123 566494377 550572659 346547457 988606733 613465097 531850327 535858797 818656972 361169311 224132165 18126592 216492861 143655912 619265693 682305393 501460107 689642072 600437131 591182980 286053620 803163142 8188891 577329811 516442851 614042240 275585584 193018290 864492221 982080764 170029273 363166717 938152020 362636793 860601662 376142430 456028616 648375860 773662970 82168367 774979149 458641609 871647622 936534381 929127467 144917083 748684188 234133674 15660393 326577966 272908194 244317429 522232586 512594260 92265160 548158535 950249825 751163679 854485433 597403074 9037075 811741353 330163844 421541861 77442979 249448767 201574736 416566294 889323887 590590258 49373910 163310087 140666151 678065100 409167522 842025508 340661011 764856986 398595699 104693279 288240391 404682099 504594452 981462478 270723925 834490844 959680407 585515734 911701152 401361260 467061416 595931481 77185430 71204806 779567221 852788641 293688503 443084949 834760097 991080790 448804152 573363841 457118640 36373744 497700862 966121606 954097359 542685628 319603416 656186373 854530502 464715209 698013459 346124837 480949602 25933732 751181112 100417343 673124385 495666241 383902980 837951820 720464363 674851873 421084290 973100809 620809416 446739391 945013162 44497866 907089827 860044339 220159505 697191992 845373094 808147464 968974487 486079131 308271087 99970810 329868177 439293819 270973229 415436455 2542612 88574355 531526675 64269992 211098117 265601718 36382813 52750966 97565551 764267217 396060956 708195969 686842198 244705052 143878571 601619327 235335927 514763568 267488143 229421515 359617934 49049783 929743540 845399084 48350953 934506083 895223082 173190599 248771376 333677631 944971595 230341756 888494548 392329403 841922556 239569329 251032627 362408380 575048044 719056549 7158119 697891093 950520341 211724844 601343114 520427247 290419445 412062723 321206263 995460196 411675290 55165496 514381619 75947616 655998413 645665588 776108694 228320152 307777004 963224522 37560738 957704417 530026409 329995208 25252497 1227813 795046181 671002845 124283160 754605016 780012724 150080266 794500286 754418787 249525435 292769610 569241514 149442539 375225425 677578506 654822411 496369264 120019938 709638595 838172099 171616858 448762945 860641985 568738976 903042129 915539978 274055001 45184986 65316414 357852874 815121197 639009956 173991101 708020517 865495307 828099536 105486831 578748193 553219944 283395409 495626186 851096018 55131907 750856614 842386298 552832801 742792760 83231460 690785996 878135659 772793958 128352883 367749068 894537329 300753909 120956700 611431460 651049703 210467739 832607220 993723211 216951376 68197219 541610396 509600020 950983516 438168352 162354361 911280583 533733349 521723460 198971047 230956671 262350655 457276633 523187220 653876990 368602813 167808105 722615657 860353633 719135901 823074759 589094026 66135809 80327283 715864717 36841352 908316894 728249829 73313585 14388790 725199142 455173760 496702305 871977253 504931323 796056618 564552657 496384299 283286001 882092850 638758813 227691201 299006210 284840522 879401333 398756652 508191331 783211157 867512493 981476302 351544727 399897294 783951328 577182579 978000384 709198061 601763599 659196327 571835475 173983553 740942512 252786721 662707759 883184989 131119096 432369529 312670033 867391881 505789533 994852461 308139164 57740905 263068698 680883335 883089152 959515088 553366600 298100359 452675157 516852443 110365746 794901694 71237784 343667182 830081948 147580979 456843129 299345413 480311056 692200111 118048397 167236178 7938464 144528476 960447947 721668155 131178756 554123478 50757883 568285207 522888211 528232271 978624671 188640234 86857140 989290625 61737206 172794442 621251883 551122875 794087809 940141249 183961550 311459983 299690375 144970083 425716974 465447152 906788666 123430337 36036987 325595745 120375194 748116865 956453870 68702214 908942222 19045825 316081499 2189114 626231945 533862195 458129388 882085813 659645871 763737794 217262373 430483465 156751432 390713991 383769199 140289727 627285477 642799838 332166099 60473318 491510155 576838373 431094259 444322084 272465875 221555367 621964756 411889153 836378160 504768869 577752294 258637730 482863500 325246335 606440052 550854894 155618978 32790593 580062707 961935781 882880109 134964313 129046471 89884025 414821410 120528892 353410580 958095070 869666969 317361331 702672193 849785122 810880906 469384423 933293844 680267193 243013210 244648302 842763615 351252234 710692829 833734325 361400455 752599726 993170755 720031394 155580984 344524924 681407662 101833683 514114638 429482026 356269175 540029961 869390516 699101002 858251281 570068914 78636831 651993125 120365317 854934339 882305170 459743458 727414092 76899982 500691128 893159733 545534882 769311261 690982227 156620020 604130797 151638787 525669499 803419059 582186972 463204395 789609794 275560623 930158155 267541654 192584203 183840860 163354697 381021007 912635276 47143665 15537610 857940956 946198507 483902555 962873976 491702464 474824775 122509541 263389408 964697190 341109783 387957239 282240378 728098552 876204232 257004256 94761658 409795405 262608069 328461293 884341440 176931752 946866491 385950925 402220930 990310520 323623556 867034003 469161226 762482271 722887001 86766974 178448326 493810148 282131104 104095084 181507813 39143704 685279150 719788932 732847039 379279889 467430831 243228998 282158238 497107576 122523776 631779406 773274180 394256608 946321932 141992058 388260686 201436551 916272295 559804558 279516511 638945613 281174826 521956265 598926222 237294410 662507027 248216554 630233018 212356390 150684514 686299300 941311723 770743539 723760075 691148278 642003279 596410866 222794423 224827151 511661098 783646447 706541841 477274405 36212820 318890746 351687948 913812210 790200319 329572763 659058703 313240376 925887763 662546429 973353478 306069793 281012616 759025870 513294461 55795382 894676034 559764607 819560424 393755139 354810901 336449315 321722797 415692977 412668228 930576561 684734260 87945231 757362477 771197538 752979120 346260677 58107079 866000350 498050306 387890882 312566806 309684351 138516497 569954485 434673481 93622622 516188609 779223477 95449370 759947282 578535248 698437043 538874852 606718208 366673073 671148901 693879940 207244615 540394932 839553694 506188816 3006560 139906128 872290471 964276825 750316823 261777716 27469079 969496051 538504861 969603126 3308659 389366728 492454747 222344477 811167063 796503524 787022706 261648289 718789216 269259597 752943983 364230117 927691903 575451749 241946051 729346121 191111431 266931006 535483352 350068823 723667065 282464113 333372997 990824178 853981825 57301424 283519520 40351365 752836158 448323290 756987875 414735211 501016836 684636330 944739082 389996 841236461 418174979 642475649 423122873 759320196 97624926 446556710 692112696 440418344 510244025 167666558 357605480 439104141 372018434 390884324 188156007 534412829 651211411 925264238 61503482 873449852 272941031 241669472 200648803 487412492 638469584 385037371 728472499 375106901 924450484 473749864 120473453 116294446 476853777 344203835 817658610 876856878 281486090 300592983 697250875 301152950 806659274 654427471 609329910 304348224 640488285 722839324 933780006 218643623 539171212 499595288 296311450 21266936 648310033 222331714 321390181 252371729 860706804 964366513 812877775 991498452 894830837 150477954 866514221 732459514 779635651 747440168 303465858 689567699 761946764 122125896 386207865 239436042 958836011 384858616 374644628 174711324 761373957 267867904 781168240 50307889 849603501 259124260 562342609 728770041 303032877 367003598 971076882 201625471 747895823 39002545 320710171 679160429 747451408 647456438 215947038 826589627 280011422 648634902 981690595 149006996 468644836 472841161 257148488 241779394 472004459 671769738 323758054 189369276 328385164 326304468 14184397 301909449 552119245 501591961 94974948 519250978 664339737 145734715 226452139 744534335 506024957 491706972 332109904 730275955 947855022 376311348 812240396 328443089 923857829 277181717 273029940 347035335 106750708 248163392 660515791 401713697 799336065 419656400 859609714 174567398 960232281 630471376 819334535 382118526 640033279 715255826 873449454 180513100 247361825 473064081 7496740 496954723 526299285 138404674 892142945 264193113 62160407 610798402 1095539 751530631 512125008 188938046 98554675 406413753 866472898 749038179 206383046 193328785 117574407 230271908 940705511 762987158 178850422 749593842 488507582 273774822 790796551 763951916 597650603 92818468 172915556 87593890 688463814 261897666 785852449 293485419 454584434 804826291 737785768 762360486 685943946 301448111 649351509 123157495 605542610 42966450 302032061 179443420 827967428 97494075 117769550 568796208 936407320 667382913 366900498 537492768 764853970 265854276 816437522 361207434 33681920 979259106 531143468 490772308 728752341 12772606 530232288 363191956 147167758 298315631 518508521 550500609 287004148 723246444 922716315 343547282 905975838 761875630 38776468 890926285 501723364 932183392 616169254 795277002 66117651 836264047 315701687 425661167 12981255 513505166 267016829 589142627 416112698 979317358 814525023 879376778 938795039 211458232 769842052 696905491 257868522 457952434 730467436 952732244 153930631 464292905 936222512 204227125 700017295 448261231 355636756 668828109 841226001 141271830 743700300 445042730 908173882 203851686 808609126 750230199 758023588 276675172 642883367 192606112 594099374 129590281 447894702 652381239 662081407 313533805 721527228 40132025 889544275 240461155 606783078 889012723 70261610 457850230 297354182 994042767 5741642 325014174 558476905 925815041 919464413 933250886 350282048 728586881 792908527 781754399 197296472 216197182 59758872 767722235 435274666 760542648 85702430 66706268 754562643 1533406 598339350 51595141 622537574 182120427 164102678 458898323 508680198 800372167 296411741 813045672 773855847 419424345 26471568 31329089 85022549 598453988 199961582 495937164 970318404 145770814 695936252 711547617 856149794 325203466 321973830 641766446 767381167 38995932 52905213 206249907 588192446 14141720 993978656 867846292 76347238 872849889 781607636 4718785 850344765 899350163 424088053 82343389 36983241 35181675 481403621 204671843 210502087 314523791 57784972 470623022 552237026 556356914 684320702 482316943 774607538 960628818 61171180 80722097 411605784 917145388 522897420 188331102 481502545 95029682 556217380 42459054 853816985 640659982 862159192 818161847 776258808 780233400 86650024 227526748 209893010 397729170 845123117 142279054 867400944 484807666 503718386 527105042 676075140 497292280 578145526 101543967 708550678 387638689 703394487 290414730 492103720 818651108 329492574 536869704 59565142 891441931 5508767 74813471 926533954 562975947 318291313 775629160 488189180 164819932 450523938 527588801 823544624 696269529 46163401 660614613 610167273 886946425 65967509 743023826 632561759 329623528 259393288 507050142 188470906 415557294 463610737 416729257 248952192 861898637 763453801 600596326 151421113 400200249 265286976 143394741 740353079 401157431 240368660 544984785 161666812 299681087 903332145 197235974 956440205 817536111 872446873 573359463 721600099 867514041 179699302 968122171 453926825 725441959 426308592 275548092 74973696 170049855 12198243 649997469 41825807 258021308 835938020 690800846 962290362 314758826 734657810 454382159 28896325 347045648 449609893 32497668 55643561 254977935 254388964 608509913 512139299 57431372 765287170 624364372 189581554 281554462 400391721 696808470 443083811 296962725 692192262 501060178 377782241 593396710 729491145 368486277 588122468 801632360 792775054 918326445 451404972 769057145 103672105 557220250 416272078 381050209 326568585 235885469 638024947 218860650 931881666 767729007 527607295 776097086 816214290 164282117 406919760 405459749 62562357 379405533 134093420 968200559 170925773 506218304 966063899 900592530 927636926 542122864 763500862 31373565 732038236 915816175 5865987 420263138 28323729 22428589 289359764 514263742 665861389 627623207 235559467 767722688 259717353 208496781 32330518 984165412 987362099 678815584 560909418 588865540 126593381 593825042 493919852 686367966 428942712 885428899 886808096 179715818 594041029 89209743 380790090 835396825 139944499 578650053 157171715 892530548 544740134 554409795 786092 271240841 177198171 642705045 875447650 296310821 458442965 126256812 258078014 641979555 167672644 558134486 69065640 253809943 419089849 831845038 470111314 29720635 700192104 847819369 985742342 349990504 407046329 249704263 866860515 186511649 349023360 438658840 72660671 291743601 400658555 942092667 882614514 264568606 517571494 83908227 14526782 926826503 495348004 678027038 441813181 606536555 760916084 92901925 985879923 267616293 830170745 415265178 152066699 58569647 199174353 389595528 852240077 113362706 596631630 479250848 839470275 533248094 243280447 39001054 804529152 454395697 268711656 942628672 464867390 968996678 374387368 52915855 319703522 703328662 466084362 977637885 894136494 173337971 903410926 844820776 917530595 95562678 633859780 507611909 245227294 261399489 526382923 498702661 145671296 42363594 891398488 211502225 132210542 531402520 291788781 346755583 676462116 773984627 526494676 112564475 602626888 295198491 799320328 338412643 206882871 685281362 308992934 6731180 703664974 887326751 551041970 623037547 226052696 226920961 460822821 97825827 139525152 83520100 986103909 117320899 305355142 7155041 680314967 65224626 419979416 520360803 302894352 63298942 338632242 388488775 371251323 576952361 452709918 743229283 664033411 707211572 828369338 617590545 27557621 502752577 316301488 432514244 621463060 650165737 667723894 920674315 783896965 301728515 693742597 182994544 477534789 315437 321570598 583087377 501023798 252870771 604409587 419617692 489000657 237324283 422984115 401507381 749905616 488256422 255415072 49261358 648543481 744146008 71006326 463130016 853177170 409719438 62239621 341431525 819101347 249135481 81590962 986453376 586337405 828061760 984594706 213400579 984737673 886541606 372227394 848493247 205481965 320437629 653275800 476508884 830903114 82279557 133225417 901631009 807684751 817055464 138819589 334479301 35383122 817374844 66995367 479309952 433010403 57603358 463331458 683050367 965173384 214825936 431350546 24741096 350457228 780504519 637272329 750599921 378473587 972705258 586347194 565494634 972673464 661060897 380512067 419764136 565290195 519876948 534082994 94321246 895815770 931827975 813080426 558909981 627486772 800898939 220805106 513897982 898365565 108143478 837549349 914241196 85853383 233325485 803361680 919680414 284673482 919897080 634563260 237572330 44713362 262564217 310982881 687210995 81372932 511445139 921442454 449021516 664874983 380915311 336515578 928800928 509826395 866712964 819637772 222357709 625282190 598969940 126381581 622968962 152799618 121455127 592661473 2575347 588394703 326854075 446986164 190009456 91973190 630884142 419078234 905614498 176582058 846159343 538421720 228147074 641700603 675559085 878715942 587219831 103136619 216288839 802150332 403135604 374149172 421908495 163160421 90440375 508028921 201867352 434519871 385385413 853591100 336940579 404136966 453143817 346821957 212618448 385475375 842233726 97964788 14347358 974835960 547585572 265877501 756072096 41662960 756698898 54932402 236900113 26556254 462725398 751539749 444679494 890914957 617441635 682023216 766721020 1267844 178003572 754029071 652282466 644832161 999900076 184093281 826721500 771249503 84780430 32737840 31569230 662347777 832596267 691880525 714117741 486002764 591435542 577307966 176289075 916216005 237346461 531630373 843263640 304669269 689347154 990752170 567756617 801317865 157636351 883152068 353698102 306825112 397924597 143281662 381721700 263376340 977484228 537498343 91460650 338448847 68953824 353628262 372951531 593398719 466780121 376605906 687570668 740332930 104870252 442871096 631850764 86120648 884756511 203913181 306271688 226733161 501404357 451478658 480087890 926213124 571562621 416855065 397049052 832725885 334396147 25137234 296807794 651771962 461656858 847174467 679737212 274319045 329127373 819449131 309108114 42660867 279527404 124526023 975636848 764597047 911035303 913861976 411695182 191779894 254617493 909338294 20129470 717334347 885843698 809779782 967898959 977016403 603873269 623299792 77050836 22919059 561594024 673043240 465242030 651999847 585756124 409255762 111673563 708002381 653609483 253243045 518954446 310174781 790401227 673197255 913474664 13080959 331100380 896920386 137102800 867707955 558298355 432938187 592883867 464467712 474212942 740701180 113912860 148379392 280733591 927025469 630999659 990760571 218079601 875124904 961442355 51130069 710319837 826667290 742103393 545662210 231899308 317877790 176667331 31465683 706460569 576148665 492959634 975504710 30597067 340930322 623393732 30561816 313333511 643008875 36091890 647071831 679269019 181111182 179996611 120326408 701415331 271414234 130120183 946070906 233794747 330663945 488061996 112761663 281022191 933569696 79608462 513470587 520163231 490930901 835593596 468769311 824678778 873831641 450323872 40736084 388934657 300465915 822663324 569252244 219798075 91086644 399513896 371570414 560339954 753953855 886510089 734265600 358454736 975859114 480990520 402883368 649194881 106018865 173656892 867877132 903884151 352600400 382676371 871804414 262174890 283658216 245327373 626323089 287569914 193365294 239116921 649462571 813537836 479727624 779787459 988516266 463675763 852599811 569722616 99647064 910729401 598216381 578842090 267418309 193017681 746812613 105512903 749988662 827694541 937327541 176862300 321173680 95673703 943568685 323704322 502225174 503949874 677635535 290785701 167819043 956589109 433235702 899252296 894209778 698969332 427093428 952621046 138771337 258290120 607392802 23587406 422217276 586174087 377863657 456119163 873117425 603032430 773116815 585646419 966686295 126802778 65963623 696480004 495080519 762630193 471329935 638618489 980831758 33571576 525899144 75015748 855266994 185657048 508270441 115651564 101197267 667254543 536004204 165569689 338734105 926322522 626689373 643181673 973447570 856651771 428286487 861767657 598877307 14272281 489544268 338061836 452928301 87249005 769441214 865793236 296655389 942118349 712439225 460697685 821543730 383701303 561144662 587036365 189146114 548507933 203155047 689099124 827517772 20244930 621485194 265857022 191696760 964314487 362275828 768941303 765837576 807874132 304195560 316671052 148661979 935859690 541861816 39320243 479013183 364574646 569026626 400973507 410972149 795799558 519197292 155099438 707556936 567975477 168736981 929849287 292473267 684295527 84288241 203961387 401584690 213974083 517791707 227082420 65536442 954933865 351633036 655849203 734055912 171966861 614243320 895975343 865769056 4885648 632197966 731375998 392547515 734493947 406773803 933509551 187288800 790488433 790547307 249533617 336156156 453513319 474560258 549912892 661260454 823483556 630328592 810845088 662613040 304263764 851970455 454079784 23529333 184063103 311868454 883664222 277283805 753725565 708523711 816290381 980175297 556530026 151524136 318785389 817834708 200457568 388063901 935063622 234624588 388521256 673089652 54988864 878329970 127038154 671420233 673350257 102926272 201674045 847727225 428710987 477561286 96512764 186236073 445278724 369413145 367008954 317996986 505487890 360953970 854809358 630004180 45181767 646733772 422378875 145148989 182178757 968941910 797771629 181123820 249097029 571903416 276029584 658273486 409770944 937932126 653989354 653601971 554891763 654880127 565355395 733522666 36756059 306941343 302956224 956774499 266624065 80771900 288701986 118405348 334040539 61578732 805814308 301901455 785744701 374987449 323699513 780288459 974583547 67834577 52208484 714047158 815037667 84361281 83136998 718360021 225763663 131973391 388892902 875408757 965545315 441570960 766595705 935044066 75482898 785982260 604098857 80793318 653148494 723283938 145553298 380697291 652352734 961417822 291648410 394283804 762453515 908153384 424363066 691453010 80783007 716939620 841332914 918700636 334145381 643384739 170548259 819574089 476554491 851857836 251250085 696840173 445403493 967326432 171154259 426597789 121116245 645321109 173899922 136229991 597589272 710172431 119920512 867479108 807471542 354937392 162594728 800948471 548548512 111522289 830764705 785197095 202365598 526630760 422344976 52613623 406183768 770974795 847210273 867791391 77103790 267645215 150680177 755621529 278701059 852189563 331449719 185052763 429449678 397089208 812997782 377500080 658852977 738894641 435175893 740419557 359276378 138408645 239165888 625658595 941862442 181393324 81940661 506727521 391493413 298908483 384042521 228422599 187493527 187423142 850456814 845181675 234570616 344539779 194147406 187800367 684592573 190500968 928682751 190867098 90644557 409564178 762498712 80722759 359164986 286112200 629489166 980561109 485187233 708124891 76685659 849876866 58882993 79337185 616541085 528154421 947277907 614766868 409280138 213418382 630388724 405633456 645219686 179498059 577049111 384133076 802420555 259177262 420311463 235370614 130348784 687248491 851001065 545087617 402026055 95691971 362460216 630369640 61517866 608992539 23355166 251680437 258579047 576967410 551145018 948097898 485359479 616470263 454731300 326965123 643736551 205865782 966309640 770268255 381929658 386891975 560996890 733759296 184997508 591496551 75256998 326693484 445560573 998469776 295394279 457276533 678974356 662108553 274614980 215232228 27310595 871808751 815024557 276471105 982599525 216736490 170796739 24293910 616273242 658072226 190126530 387723266 323941227 481577109 550918676 498170913 746330518 70497368 673613679 783099882 806943787 68967328 428334250 22615121 58508229 331542776 155008027 620214662 288184424 160650598 511489176 298561581 570950870 56546627 283523512 453977760 210459822 635422933 849091962 435433262 589965606 319070592 765794441 765637979 806713141 785042003 414465874 644650324 1807861 258641805 474935124 508067147 154634423 499431520 465439447 103191940 513624225 209958777 356455812 742139139 631445855 914111645 94692577 236925654 662713922 109734206 589111333 842786461 237426415 555106278 959331684 72487997 4975782 275258010 185980178 91809885 59276131 580537107 720518358 590898992 207084305 510554525 905246604 939607901 622801351 229409922 400620603 704550025 241916896 3819060 192203616 514037354 300735689 231756828 204196540 17732312 266167640 217606209 550817042 796007761 370254 708705195 741305061 977799228 270502927 501185910 219121961 906245944 788960263 322516366 123381184 58399835 780989718 485718416 438485165 974937536 793227957 359441165 618686097 142735898 976644480 398408296 111460369 790164377 740996450 530452325 96998015 458546922 725013026 539858041 43543705 267284706 328743736 60541990 605476627 416462844 400310563 25126447 21093314 755090720 775139046 922256879 673428554 68414523 144311485 151268928 42862558 551433445 605856295 273989837 882225189 718674944 959662478 218024182 452903495 646281963 290526293 568118708 848827969 600479523 32183906 688206023 510345836 197639155 236656815 372993371 624971870 860084414 358192653 809423844 400981656 911870907 446929989 105239888 824777491 192249538 322027344 652402124 372938820 488440587 383120918 512872170 789546569 288174122 308234427 932434387 425467085 52284933 231642500 875573853 4490156 382019218 61723132 885865104 238880438 23497911 869042938 35035505 555199642 737284931 837326846 589100252 175379710 604474245 69082231 649326707 278866054 800604547 730534467 139512806 756761189 1232546 771156663 592591731 251261321 439548984 728194333 767090474 801254085 30402166 348764031 978504834 293947470 131830430 949615966 342452991 162120822 258900867 55756095 573065894 539956875 10076884 740325621 581428702 214717876 864484286 937426729 339429748 260522195 216718042 187040986 890429688 179901312 912174786 208704739 905947035 516977027 763466007 472007235 992167992 204935540 683145891 325896063 895691041 13419963 530654658 741189556 185307533 213607364 946251508 124865561 572208939 65607703 644999486 441933895 832931434 693268594 707429354 204394868 309341577 190943315 110994701 591058262 555176205 272994307 735539270 633320195 551856742 151834492 714447703 138118853 10457638 426222080 993541033 44462968 463139568 374756981 583877120 382791856 182783135 652678310 891318087 867080164 431888736 634451635 702349321 507976166 542482356 84717011 764247558 155633325 87850667 693483888 473479535 292589785 487775702 143370477 951422458 473782575 529146978 742927985 901130448 720198423 321589572 333087453 369604929 378870187 513314130 776788312 356503257 151624510 94173477 908564236 869651686 588203089 999356959 175491235 255877144 329285740 642829425 411573586 456600710 19269477 959820561 263150471 747915945 792456602 479354643 419584535 430568921 593519167 161828647 497256309 160835859 816791384 706293374 107485709 954129610 254856569 446630445 801824544 634714976 345787198 483297472 187731466 764099492 30894185 938512859 814131648 231391377 858247879 814620995 304804952 122057105 381130257 366657337 706738788 495189170 901728058 612718212 339857673 424358819 828766063 676195322 79716992 718552068 669616194 913189272 317756789 916485278 797511900 304329025 199102974 27616542 24222420 276220045 109786482 191120255 455099411 682293376 137165730 460985993 782955710 201661529 889607012 640834790 584004940 697403866 866763708 883369445 637683477 868333087 500468065 470665246 257478438 539579344 870156258 362998313 177051433 783988079 881612189 678530349 325819184 520834834 308513826 567402244 286131030 93584235 847297576 598499562 341044962 771440938 899198073 569315154 622728239 95475070 290878536 236502781 483211857 106815502 88321563 77386002 986760616 733216541 23535164 993178589 326873692 768842767 427058025 868876115 111405025 79974064 799490644 242212568 548369254 578796642 915301836 887450217 24730562 268501592 2479390 280697594 622768792 345203276 627582480 948672204 876097444 781114297 388972142 557181671 885939885 25242151 876553276 244297545 249121059 66835598 420753126 193074540 502232201 937564861 4769179 84417099 752246196 357525263 112303722 498249830 662533269 39709881 934815194 761472240 917834101 536139134 957862292 881853934 688989 666217200 124370734 409121280 84598141 948707774 854036769 849137972 983120215 583771759 606842819 856664568 51859283 275687407 990264857 65474965 721369369 33353756 338078709 64060291 705889846 881857848 7016036 832214585 946991596 481029364 73778090 952722277 339116009 33316158 757686797 761140280 439425328 354332212 960369491 813468359 773814938 38697296 261474584 524173840 582814419 287727501 998783166 518446685 177558103 516303683 701444100 392990407 50077868 295822440 617801451 565928166 26112441 572186925 251497686 153978476 849591682 799485109 535409821 454355089 902996783 554295868 897400656 966402788 942172309 659581866 933021807 924228513 650793387 886153068 208752297 845532663 39433824 537323078 976726345 443903904 438769342 887042565 719776093 259644587 300607569 215113060 360042331 851338918 154154267 910236648 882348730 458119942 490422951 151204327 269394056 435400510 558696176 661609291 593954881 934551226 246649468 983668639 563562357 120807988 980989514 238788226 837491277 755486526 998339305 500960586 22327439 66118243 96271224 130439621 216348569 10090099 736404083 114090734 593911807 348707302 906098721 929507744 637771145 848878480 920645699 54266077 185192812 881281484 549350622 622469982 885990230 639099378 419048565 409339675 369022293 520202498 935498212 61720961 822531759 579120383 392035155 277623166 283873308 911198173 941964212 761514760 642936321 254584162 488964987 316440503 413272428 675647051 533923161 707453193 80527698 279376683 734319583 487212092 248535591 243949759 440883820 79282910 209542827 579793827 964053660 439366291 785529029 837028791 700782569 708114371 490971055 996590759 111521974 89899716 996472613 588053510 954541712 625491349 805430790 889931609 150796727 687662159 447869849 122566510 610473995 97362520 437520642 792044078 243029870 395513658 774797177 8412457 519054029 145648433 854008717 695901033 14893319 458653871 391306324 526184829 392850367 463194016 855059867 644608410 537508330 731745843 993516010 675863972 949903113 818167595 252723186 36195151 942356942 695236333 604240422 352667185 828018483 105071339 682655079 650049060 764800634 439793539 39003456 598697444 987179172 83929327 158778551 829077620 130803883 643216486 696841140 620286026 896304687 233469762 763226092 980873345 917750717 537167653 869851683 731158843 67315733 698659627 187282738 336807891 305560640 130889842 261945855 849813932 162795 97859419 354040796 559709070 546645190 491567542 686947564 923887728 998555175 710515725 791918604 244201933 760677853 470034358 73727197 47371085 633225324 305476481 27726771 143013247 325264829 811169993 459521169 60097333 734789800 626629688 547589276 60549576 482887640 490002624 944081136 216820964 586695568 136944752 381014843 116335481 155421719 501242009 4530236 644782612 702823096 176456773 170819757 456724622 662919116 286243002 547494896 746433583 430287006 243485413 413028594 409671759 962262341 460744275 920757685 422806457 40808678 219925699 76309177 490142326 263902063 294358582 296908543 712625342 965826151 655101431 264654055 838788907 389287392 929136977 885763512 576257444 366665088 485032937 922584645 524627888 480139806 888172083 129881118 894352923 372362173 958329054 763434540 441078420 231219202 388106261 657055977 326015286 786973049 925870566 20713954 365905385 539930664 624670658 796623019 90228298 455411152 170017211 774184780 223796933 992275020 655720456 881166866 7043855 847083284 37038045 230982224 414747637 989686930 866070933 154477028 534139738 679205225 335900865 995131432 817789205 964772929 943108995 889293373 781020258 547818563 318474522 937424955 901196263 393469923 528774461 673068536 907150407 381205004 234600572 720292641 688396214 165863896 329230746 461037133 620782119 57772832 824783659 380457707 802967807 91261252 98465863 33451698 625713848 512713715 707746363 639202198 573085211 757109407 654167881 521965429 705645679 407352564 142936543 284917315 713494191 609345863 579233425 34421240 825805186 307202267 202249654 592186956 290926467 336348181 345510200 64320369 841499334 923715791 373575109 618724547 467356615 508990861 787981905 558514852 944407445 727205239 609601909 510918617 93563081 481382252 121106021 76817672 353237080 811627305 686658432 640938385 770201527 207690233 224395854 496718198 933510479 664207773 508298788 896991796 817720902 320564971 71713847 356642841 426885843 948970975 298515119 736756406 976457790 920540162 359234189 943020184 352272565 656850218 900511365 37120645 684249663 868576010 751967936 175534496 752866726 779369059 935706338 243026290 151787863 747026023 807104814 883700720 653305794 454661327 768632280 303967083 269686079 854785848 9159950 417644148 954507303 184709326 967482875 213509553 147201519 248453598 34382935 132039553 511783336 294526356 84962389 613027099 787650416 9646099 91967536 643591610 858961778 928309099 994957035 374960761 473101285 746929258 385812433 673334299 227927122 591717247 295147235 621315903 657049175 54483287 176599077 273368624 58815579 892165321 725205613 100002995 752806476 991504023 17559657 159233751 378259572 299221430 898135100 705721561 105373228 242593548 256817438 927241668 344281334 52861070 927225375 94723427 106760175 904023723 135019406 346632920 43099868 756681011 1904197 820189370 651445244 239457561 140415031 447238446 582122717 908334270 27400358 56072208 810864216 124016952 130011490 870034321 89645815 951678158 554532868 574949776 873197218 879346136 536488492 486862347 704247665 63657857 945943661 157166942 834637863 505236664 494595309 592932583 619931276 586617749 839834697 296763370 496915036 324243375 49822312 126431276 966779283 863922496 181084158 594116230 583905928 908026314 157609277 473932163 57171399 129227316 711563805 689443233 372766908 9634715 304370073 986484096 165884448 104770112 13147922 200335202 17237238 303452558 18788778 782593909 327457533 853115148 242743959 964711603 366529472 752201303 166815321 539914112 105701490 361380640 692387427 863402721 12272347 48557547 857065596 622897835 244508978 72236517 681026672 736455734 686142118 740813085 490221005 843018174 69541233 67139242 91271178 120549156 617981411 170965497 119088198 531684243 583287268 83322329 795709991 498596270 454981808 114331343 861393429 326445813 31138806 131375219 304286617 296027696 766665273 957585658 973571348 869493755 483184643 27278197 68818195 151939416 407075058 823249558 457448964 828066532 890579202 694974922 184808324 400804916 573287077 962844293 621189875 459687881 311388673 529619598 623933005 327944924 333161159 822945967 168333019 528953009 118275319 128640311 857303616 315071811 930941737 666432900 335746099 358193190 264756055 231504383 156313334 113633146 701786893 925757833 973221474 764648947 788969581 111192986 457993506 776733111 200159767 540724432 193354401 10442435 571170150 895447557 633878019 21302314 651440196 350038417 264691422 805040017 523959127 934128069 815110917 379552373 607335911 26030752 879865228 337371752 438031013 235173496 794330650 585966098 325271440 98658965 620839321 900293862 109215729 921805661 130940479 502498863 763848388 292702721 798573395 258180945 498129529 266043305 788195718 682701131 561801241 245092433 383932170 858171066 984906383 752549943 216351322 863289069 278960092 973344810 708600808 202512497 626984654 348968981 421845258 880303047 241788584 530741124 876998552 376156621 615402595 636349301 613742114 860872186 181104800 188713223 151162499 727074648 734008492 556292727 859449962 721734164 635026779 108207426 893709021 463774437 693528061 93991647 190777763 218466550 15289588 553021905 943836471 687506226 949595420 690871003 529276118 260001800 952945700 297367568 757866473 311132909 23399348 461726658 558861410 316680866 452052294 760952747 360172672 624337782 112867953 963732221 651049013 795173571 484508828 38184850 822986954 43676166 972283361 652729822 799167597 384005447 109216379 308210234 607292073 691691742 935409017 269334825 328643915 284666123 293307553 823814656 932009242 625108799 170646566 393451337 508542176 673147318 117722463 262594457 937014973 419334475 82992429 715452040 621657584 978708109 133175360 162252119 233990045 75927776 517822344 105892759 634812284 397583576 856516397 429855112 189764901 79161413 648059191 478841298 777050818 882898420 45877619 225754271 786263410 990037055 767676101 311418989 137793531 526218473 501807174 882000092 891380608 549733152 908168530 261810262 751750198 471837467 771963461 714926820 956793597 732977922 629290040 607232153 395946164 729485472 698781222 415967814 786621953 999481868 779529088 14242525 786229695 163544319 165886910 896649569 586482678 764259632 144752034 546964692 90406115 934174855 44671025 908814067 952623305 416315993 300684722 178879295 909128383 118631752 164992123 157520848 319470035 107569305 242866410 368771457 795293579 349436834 863155307 130964075 18391691 645971013 514691027 200651416 812521041 710419703 212661805 867959422 559288590 449474459 856494263 991316292 87198321 929381753 44533904 342147669 430811579 670184740 792096238 453941842 149827025 567867700 665706651 184776473 333493332 975294625 45099982 566771653 745888586 329175156 742649095 389548011 72907891 566907652 988228684 141891647 830704366 565213511 818388008 405489819 168861778 586930235 103725944 773032830 256650375 20229133 635235651 52667530 302352350 264096050 607453042 758036572 510476546 427800206 678026456 286903855 198113587 778964417 543685436 737826504 61890168 293892811 98410269 878880990 250487914 990113469 494508507 244068318 57173817 107029462 533045711 689386028 51863118 890963754 950507949 146564118 16776896 537003191 459284507 439732906 223232782 186669113 146503722 475980592 865995838 575667684 964593570 217847054 699213861 299321377 663539690 234493583 819244217 470951008 323295001 920461101 612579592 832013167 141525227 661520698 256512990 737944330 875471022 410673796 627022925 828204881 761077886 735103874 679903469 332409217 913251106 306875121 584644506 387113074 421123457 816757578 599790027 999619152 368297042 598772463 59235231 83386941 634468565 413822079 970780044 30014813 733045537 714325075 672700374 869688755 834811846 82945582 514335727 503934034 638449072 733794067 93598486 825671695 279452299 168724106 146916183 772553859 549153499 673681192 92638524 14809787 282579028 745952920 626281312 782860071 57546479 93495492 755862286 484408642 677431891 673101259 619460763 682553370 81339811 125926094 303154439 926715270 800919658 372396144 26631923 947080914 942096678 504794173 357719092 906157297 434398385 863964960 877881728 895695494 432422655 21614683 779788438 118031416 556376558 357055018 542596872 501295244 165407507 412709601 30383817 456049339 807704332 101628391 760085042 913188029 833910614 628009114 152885001 249403136 184368083 662293133 827619762 273115051 562270671 227595905 28572491 266525942 94308332 710221486 726969877 834793973 17848759 64090914 21566253 584144606 665306834 274753684 245311569 786157251 35892909 420180517 710153768 152140897 511986025 502669783 696532949 547461125 528594800 106949442 442530023 657418019 621046682 232153883 898961028 16177990 881788923 928881572 667955325 817676190 612397130 675131463 304459863 135320986 908218073 549019625 124801679 202876372 275563896 550275721 303046169 843991443 421601637 523476223 292796612 171796180 31906102 746767014 363589087 575111258 84808489 93812219 610883948 556667678 987640640 345212432 638937548 637560875 236419018 892911581 980198328 971393757 439979356 973392948 98058731 979619277 330433686 9411622 611580913 540258490 758868972 683456659 208523529 692840306 215683636 370448502 910660744 817357276 987735744 178772707 557209258 396486992 490748574 358328885 327541163 164109769 136538273 382902906 568874537 363732293 292440893 461266635 515482053 590654426 928052080 877770786 176812917 435222580 856632283 143430550 41324715 391852659 568124769 40571106 952514768 668992095 472295340 419309326 483909608 971238408 660067674 473601096 916203404 863811343 752044686 10633081 267376266 627426933 249269690 225543157 954235832 380228241 518288292 614567848 725200887 800543343 689262248 903771102 612652668 150975245 739792214 313921073 253011238 928003818 817564774 758061899 515410916 713287709 162290621 720320571 771156400 576927371 816281048 433435653 15391011 380966313 143010799 341553272 586320687 835492448 489608800 52304898 120705123 452376399 520790695 316987349 344107642 977674589 662324909 477212791 116981991 172001679 710310941 784273740 809917162 361975986 630087401 770440075 118843706 235619056 204621775 232048951 778821559 829753002 949490919 29618949 491206670 147073820 286488071 333796209 799175254 843507632 834496926 42184184 502751014 677218851 88632357 946617784 457588064 175758789 887313094 254570329 757172194 289241072 996971798 616421963 684350464 892001962 720867960 241877051 622048489 140816949 297796971 947158646 689285313 804665883 205060183 485245556 303471919 796244678 614022608 791736877 834083328 20609455 50335602 436507084 834351885 219633050 162450690 862904729 623364062 629687703 25846426 233515549 378270204 66680840 309755523 997047585 539637150 762847360 906564316 690193265 130711195 642558540 597738389 220105674 632948818 747611679 710577882 404753415 65880737 666163579 378633116 859259014 644580194 240349701 443934701 383039619 586409419 267560879 209040705 541084819 563902082 73930476 489787029 17879494 733688936 44778536 827818576 74980627 474322498 103851131 995298335 804928674 381823891 169011076 381273549 684135750 229116061 734922909 801904327 697092244 633118628 766376843 621407091 318925439 557479905 745007758 857239525 575694275 74734575 929703253 955875952 570633449 662213200 602549367 522989884 354667403 808976130 34310301 311942517 83755223 494432743 852532341 303878617 266544889 372328860 875985788 429746649 62131453 611858493 981119215 467430546 365451628 25636429 351768461 859384954 226575396 615573850 125782525 396000599 823782943 174523074 999444988 457211429 501006570 684687753 695095982 526224914 355879390 796950476 220626213 953386365 609950364 401312693 235427078 683811472 478397203 588955488 791851042 699829627 500336109 241199351 943197391 793269300 54813808 234759982 987401958 870489921 880953900 344027105 290604105 554245088 584896623 829722110 142672716 644671464 291579184 386859429 157881216 138348815 333357421 134635506 860376486 900302656 27303081 469337485 968847612 628495947 905520780 800073362 741402553 27435032 934700171 444460541 278264788 559707037 527830915 914425516 876995330 192901361 841644327 159292267 68585705 707537827 428404082 366892523 524730193 731554300 871472980 961467961 626812268 900943336 5158077 570518294 494819217 184868788 593154490 338179315 726638224 82426241 272027973 77065516 741025190 509686020 532939997 436272917 738664883 458094469 992292821 112977014 306844954 335860517 441546070 627381543 94002206 448278593 962217348 513102310 264607015 987720947 557365597 925856147 153846605 265099713 296936730 908781952 988410415 469413933 983748714 672070946 904186521 817507549 415252336 54111350 881811228 710777958 732091617 767663277 315056155 864347679 467960650 439702708 488961166 628341631 250310540 642761295 418431042 467354050 234283344 4695348 437177083 638787588 505742697 207099716 283483597 471213151 429765250 44596785 164749844 597887071 101275686 282437945 308670176 578451912 286691176 590048427 188924242 861162603 779136217 399305116 716041237 47042908 108433114 260639799 380050222 857610225 779754085 143812307 148602028 491229105 457937796 448678499 584079432 811935230 602581981 870142452 804683404 219601650 325999951 205968197 483453151 285083480 766381445 263685248 625258877 373442971 78047227 519671235 194056725 974447599 280907636 627405818 202794183 54955217 240076825 424661461 251619525 150200069 164589934 285138686 869613156 837473301 593711400 959413396 497041309 164157315 343889190 458694171 803355805 395369769 134414392 940956838 80327754 916913043 226279636 462891025 550973363 50292160 647465416 271398102 543715787 375266307 300998680 342146145 103879163 966588163 993650103 197307110 193747596 338487489 837999939 535696188 504872452 607867800 210882236 717944452 67434456 766783071 444037711 569437322 433154188 26332789 488961639 958970903 669946024 710673754 729724374 410953786 779331780 661074827 729740725 884680153 778467604 843428769 248352527 968436802 740741695 816748890 408593407 183704431 735073532 295036181 629810903 851528034 864327260 26411728 472177069 348614965 207175984 780496556 868522103 357070829 858121058 411436950 86695210 177374325 80181330 116563284 984236547 932142839 41782711 936421208 60841822 86951080 8615671 363046722 591587654 720540569 87696367 458120396 604342490 730472399 996919420 981092473 440077644 195061437 74682718 651245040 704294391 995469006 725177053 707613158 646919350 712703798 475078449 398971227 453486958 860767913 958721845 584467325 220520001 81456774 154148577 100725609 108478873 249887551 161870145 494692716 8129290 681897840 792873775 366138911 314024700 861502073 329263266 449046955 939747474 138630529 13807350 746570714 11875387 186153961 9635724 81700157 163573139 26770782 706413989 967723758 249311785 170756954 515129592 618164408 572716810 733745978 52166195 86504729 409762760 957770448 92383996 264333464 630972973 883183392 696995855 26008295 929451268 140875706 187352671 579263505 519364498 337567415 703671458 848566318 843100704 458285394 454548222 231692784 504067892 89003171 617330689 276640955 31554787 653238161 832841523 27308615 592316293 59558557 723267827 914647451 797174878 693341715 39997728 263201935 817151200 129887490 172814255 28269431 755010902 951161164 641977878 826844854 276787678 980865923 461472449 831309088 610844321 662604937 106726929 490214687 188994921 102219625 610461151 828567231 298636509 869716230 524521999 621950581 802453199 245035836 590441521 193803674 828374086 156142438 597823753 861392346 438925461 650429212 287149413 776041369 604802657 113158711 426831942 246502533 810517727 53729822 576576058 752735040 495241985 399571529 895023613 776110489 272966063 654416865 878950076 471784964 943618530 676902218 424556241 712489060 263725482 980883493 779097781 107209450 481218762 421775895 637683693 408841613 926441217 534358645 158556012 358330823 834039212 603187182 586714258 952597751 49961968 443980866 832112797 954722766 937818911 955597001 416856031 758036242 374989391 653294476 366579611 809404483 70068211 764002459 454088815 59741209 862930637 264969425 119265068 545802462 419231992 419950831 506802231 483734793 170107321 438909003 24223114 650466744 775515095 765443027 668580611 773834111 155287781 826306730 594296292 599342089 751145791 14900340 32390745 552028560 450697963 600786341 564077197 330981590 903923537 306057905 243540946 1784578 178527812 710948641 156996705 616372929 393139438 746116671 696432320 516256182 270735385 921983869 760718347 454403297 59584641 75417623 197761806 432125911 69434073 321894241 503124076 612026809 951361963 19441136 192350206 271943560 805373927 151154720 361438573 773389955 347834896 958941694 421642131 520337584 474631506 134685756 735931561 347572211 103618563 29619109 3110798 63686269 756714548 860373126 142084983 3656168 443594424 349793619 973613409 62175963 457931775 695937911 735220302 909060174 447428090 630477604 694801725 194524362 193700645 306933728 287855766 409703654 171309449 631842942 786005148 679392144 983501896 819968352 878254557 517611401 447276429 24913338 953645409 31715605 420218762 956793568 963998587 561093986 279959813 187072117 378367900 383360611 66600682 598552333 295989483 748727859 863490737 35035744 124398742 635467613 861761684 434064313 617807026 736235010 499454790 551701502 440482943 849290619 439473253 727372649 382278263 717067535 912767538 714892612 197974280 944964323 251121031 667681538 896693136 16654642 227329053 108610060 915753531 79219857 862199464 792633093 627947951 140529031 964553279 529139687 434024387 516910113 287381577 995250594 428523466 943971147 959474954 44842509 865799229 296943467 257185644 295878836 411023455 33988154 563094814 708055933 413646305 608961791 122846520 887537110 928440375 429689881 905924038 589767059 883564522 154436443 556137714 962373517 429441812 597939118 86349450 57706607 161352062 22888953 572512658 856781642 890970297 324040920 506432498 793597977 738764863 251650564 111914417 352720898 139021846 231258184 463798652 20865793 917303291 447704025 641471289 691364587 344456652 388478013 236472102 697434951 324838783 990850135 901913547 271879834 761994165 235763185 369972558 388743318 558840023 822267705 842722718 839074173 57887616 54690014 801455224 213157345 897293953 299102778 62885588 394359069 376141538 841985279 661075003 706272660 285451864 476388024 69600879 440701533 398506299 291023207 664078242 562372444 723932024 575917183 805249304 41189533 362383851 713815065 397291792 309525163 124305414 747474988 308501492 665068819 527955549 115619052 230083061 369133593 477365932 15057712 79533374 995873193 378295143 709993277 477899956 870729098 952329377 475651824 91299496 654004723 770140473 128753488 879012488 680202719 449780351 530675986 400046598 198456466 146662969 573454419 616333029 423096266 22743176 208524947 281393751 808642780 660636874 666911787 400320604 186226156 132688269 326946882 763104529 16064990 378114945 432373540 274909101 419254788 553071609 380296344 921381029 400666622 563189977 248447316 170773542 255312118 699636932 985851621 4649136 358021789 136837686 689457726 884107374 962854182 690633981 521118219 386898334 74589603 968887875 691889184 367752663 674479277 750576714 290287930 199770321 394405749 798029790 865311611 384919448 563800953 914492363 77168488 981365124 774201159 78730009 218309427 665664405 714961236 23014593 571671287 752353297 155936767 923690369 801147119 124024977 149924748 808675491 118340907 873158069 998801013 320260512 442656143 973168873 314143437 630325971 875748488 246087864 839477303 23712891 882205039 765567095 721872272 195347325 309546529 984070883 978641124 44526669 655896314 326260322 885304308 181479920 34012653 842089617 374983006 906946490 177689490 706019670 470776011 157976071 930420586 208978436 547598537 15837633 471720691 46649167 84278117 651718544 414734582 124791201 765810540 785688475 885504224 104687666 86522265 799067778 174423324 538554166 679823728 219076446 639745328 895244180 936675045 782448011 924087098 486858342 666782238 555736892 293594407 877083129 76318008 888608802 309587636 955211534 184309872 720304014 510417200 884715986 169235019 807743874 36718637 745560681 459252231 933883258 382495719 451556293 151881157 123035421 361237955 382792942 318427618 958669276 949626430 655693735 649205899 555631981 124121387 335950934 693881416 108065688 347136209 84484726 64409597 109966236 895702077 221722167 491129977 261601005 986054554 203995843 164983295 617680221 690401477 897221993 326410561 643440183 615436320 191268911 724350420 979457731 178525733 20286939 70416623 297206811 539882024 321452283 128153147 898859497 580505995 810225428 109545832 692635490 251395365 145101343 228280930 716529467 517401911 76470515 46478362 606264261 447436977 285536892 495267939 734122013 911578451 187072723 754090420 155779556 985604306 458285332 923556248 686749045 850034042 546613063 476073429 244142039 867344677 179144240 663182303 305492626 942558497 656893705 747282465 756687946 424273063 442861754 928635480 495048109 878315575 337481608 921475426 254106344 277420740 905514084 645168102 195465728 664185866 187962688 807776742 643374116 270930616 38154814 830379258 107426917 605719522 645065228 317093088 489758633 507728869 547408108 468245383 583780107 679608763 245819883 998526 866721844 969272797 86173132 451325921 961491968 751700989 517790194 635419375 948223166 642665375 461689410 764987597 453272736 885310792 57825035 671992847 42093760 326279672 783233098 105436895 62186602 608453883 362220647 376955422 244919161 372810641 340139844 952605611 478248814 79553450 270754280 652631153 587628120 417066343 711736457 220912118 525630890 841951154 413671523 7878091 409460907 714411097 245480387 988756798 645251418 531435273 778216277 480731129 137002731 120197077 490812170 951501966 836935605 326985754 196690733 467651908 484459818 259214457 981342006 572740879 517487058 661989267 639412448 226323578 591701988 721120158 887827395 428691904 476322444 194460667 756067744 32881811 165069503 73013627 1271601 236079762 621606942 687229202 383154711 47114256 453862267 297688608 54615519 30031142 365000438 207464592 230745654 931192423 78189545 935959888 352964824 523826117 595101400 94262395 5834019 989161501 338983910 43131903 4070207 634866772 381777998 562103857 798422398 168315825 355089095 685935026 621801047 858202278 372505828 169938157 665595482 317345953 258886388 613270013 235709225 375650099 419299941 189137273 435206014 101317336 446426668 89676782 538823647 554513937 906251453 546626017 10918034 978107421 752081196 767410800 182140084 691376986 609686410 943881217 293689364 336940834 988520632 983390876 290236911 765240921 302525410 319013186 910440398 586875483 203919169 56992868 80642046 691178051 17508308 905334410 476519551 637369711 697818136 771313671 738916081 24113947 934298914 886754159 32643546 452143757 676257532 836380100 344489933 477698522 899486653 778627641 902538121 521958403 723434517 902573634 580783379 527170313 668129243 165953555 112188593 137652626 765659970 777626589 523918617 452697284 564371125 911781699 641349695 442740668 475283630 108401610 248521182 213196422 264230875 822890236 679183087 725212612 942563983 232687732 610916782 16487285 963127744 428664671 306375219 147868900 49912745 725086689 136120978 847548662 185099601 471598941 793099607 33868889 185900551 784166657 428846938 827775553 499786511 602318584 103633938 738162929 174934069 93146063 572724539 433554072 212848797 133357746 682282048 264820609 264426685 986943382 710382200 673693436 230159051 506083747 811757476 904882934 791058822 79428763 557038945 719022283 890436076 389791506 643722992 522497982 106250263 700233161 669522066 202950059 991951644 916402669 415955088 984574332 335009738 670757082 703400972 589043275 625894097 982976809 304513929 16652971 241550686 968277682 868117608 77897234 535210271 695300216 324149231 470203091 87960677 76633053 28650512 976140062 486106605 19327756 965693018 726324144 125368074 308431151 126374397 678164 538654729 747502707 403292704 915952416 546280730 264243396 209024564 877374367 546230371 104156083 711559758 343664128 819471785 958686699 348135672 15699384 394310035 573177554 444274895 109451415 57300995 774062889 374951714 780310972 783281548 546347627 717022065 19453489 911442227 966671315 136274590 102017736 445413245 280599664 482030805 298610708 128256535 487638596 502418419 337876181 88684767 290885809 500000059 746119606 332664563 29705103 156288409 157484820 680132486 282670330 851379428 557592520 115599954 939176187 545788689 373667268 736794747 121405510 725896315 157716580 63833726 986771805 708790044 507172137 146431737 334724668 22314724 274237326 6170406 331057320 393514755 895765475 66658519 269864 407276024 744800121 538615761 362400233 299879061 731532014 501113067 593295734 204165167 843666553 521619590 957968464 165796235 909194512 5055161 307931938 615230814 76538446 180883528 816046051 552283190 887758322 974496475 221894311 338645652 128757323 995352432 665110850 424801955 661509596 975103308 942997186 655515611 64108508 286912837 98239162 956801010 102936026 788705875 547877690 646160052 55418428 164729891 969263766 637242429 981250746 490641185 605823438 870459590 741890858 325025456 85504929 356265492 990413653 965558073 280402394 949767425 217313413 618864991 743900275 125178898 169651361 679938215 394043592 574338216 71250238 250524236 973977281 905699358 160653096 676811102 234747999 706093371 250406937 139143893 272193538 632085233 461064459 722328840 227787423 513936333 156017778 686090166 717438751 906939593 454248751 327668904 433203222 182351295 477140469 837802535 242705766 73344588 198730563 503016268 415840202 769804986 322126151 975866104 280778140 123728077 826000284 403383898 222873003 192691811 57600334 325919181 639190565 205105987 994832337 595591787 414264090 835060453 548668670 472565719 566828474 930049488 732904384 22126429 389949238 723912807 235948186 370769803 532594917 182808871 224660395 752531271 651881614 550409695 646541048 228954738 762454600 585110937 405277162 882079277 101714022 577986066 88864938 814627488 959636120 835511854 202008926 47756886 493312638 111783638 378117128 416688413 930020794 599684324 467746549 595953520 441670283 439286324 743160135 281803954 192684157 345935969 788216049 909787583 232459420 458164026 562750563 552387902 715066380 686528152 737965084 650756486 562084510 414240003 33738012 572207209 511378030 548401816 333705273 896876884 993136922 864085970 751276662 802001375 250442676 967683779 383593013 978907881 640741949 978637547 564042487 381988609 326722842 17880109 810905449 905271770 868854698 130817235 244310630 777224714 188429607 300825745 433856102 757930991 802519086 607308513 396280938 524862513 636180123 744572805 919193144 466516364 112022334 143320266 715722626 248051984 95725564 748491605 290790781 406619673 537130862 909531515 939062917 838793974 875485722 575354377 489039669 656088246 231906317 890749568 595234802 892742405 895031729 831364841 173687729 668285373 448223317 182169436 108389372 67840922 200923502 595877044 904748472 488915682 22158508 373234049 232329534 199454256 390246584 607327833 175823081 904786940 375824891 668084286 704666796 513175404 714711961 997836719 3139605 738201009 579501862 269752412 975490482 897752031 247439985 225393846 539620376 256908325 167051769 299731053 528374631 661936496 96394219 877428627 485375278 129084406 814522953 199716534 570115283 390592591 845475317 545019326 564208141 539305667 618119 369863219 896092681 895459301 954175186 232526303 584201600 749474601 794771894 486843658 807201711 895718356 241562000 405958382 433538924 823415720 623533138 299803892 845397535 843216752 428625881 656522894 257893359 173330687 649508065 912385627 875812287 411760824 614341295 933641003 367953256 358177578 35328562 619261113 111745142 171953750 925688461 679481299 702275585 99234679 175523474 30280806 959643561 646578672 91236671 475542565 758559459 24947910 335186157 615333817 393267946 595890244 473761842 473528520 624392620 558846799 570158781 77224852 915403588 667461345 554053985 473456499 675349546 105682053 375511000 675564089 957933866 463048316 540380064 816645929 100865112 787024946 229111452 827819088 456117622 248891848 294235372 540767265 601875242 10930376 194089416 118047391 375234164 355793718 733605577 262134732 283834573 579097787 792082442 55210735 30415407 928507165 857314935 248774277 637815687 524917676 695985298 486651011 545040577 12873846 651640746 324553338 10652669 162947058 112827390 775279995 994351418 720304164 305255847 593565459 37084912 387543014 183742754 188164677 746866267 410505468 324925782 309084710 512348341 419390629 400036394 904938367 221489795 712186188 803053054 22743494 253932435 387693491 947826251 673011362 898953991 181189282 905298610 868217423 634474615 751581134 441111761 528416960 764044989 159726083 899160938 379193303 973562521 384282561 613098092 792571189 243192305 642095389 13541312 248694900 324598382 367273841 97486002 257143050 51838756 71171582 424667007 351033428 717287440 234837676 914777722 774610543 45920146 362434703 53243281 861114967 164712671 223416498 72980509 128129813 163798457 783598861 505678599 234432015 421712584 813569496 8124640 439972231 956625229 133519143 114454923 428607518 241587784 976369554 585315843 742415234 240096551 313173961 154289161 79653482 936909844 467551114 969291872 520744330 133356199 191892849 927796237 585072572 866475599 628350290 306986827 712378629 324825253 990756998 187836724 988341634 711034158 256559659 293249832 933527190 704284563 437638846 864577005 750519975 89873500 62533296 512214388 128328995 129907800 203486754 640793264 444578535 187370294 364197791 342204161 179167408 525573155 685041299 184724622 901792525 905360883 180477409 153533177 514921324 332486653 317102234 531895483 597276248 319481293 755522600 540349340 305855292 900663855 301752284 74872441 346868044 892627300 355773229 225481412 379271233 340306334 467805635 165887685 814069110 762604240 352347197 521480860 77804244 184348036 710773374 249829443 794151818 127033142 160011395 449289109 316043909 483528694 434073033 83481888 181944600 674861227 494266169 173092215 379105293 276092529 475932558 498885281 538502099 371181568 576678186 319448075 489158431 673216906 316154979 563956592 578792539 26968677 68349482 366733402 528070608 697050049 251710412 726652085 128146355 453360339 710866618 702865350 92146774 713701678 265436333 275666904 762864946 234262044 335487111 247432787 188878306 48637801 660677166 377243401 723480631 88955333 43360564 13971917 443411363 654954979 448460849 784850135 119837093 337375899 62972587 249926507 439136825 792014898 260835339 83825284 558279465 653711573 700912346 115607844 327485359 917969722 856799304 783087602 883732207 541136563 862246056 803905947 126525034 608493798 836694999 361617219 690970238 799299533 373733031 491370922 234702902 246793992 294416611 830768513 389901999 219179500 946752189 483141907 455350129 989249299 907035935 547805014 726146041 481709166 530541365 429446706 405729291 283963166 473577959 103958760 56195056 904295910 55330302 294340689 252246164 770953461 33525163 367933730 512727414 779977326 975846048 177800561 285792261 4043213 184303269 279351833 996770519 780035765 585920427 879711520 926375697 492759529 157851572 986547324 344960452 235861275 536735721 261994473 712977395 719658946 186327241 608489585 375676340 809913801 342875599 79242962 897515824 313095444 915148489 483399660 87368920 225378355 220322028 408476164 657462365 220734888 45791115 188534696 884277795 675208289 407291394 572975955 970435582 490873424 624832240 28508062 932046530 520359078 399288621 184417246 810604827 712590067 160634530 26672804 281994801 485821471 413918864 747917313 628789821 518022725 906565677 784955865 401086614 354129443 695997588 885276019 96197468 691630843 704049782 583718803 532039561 255176453 704405276 172415745 454305857 457348085 34350613 134998090 852792703 166716584 536528611 423866537 832890061 447660406 730642473 162311517 414237800 959417564 584295175 588215319 462973370 465358981 402259 407054148 962687963 110423998 312189637 524905305 747944873 662168403 553495611 71732608 531704610 638059766 942690016 899719782 111447214 397246813 136913478 144252201 408673161 395529006 766532957 913459035 377467408 350051885 895602078 99390739 641217789 417751131 217767719 28242382 123077442 974264977 116713490 164642972 126613823 430544714 970359314 825251326 679758851 421135909 156315948 795839123 482878174 683324401 763295073 417891225 409306583 57024004 788662950 333055904 197421184 474959722 945191730 830632454 709546852 609316613 37543716 849666485 155601920 361709193 910936744 534975304 950078064 292952591 172537266 666244821 824970533 802454504 338320530 868649673 346041348 881023679 326126089 612612554 792708911 358793067 462946008 947121192 967399859 461880219 362326168 601959593 699220915 945392796 722995155 198003750 979063219 43172026 371396243 528530836 60482637 66630723 879470309 44998214 742775281 609144832 937887310 270208541 428734398 499572519 504094175 474918971 977960025 258023975 386927396 806700921 760987551 14947739 973956201 697878170 459583289 516377112 615161323 776752907 373564999 822561630 741573484 815945685 732955654 889879543 382660410 333665814 906429421 771740168 285110813 601436753 479573270 759623295 4245030 291522016 938115498 786552987 127982017 523639046 532969157 271628075 583140759 354338145 598969333 629566944 187646747 69057402 157293581 734553453 687579542 986992719 691251156 908401720 249101854 194582498 164700293 396160562 155878363 691486764 523591987 89321102 130517581 136163030 819905903 821031820 875507500 132067221 482525252 435231384 265250928 471117521 738138402 137161482 223820094 213126844 868498805 905083157 359095727 774805654 577101758 77143474 282971971 621936817 227535087 890660814 339963847 737883793 86432905 42315762 692644090 957612981 67852462 750860267 213545038 873558647 205237259 78724886 491522167 37361576 151883732 787188322 273330379 615806154 701790031 878434020 669295170 911310392 20319458 233959501 122972083 602954955 609107662 364580470 537810757 43742819 220077020 681393302 542017663 879198518 307501678 694807841 215404054 100152155 554592658 796143462 100261529 229644499 160477848 934635904 546782811 267967717 475395705 311333761 997454753 424204184 175240193 423089602 66167623 877725032 406949067 176372281 42359968 664389147 180339824 467736202 653191870 600248725 946748089 345307250 430020433 74272773 770843724 492950120 220188963 656235504 697450549 256501488 535272103 807181282 407542607 856284098 770372801 54808967 144725002 574477867 172567100 230785793 667751050 368057635 878333057 371831199 631117078 974408003 502382477 836639696 949479679 978213387 738730650 198698127 262527753 763728091 239900787 203551877 520843197 504120354 676194734 119324392 262351858 298183903 945101034 711480755 214470722 955128781 347845834 783630501 167903442 827484743 438556237 753518254 56601339 401463393 854113100 151738549 568353567 609834408 217594199 424629679 993247530 68406591 467885343 268080605 979373802 605250374 150192368 277269818 100188739 305359747 640848831 725152756 178327796 554672755 64628411 497678293 21765026 516964612 688732893 251662568 33297411 732078804 634241618 141447642 660022581 520890130 411692327 493525775 299902094 142334698 205687080 300624429 972497665 849619441 138361996 929781524 446577807 604363181 165493798 186257351 83399053 249523888 36024092 664768221 524946759 316061088 291264063 649352505 433718140 710003773 518850758 708025682 970088691 13333239 146832417 66211435 302576097 894184242 990384596 469666864 266220875 472048677 73557281 344940526 917757748 500457678 593980983 413469962 91843135 336400318 962078045 799004999 130238859 925088847 319040387 823147141 265785161 468608181 357542731 753232228 890216455 890036041 123548430 456182002 206068400 928204757 59487881 703663195 382363984 979450486 605211895 52055700 861946484 324294967 253717297 831362833 384548727 285955432 595954628 744922661 999974096 588340340 611204011 558376707 512759344 716357688 915172921 662722020 944261143 976006386 951463937 394941360 945910194 169433109 12372859 67536199 372449600 187078741 41069695 23402010 685466341 295337898 877585050 159237 724187067 522891867 136375871 775192826 141199737 856276774 45306235 97390074 920560764 546529026 567250256 216036759 584769587 975941588 836764393 967718508 325370609 278654306 415633758 681562350 59561534 553612096 623746048 350713885 473766718 774979406 165142023 978835088 864080481 118345980 528611827 448287401 657436116 726768600 72986354 701354432 206661690 390254919 508897086 889097543 77860768 874838704 490514707 15289927 943063466 462802312 312473615 77157609 741608907 517988754 585239991 995005221 765418850 983578551 64432780 384903511 947360854 115293029 737500616 978261133 799342580 803659554 864508176 658648376 82452719 731181254 747874505 79731417 365993166 201121286 548136415 469944629 705098326 137438014 226902581 222649595 248828172 416456630 107212298 725939585 498422571 834609251 796819307 723410615 501027112 511495479 190104124 558036498 662614113 435322769 274093674 974797977 554894729 409203124 123256103 539629282 35468925 510642703 606859967 713303705 808186359 289986256 800261443 171190818 148733218 437310729 940062526 74545534 784312612 379552190 139492080 59715769 867901173 987341167 480418910 476286074 279339973 106420603 246109402 128298802 99811990 995632207 76881974 538142653 475704828 333504182 718181817 59981779 787975640 735406906 359846024 281134179 811046439 505216280 64478553 688576190 561457613 149058361 115978275 8113860 310242535 507840546 529842915 964896675 836037920 798339363 728551162 537754437 97445355 572210689 164040568 616232449 194316565 659899154 69632463 462707392 457565580 565394127 966955809 766805506 44443276 124629548 277836645 4743776 765411566 708903537 280157277 622675111 268556203 331545120 196644018 790373590 401856902 624848433 547142791 851693740 696667844 50963388 751061556 181268588 100208577 147764330 798527628 354223251 979982520 698967840 315129271 15441879 59119331 915607624 50069914 88494842 51895020 941750427 878835429 563735609 581858501 714832537 839168619 156680813 134928771 365022580 764286802 648211174 721989263 315910913 291675280 157740720 247405513 541517926 285814406 6754380 572023891 715415310 332822908 311693750 547638483 448904087 859030573 543624167 821554889 770297963 663870178 951575546 660047500 776254301 449447796 946335792 702662563 661892760 854683126 490824819 712362775 531405452 919265770 534723782 362078539 551738072 357720046 770124051 399334656 955603389 937835497 556010859 372067623 366670688 70950072 822607665 469312958 481611844 309861628 958199037 411547917 637123935 860926878 466548127 319354241 470623469 42236193 545993299 430686581 829950089 936784263 387615951 182813174 264131396 626594494 305774146 443566674 316187232 100571553 433189751 30155326 120394246 382122563 484997039 485056495 703341837 220124448 102724319 742684797 831113885 792442573 406727207 164854889 243658965 83879139 240341594 865296291 983424890 763541858 976769802 631938972 43440457 145109343 347946072 478434086 853768576 572092636 921782917 965478749 9891542 158201070 842419488 712927577 792931799 757202209 205384947 950956289 543788410 796676751 595169980 119635282 198021406 236670070 775524800 965302177 407723800 390811023 479188979 819971534 42159321 259520190 676103152 851300040 847824775 107035183 39143158 812049540 611417328 707766966 820128625 587106090 660627113 757435614 592659992 15949270 107243781 643618877 393252779 681419680 552770489 537972088 157544025 607360468 767444519 156443055 992788350 575609489 57639350 208014373 937745589 506359930 556078951 423660521 188087849 82220368 157801567 954737900 342585821 130061195 759340698 48362091 24651951 144412759 716928873 780766094 310493019 859779214 674610810 692148832 449641284 439879203 57715852 457388569 288700647 712931678 952931283 848132425 152885116 775185343 175150916 611158564 940994355 568460223 604737086 547706935 696395729 314701556 392677484 522767615 625794333 65871833 29744433 848210560 310347929 127043141 695628654 652855283 594483373 104547600 680568329 444306727 733449187 382263256 505078837 384760250 592598785 742547495 787161067 44757724 456427720 785958050 340101721 102348183 265770958 989580113 649140384 884728035 621911354 362521487 198745684 72704073 561356394 558090945 902220521 574178804 730743787 988695651 283850408 306172791 349284561 873219772 486293711 445774911 358376060 134524551 621099463 922888703 607864401 812085111 375958868 495415755 938534878 722985225 719736031 922179378 930300789 610624725 391242818 788763181 664004712 409890804 308907450 965501711 564057715 239734554 285243339 908544128 944052157 472430429 230143906 373999488 346933456 180148466 75437290 935647389 488475783 5541303 923042041 170825353 141061034 509248521 682421394 571025381 29350097 669507600 292372844 662940204 737969902 546880718 322665635 548769176 671468145 55230902 968096879 548069818 81219030 22069324 926176897 181417816 770759659 325415686 623498853 480043161 302585703 115598422 151973749 998181904 958081608 164612949 888252458 745107508 76743253 209267471 725131137 851044782 772427744 137012186 949188293 840543247 411143811 611970663 842729767 607168431 797265067 831608468 93048918 630250781 172611596 279958330 902065116 573553195 470631056 850753088 755339674 994202388 684382737 239096341 374017784 170594316 20750488 391956190 777153752 640792673 916313302 135942772 258796608 948862898 8955841 669020273 872033522 223434626 869802047 282911417 239143890 300575350 297278392 261469513 126752346 715946664 380359783 894692543 249862041 423542972 106844339 906425683 710970292 793253011 519890027 197291828 458063492 680257640 610537084 288398583 675374396 386954150 481780106 84602928 897303981 987623641 268492165 550934768 424713951 97545284 51496650 507783700 143845697 574057309 830987502 516090952 601238425 819593715 110022001 475931874 863360963 630032048 130397416 349614694 825295028 34516741 544038353 691893834 704804662 884020760 814445376 645629653 973845174 910927082 297753211 647546906 895884262 951137413 962822449 665217580 669178334 167380766 824678548 496677810 183072459 591005671 160724909 775792450 486756825 792414224 104613905 932158003 555648597 5417247 470214071 636814697 349297881 475021339 163084966 921922719 799709573 812369676 698199102 286442727 653270845 545146201 198770370 148487953 120677089 338657757 575175801 753616120 860207905 318383647 261785417 564072647 150771658 609403304 176710027 27068951 888446145 585043393 353659201 12761841 739248205 641218808 141451112 896238575 590084667 708725867 218138593 279365828 626064331 915117702 494162836 35601273 854989047 17586699 89631464 797049922 657268587 522968026 742517422 136906398 652273195 651404202 529304068 646455378 226332312 135894806 218473885 963803327 694583528 226203006 734369226 911276196 595488693 912435698 884688485 595927326 824978257 216065202 144886272 967893195 449905802 659381651 877339970 179585661 308995799 998139520 807386352 648987711 665532257 257087519 750207823 84333541 31112858 610730692 841090028 212453794 961729997 780150935 615899744 545561802 154705912 45401454 553596755 163787388 432408986 941446803 841711109 618576385 641906082 977672622 137756100 34645302 188661091 640281772 326975426 247493644 110055633 215027387 57497256 356228173 734084697 394663067 736060695 522704445 182321470 509641676 595639767 556444950 274179970 235918320 679029554 393162650 978136970 742408050 632310623 590861223 85546418 990474589 876410007 42553887 723361531 308819890 206372875 109829539 351545170 327308694 869662928 447700200 49595194 767258375 763107633 554973068 141438553 35266656 177763475 780661613 454131874 328609198 976811492 665110259 458696921 627437147 106024550 837611976 290136849 153300256 26579385 450774898 669420088 530602513 210990622 175643317 302186782 638558501 331511341 871055709 730372738 507291656 670508740 548078684 321040107 811756785 468304342 226052385 258245690 519440323 199699296 76943412 866738310 696723839 72856987 412390631 700756794 67492052 54675799 859467237 95480115 610378750 850333909 552361744 28484960 333705954 711694861 10366787 159266343 389941722 164107341 920800216 604026387 78344960 935923618 704662317 960131348 942185534 865912493 76639378 198876958 514288441 808938283 358289842 981583561 900752606 554990741 832239258 763543181 6225205 493695316 514479535 397033750 698835832 414509474 864554769 456073352 365334601 334916159 857676855 36190377 512803923 671413410 794412303 617251424 153865619 623012195 188581977 67990762 255578382 608064276 538135194 428517185 146658094 910661563 380128219 96701584 326139483 942963899 841933366 964515115 473491766 853014417 999387409 425999548 963884325 578211698 522836206 645653336 919435591 509636941 413611300 204978550 278684829 77837512 98419428 515858228 97835802 394701794 567835777 135499043 835259564 415158123 986686410 282719904 936814182 784162247 336021622 247820800 528940815 753042287 620468951 701919808 387355177 109541212 284563145 637090226 518023865 296339967 120784112 95675957 207115314 58874131 509381747 118966026 829783825 77174707 758140260 574398115 776734917 602697517 667346759 243100476 40692136 713917488 576651106 701719569 460837872 548508662 243120522 349307690 552989722 477666293 155499029 157957485 61118995 371237762 514521478 582797204 553421036 207348545 803100772 588291155 199190671 905922044 541966983 673984569 186023599 351985379 239121353 47734585 493701825 139865685 256472350 553084901 459784437 969518982 966380265 819713332 338136686 136047188 923609309 710089572 475959824 259430074 595486791 686838712 913646833 768802268 105064055 780218160 353051421 782686710 595207437 607410716 483588170 14174856 357798735 501771996 907574912 714255524 607297046 605201736 210572937 448489839 742553691 363660803 240054257 707501656 78838167 388032717 6257435 26083512 429375611 226826552 82617512 411654083 179543397 447070114 789473972 614985921 102811799 118287452 791388490 220275910 9695986 167094705 945888220 845254293 9271741 699192353 970393309 968708912 233845903 481577986 538448251 623868946 455146734 907250773 172527693 454179180 317386107 73074094 431596943 2489132 816439994 38522691 494551397 598603097 462886795 687717901 808845580 786159094 431507149 837856230 836768514 383828944 515730150 872227044 84422291 291914056 294142372 348528633 34088829 211315858 447991564 186958501 348113450 180072604 722785073 966599559 461170512 265881632 321564378 642799859 740141095 937227554 45736328 23416911 900428440 802426860 146100473 828213121 266569788 962151130 92835856 883138960 97953073 178251262 92640679 609944377 205073242 472692679 63124530 882256686 186364256 864355509 714184272 678185016 221883496 161824136 949910846 241672249 562365559 49016763 890767590 470126107 733334543 910557640 260897142 69105569 435941453 944875042 449614213 596163363 947929614 883839978 814155099 682165601 85178231 349873685 909393353 593746872 587925471 82942665 932370427 396809712 162287330 918559195 793686002 565016712 289294017 199432881 101235680 719887822 726371457 603120876 620082794 821236583 938441854 374168287 722626670 803979427 886047946 605250464 400742937 213377906 720502381 490780989 791537382 1432178 879627033 884811049 828732631 766624131 669679880 265025435 354541300 597800888 749360251 733296966 392770107 309443556 939766968 448878378 110195851 984442179 507027104 526244599 644744257 364294172 139205858 803929151 48192984 889026531 541219969 495965090 232697625 906710224 474323396 168756333 829650991 487326759 591116283 513963288 328865029 175196742 661498291 185771648 608461799 128822449 105179685 450877938 750210584 24311918 616585846 123061842 330556237 268305390 549356218 682924942 511374175 295856075 596468331 502147832 816995028 353802231 932916876 218213257 900521076 687665052 66037736 811306607 205681912 355719097 491588331 854426789 539287791 320026801 848570214 111120839 46554019 958581542 628228270 648940192 794180384 411728382 991916340 824416745 531765326 284102620 700824151 340132305 152324084 393284981 712223281 35082269 889473968 491522436 603348592 20615500 750238644 975204682 144498300 845240618 518570709 842756967 740967946 538370444 421693319 306721566 206772542 110213243 973106544 645310406 142634142 125869261 875591841 513144340 593427763 729047002 251751096 757800678 781365431 115623615 493508527 492935855 288984283 460304516 364536757 875737867 248205934 786770011 399118336 385269219 56224915 874013650 256895400 507507105 289647767 333094447 842437456 999965406 814147978 839200437 162876288 812939013 897848577 301561790 235360957 161032023 655758802 640449954 724393622 251350402 890345372 712928588 224117232 666319615 666672911 565359708 105422534 231454834 396156364 644594701 389466823 856263697 824366608 695960991 912002869 668296295 924890338 188694628 91928187 290829761 306211469 10536240 511823931 692841194 377559927 422828607 19204243 336261594 931689678 744165485 211764886 760819835 539831125 910174944 387641588 119230845 525613660 777972007 967203069 921054297 119991822 941044753 261569323 743629185 798764055 538337702 944239955 265920375 934602113 198885233 425537277 679905655 925496285 850766658 365719663 518752704 100678627 84749999 842990577 410754127 239595940 656790462 156346884 393642778 517249267 856593979 742555152 138980319 112222575 281570535 384290506 235781014 513639829 371424098 480728922 352485643 928634996 290640609 278811392 996040984 728464084 276456421 704972479 45996101 724682646 481104714 543388389 719680284 593271012 541159797 997563540 636242983 708707609 177266370 244698896 259610763 834976943 898135579 268100075 716609004 144904449 779098301 126877007 206482593 766634322 388626996 595388740 693436029 298711753 831764947 888952949 373026881 397663487 174834498 214654260 215329486 870640212 56228699 306507052 824380724 535932688 234579770 11455611 910360134 342073086 993595205 556178846 743317721 268749094 430005786 577510007 533719099 386147869 717324547 617802348 482256072 152619059 555922439 431940371 602039370 998635979 685857927 771804695 170101402 874151933 162646361 575832340 537406604 645646695 381303877 211832146 416395065 869571104 562066163 680634998 351732194 783363971 588994120 980155850 302359428 954055042 54352087 728860353 382733350 372745953 408201603 596899482 872887693 825423256 641773669 90017464 168331869 151206944 987201607 137055862 847990201 369537533 405344085 954843922 687932800 408944887 453179796 979182819 648512168 94996278 874831141 124527556 651076924 670618613 464968744 776167847 847594202 116994980 89184544 774093010 968277184 921503033 682956892 906689142 842630818 882253000 913133248 748423328 988931223 875803381 59524529 161431098 45321019 985956874 484867549 904059672 837995224 160029372 913141930 168794295 469082130 89968417 308550169 101801798 916219894 103366834 276683173 679431602 513600351 786990526 60625156 358823772 675576954 589792776 281095380 635695939 658847886 611026709 771925674 570933009 241902595 562673507 950282288 74997572 32294739 392231669 790246754 289421520 603534635 501979215 60543957 421077834 215147359 544112856 528785392 78586572 555352052 208407144 98127873 552198852 796808383 266060999 16726226 420001867 990671756 141058357 638686250 880136736 695822432 463948016 105572325 898795064 481905890 194990639 97611034 500753569 345897022 919439296 996468895 355188244 73496220 526007742 948251191 390379150 765190107 872660619 550426499 707195465 482161760 533004460 881466529 14522050 612904892 213528961 828503291 131282740 187554 557746231 398700336 441852436 23702890 339035099 742653111 289723867 109463368 579291175 489874134 323531921 382841210 693247023 201698460 571869255 861900453 387988627 798540841 140130306 351647285 441551705 434267965 762394395 816958159 173446636 963431594 355884830 279063877 560851307 445359040 413369035 787850743 997120607 625429317 842404203 720192031 917877378 252631678 241439386 189988337 734779014 364947084 40695056 833949278 905841453 107115076 886856085 128100039 736873827 107269919 628719786 736484232 446893733 16812681 161451877 77669865 973002042 345700311 929728727 45461055 171599192 165861534 98049995 746634238 899500124 769066707 292772926 327647785 886288708 774335085 650728933 719849966 645322958 611285629 19223582 367215012 328118842 356747964 884513142 271754051 770546516 640041244 926333256 850664817 153781581 107955414 691220307 688120835 177392089 836524454 670033944 532017284 223628709 524125430 903393882 210483337 627344189 475212724 896658610 603532797 830880687 635025021 37575982 17632740 148853535 198140192 138589248 415890184 660910853 633755141 580339248 670212224 286241930 938720690 206485635 59615512 184795956 395677437 220593658 618710132 815727167 428977396 924077529 16621938 969527351 569171043 952948054 394998653 307792480 232772827 882498738 914439301 882834306 517519603 153098508 867104564 839863303 486408352 740392393 317036903 988343753 142632636 985684438 904423295 832840690 873958145 62325697 587687677 798507696 219242554 144785315 709570037 139625211 908999404 886552833 730070846 329244932 641745871 235456943 80725823 660247040 805990343 396112442 783980244 21598218 161825132 805158224 590258038 247840509 507271731 69788591 883216905 884813691 186117310 509891826 451549931 258121290 36500275 525112763 473950459 411890376 151335244 845743680 251613587 402447433 5255623 246288814 417817705 466277433 301437420 916681576 333407714 320885144 153113008 287125016 837591023 374764112 581675787 909491954 449119847 580440976 910231666 846803760 776536829 486278165 427606940 462165114 856500770 408394449 105591256 259562627 724536685 494836503 361172256 705921288 442625614 119347814 913448550 979355645 421743205 691334830 387178993 507746644 313558062 776479506 119300396 512988299 360291328 291242618 496927667 296583752 230998950 190724948 767807456 940747860 235510622 378407603 699716291 219629117 619298367 709764942 892488828 316641582 173570058 923715656 199295639 784952755 896357503 48031810 685687470 173309627 821558546 703192291 428498974 859798067 750974624 979684725 761714291 944445521 930377684 467242663 90845843 160911507 587489962 49717995 950331196 137839043 603473479 615928331 677933770 683609376 830096504 445264328 433738709 547863191 477187190 56718501 819691245 680161144 323609035 122272233 897787460 50015186 925776108 810313864 906945790 97815823 81365041 305386711 732099585 987767429 587384455 500310408 635797862 450354775 980186145 768516865 794504335 537236384 498146005 447138967 161976253 575318525 403948716 259756793 464165177 573342256 906861151 643496043 304581422 325338420 57155082 45609142 80930375 179841335 51913516 636798960 202135297 594613785 353900347 2238064 894769900 394502598 394303489 746885287 724465564 761326271 622390810 897905716 431576502 943574240 443373553 459912181 810953364 842332839 143048197 340410370 964443566 457658400 24314821 407068842 453542593 859696619 792524146 504438974 279060422 491842838 651880078 802370667 738594346 841736174 443539341 161306941 793810561 792931302 191381786 85716837 902146465 825679591 661231056 407305990 768760792 7747708 875733355 929719175 831171150 210143382 322503079 194494352 724471263 473668098 592340600 172827106 512272379 956937835 682027290 332226664 238817157 75883721 936662488 444000299 984500195 335683043 622325120 653782091 773093838 95127915 639617662 684458832 846907658 674081402 681581230 147855192 394903369 598885509 498412389 950731303 843580701 775805051 995764678 507449209 441025701 990899979 217492110 365647429 584949015 390077788 458048319 741421805 225170451 287667822 911393408 86823520 844970972 719068766 758831466 930280584 62689004 890433941 915538883 29689615 303246362 119807711 841849788 539298181 760977175 521770018 172866282 866390358 727841158 136267198 973245087 90428223 804464967 231008702 48503021 109936586 213362670 368989577 886211222 59658161 197117734 156633229 29962366 757566686 711543698 686872888 890212589 188782772 846731189 546315820 884484351 133046577 198717819 258010498 128602773 952379156 371341909 863722835 183154151 294421965 614283582 464910939 388772410 840810340 165204987 737671174 370990822 783590734 377779804 693251857 716283626 469580652 281435467 106560004 950407211 714657136 144716863 328941546 812192880 652480663 465146703 527290252 177782787 590817818 218101573 239494643 610771584 289878754 710271939 847850357 90576805 250946582 295209630 373734379 348199759 945564263 67507443 586918885 744361829 917681606 948798450 684150195 461933122 554457696 530114268 690690863 139639986 119129681 661179752 425912268 28593378 820973230 827780665 518589485 688403206 113696252 951021913 845939828 257046220 260074905 552034219 283358876 784075656 635801387 742308453 303625771 622952985 637097012 156463838 272070845 445831761 361180285 606323403 114325471 818305200 30933955 563422687 338251050 707279482 951448015 235712184 840778773 577350143 840333385 284583341 557714232 949582774 257650680 95299880 485429719 884260230 983918278 71859678 106930557 417102785 860644610 198027249 226062677 509275792 585898894 477647059 826253332 345194949 60519915 683048248 644566090 964996281 333768721 354275405 632201785 274328584 551409453 839681337 829021059 678829631 789370430 267982888 717429701 517821253 245619711 839556183 143534716 567657506 151762998 174746118 304222848 209846184 64605606 975668710 182317578 210997594 191709524 420847624 139707486 336351291 875268639 82300476 788850543 253739055 567483330 217158988 843009813 606374259 300794172 176908084 677483973 760127633 608089716 72298925 619273015 982453505 600301327 112775496 804645143 596673176 819759064 242271253 995109602 327386502 615837463 566836992 390526098 378723414 789967595 585343172 592743439 195946386 436831571 858528298 496276438 40679870 595501104 460504515 94900441 937393029 313702523 335387315 94141069 732545714 963134919 851971093 951886886 176320105 646237980 221979562 918009328 516550949 763402743 354063321 459838176 651450853 7825777 826873374 281028214 150976066 657523575 87267648 492188632 628682960 888437033 763084410 785698956 637898053 399563930 879935771 915100923 260599383 12439801 697732085 617017276 992812208 165566903 208737463 369936072 794026615 930601147 404820200 628291976 450463480 523134432 521920168 856246846 993706911 695232997 450166021 704364402 622247995 743153927 812763546 735873801 819260531 192644100 732999863 175541741 124391096 59378889 863443053 487654201 326962636 220212426 676566835 842125181 203989412 582233216 378932381 569121445 306336406 427468284 400375266 698712325 548755714 89953604 782346931 683035371 73483020 525625277 139854245 216390840 10216320 820828628 533753867 973489598 314423251 798124402 323813901 476115523 706397553 83112589 705832675 196121281 13487769 590006555 918212974 185054197 970678216 377701461 911816354 892284084 947138660 831396411 775851587 155951066 978073569 738113891 642640961 671306487 82381843 341046718 448360138 860588669 818430147 198974326 277812140 491072824 683451641 81611034 958376509 732700545 174914241 916877179 534966308 817676377 845202592 183102395 385896141 374827888 13252541 941661772 576840520 98259499 6145665 843814082 888864034 81475374 729263888 250869228 367031604 467508684 427963818 976897016 853391257 659688518 577113250 923714415 289307882 702180544 635062711 823195193 257637319 116428633 127461524 238774286 719634771 611899766 425232933 39500212 662985312 733930483 641831471 196457968 838070212 431370805 299049774 824674382 930654866 989492037 297441596 898183312 126743765 354938776 692439635 40986641 235277947 688945997 152088415 114218411 855712527 919654004 797244926 205438617 262632762 609110486 253404049 467948582 882434519 43987814 449083285 732161178 32486162 652304509 81964908 482908198 942202858 129748963 641601992 490360453 22837599 897997337 619936886 954316616 241706664 72163190 739451429 337769803 506745515 847541560 244052482 939511981 961080085 915784924 159167262 658372412 551618459 790314264 800547683 644700360 272641755 835810413 715495904 167155077 735404346 799404488 511314157 908908069 531681007 908368110 582696118 641510799 944579005 956803081 359438164 195176331 362977249 23405798 10646332 562064686 779430836 853607355 190524654 871197004 438958316 268688451 838604642 584607514 625241621 430760662 931515997 716404191 361108409 121980287 3904272 108416219 745245575 182288330 644650536 482608375 561021411 300899283 107165966 240257459 885334973 705013407 331904585 101969309 645608916 484407035 765662003 649556112 977415833 295347986 571759459 490658556 679239809 433418383 585521411 172760301 874808472 278746330 65434453 165320717 635123752 2104956 887621952 843568607 166997500 812559475 453741443 264745379 729069665 620320715 875154212 522137068 602627228 92083354 258780981 818092798 308246157 956866708 808882017 136877976 403773849 785180966 819679979 319653079 767673226 984764249 370073368 367407575 454240411 270083896 968913695 476285340 102365883 282446291 303941340 357735543 126437670 292129473 160309978 178298410 848537168 945783951 291332542 656333174 940178800 816380373 946550008 165316956 636659398 327697476 593605562 448272496 445429792 800149945 838494320 223122801 729284213 91350161 730068085 477322969 722223188 210003258 273669214 940415026 255246022 656942806 440961062 780809682 442674226 44777765 731485163 967498202 171627860 766072737 80011157 648190504 495521450 429592559 587584743 88969943 802001406 440426384 278478654 586908274 880283737 41848799 254454828 97546971 316321006 581899504 584226605 424380460 286648267 989152559 100859331 463679003 35458521 898493808 732932718 712971224 815517615 994602871 93276354 44942447 174117491 771758232 879780792 304598824 729090552 996907978 723600253 485853851 505592328 380851480 822635312 401292324 187779309 865370942 357324778 779062273 9785541 68827176 282070035 225262333 476530573 313956458 752870683 352335099 241991942 537219761 593720048 335937830 25314819 435672262 746877959 907972021 286051004 158394755 226390120 873584623 512917436 54143276 314415882 156954238 837178326 584700936 420411908 969303587 43231199 527416868 435609127 249049590 988707969 703056225 741188527 569006194 165960638 740969488 110386549 114554379 891188285 229820403 211925925 404082254 696357587 423195990 854461262 236104716 721795834 876573550 131679622 307252719 332836366 587244640 737635697 934846506 258390787 386007374 190396030 86353037 288914229 218525356 543311590 798402489 365455903 976059080 523548466 873977512 864452771 920497056 501668860 35128529 88415622 555969086 279516433 672687074 116509688 360555083 296843439 389500228 8450017 945856202 58635551 331026114 506364886 788054244 652573205 964960233 20556073 663929328 889839356 123477886 259910828 687290807 130537492 692026633 951118981 96700839 187738005 931159811 428492404 113473961 840299741 911727247 851366115 10235648 436825536 296498952 341520693 395284644 245912931 603309093 883101167 810015980 934431713 364033967 774498493 69343282 799552544 894015007 644071995 701118762 398716053 7393421 263779042 361787834 974074900 998708876 984679334 317284871 231881093 161675108 494057672 808747062 791547323 305964802 228609629 158789149 92938472 999161807 887465838 180501182 696900564 963231676 138233212 317346068 178676499 563250536 130900301 538425458 651975844 976663138 557140695 239652014 421821383 7895733 543817961 497425763 450039881 634862800 993587795 605486618 847653042 123029840 652340840 999629316 840364880 243981296 786024379 795825856 943244198 182754338 988250643 592934554 628866690 139512154 223407499 553764233 895929247 333776548 192729044 167128259 334670579 538135200 617934036 96773262 444291516 246615447 19170746 634973504 949192556 928161142 362870611 418043903 466503600 121911947 769001457 793062890 868323098 177722332 447071292 323075474 403823511 304665146 235396091 530580681 857109584 454441556 61753423 405030313 11555992 987533093 546869960 138207671 678321610 521104082 660890775 932296111 172897802 543955306 879244537 203711714 811769446 582968755 499094663 287135409 197263011 498963814 767971090 837743596 386270218 575161234 665304165 893226941 645813994 426216715 375824171 829490953 69491469 551992162 867111507 217630247 427718641 16626760 643595212 236843385 232207257 291339041 916473092 104601126 807794620 525672512 418473132 654412142 192958357 300735474 442206754 321154553 36703228 255734118 989738062 660134697 917616103 78876986 701123560 185441287 389755900 308305217 896621443 730223423 716971804 247136707 941238599 84738035 389632947 24600349 493284396 921202463 258229308 887746843 531583698 812613917 259876523 391058888 229805091 156573383 85143384 581412076 380700101 842730657 16154311 946978702 418802031 506252639 642056351 968963368 711768421 220861133 388776634 244419867 549530942 775005346 790615673 615252813 418262111 304014964 125448788 63812626 137222316 765861821 635373101 730847288 347146809 240281489 349192152 718856273 159195515 614547889 577457732 751263391 881795779 703585362 26836642 758189774 590406523 358343353 329417613 498468010 374834305 417360741 384076451 940308892 351371142 868304014 361409056 895994409 284324814 167906019 70085979 147849569 600871277 921066225 421344405 367212266 870249420 960894236 651307620 384858504 648718186 199401555 286289766 334994775 116623482 485201299 840412745 794963221 588678128 609893122 739268375 768890996 331923551 271001502 971696158 569602530 728835357 538001569 245666290 818469921 279230102 463078348 801505499 689652791 857975994 532298208 616030556 258820586 398842986 79025796 424650561 576333166 968775338 804120972 955458354 322324404 209875681 807048182 601826733 621831842 540883407 919846491 658042506 906347693 131055819 3872743 420659441 250806495 949933500 516716803 799970539 163831624 402955589 76077413 290014180 636100506 754461375 862050711 894569398 728692836 657109450 158410231 440126006 336428906 556122557 264574294 551590476 404732749 110896671 323839267 454149332 522768124 118526443 60111602 822367669 710400316 187829825 279512958 715941590 974135333 219794358 88489344 169405986 656600230 708862386 476619004 196081282 582401654 871994262 350915940 501019088 370519847 265999399 270386222 381805757 316988844 611741786 236301228 361186526 930721301 419881066 356613321 128286170 716482201 225212187 433912118 419005650 216810886 398593023 706710323 573725982 366560521 608213572 97184924 434822557 489935570 154297887 71305653 222603699 850172015 661326283 618344213 425027553 644096729 138029127 700540885 972619148 510753439 141776157 334082214 862763370 274377081 949582603 536783626 209330616 802983169 726238796 118850133 719923045 113626513 889172092 501456204 299864028 416318392 128305320 833986702 98448573 983664625 589243329 768759543 67048589 508176620 618311415 627180616 535730040 486946628 737492611 721906764 482787395 308379605 583120723 174524079 343556630 402880181 501306599 75562927 938565790 601408738 945554991 697990167 514747628 395649368 980329685 563535639 179139843 607452337 313387541 119106730 722630622 35539513 182425510 455029762 914759477 648904109 903999459 262719359 817736613 98461289 653751095 683173519 818066795 532764218 718301848 724573936 498806184 174653409 436269057 140512598 991051660 544549222 383115151 898502256 608019801 964100870 133825014 492987277 263621622 185881457 254142544 220405693 143722279 890454094 919959289 703311146 115814498 527000796 851130858 322300801 841793088 537330398 788642335 383627389 370912317 972264290 186938201 139475478 763854757 929150888 271800365 393116908 877620194 314134140 348954649 304429655 837433719 443111214 111721326 960557310 505714127 404080967 154883133 585281388 158394599 282124621 751093294 952244432 974581343 172097238 730718835 569231366 996135024 495201965 971503901 711861370 533682389 485492227 782390103 215479338 957213314 65822762 767255112 953284901 897518539 279819112 392930518 400658124 302917699 741948505 354525182 335512023 159357685 515617163 698451451 60043241 658351559 933032955 771747579 220092700 148779032 314029596 659015310 560226951 563924958 405286153 875340280 31387579 638513792 553622343 495345916 55431708 141120093 363542278 294826548 748317400 201531913 395426529 445613577 714108079 651386538 282867611 71752650 256659218 141661695 564519615 531480043 749452642 293413291 329918940 741420755 12444937 188207310 379931424 513491621 17714140 870008323 905784421 320431478 383504645 110026661 377750985 856061255 889759335 932781794 776543673 32801405 255207713 232838218 441050065 387876536 297376060 921833407 779084613 982400746 687664094 828447429 539460475 981412772 653253459 865727299 279076371 434302321 827724206 729168533 755410027 554991570 307182595 198194134 475345095 506311772 302198921 529377 420300772 643950513 376462651 573306175 582332122 336953564 484783749 783431579 858713962 605126890 616808537 153208996 798230562 310096162 678006774 826078815 62055108 44135181 591331330 363487292 187647605 902464889 525130241 74537218 36899400 861365315 2226172 107372634 349271914 819060153 766675423 505305241 404703745 218581221 400888701 939799685 538088218 152135538 916057649 489874906 57918019 781724108 14429469 953579676 931627474 936396234 595508840 969721273 361119247 902437330 420309942 108168315 489680948 136781034 481222430 697938127 99099827 737479470 210580286 896254525 756636887 644695231 748158328 834329342 664378061 449692055 258478366 713773401 783383218 107044175 67622916 414569039 109129963 388073004 545153348 839249584 247621478 751171383 631911420 226185070 622397512 578757975 267446589 184093756 739260700 730499737 448928634 60016953 660786262 763736115 154785510 792696996 966926566 793520996 431005408 550832916 692900543 77470747 859931632 626894254 987709825 91000528 736336347 693119473 551575376 798240149 407824817 252377182 659994516 210966152 598266719 458436346 252571525 188118654 14460699 911090255 299537673 968634253 767849698 98559300 301440598 625294106 630072574 609935404 864749628 541650482 385488447 177640441 45915866 214364767 228759444 990296213 776062742 910814804 243485982 640433724 400707995 1245087 215645045 950961659 2638611 175094939 142021525 490233092 378164255 524103323 598436761 645522505 54419356 836032449 680956763 567634330 353974603 989781192 67040564 34645143 344698880 53327188 742952458 729926701 717824663 125230099 105103649 550036565 269324997 628047515 645271323 300963629 326921256 88647654 994735287 561256791 344300748 905558623 565872271 870983275 126543163 681035843 569767998 708486063 57157386 340473769 188745495 876504023 91037898 568148051 895858385 794246208 362318499 283779648 150658328 559585887 661024910 134658749 765821370 957306576 701228155 381804468 256407469 713008655 48939322 531586401 825216192 382222617 772931665 443108807 787078754 387033027 70303699 245316687 351791697 674624373 727978323 848511009 186289269 529190050 45574998 963242232 358121164 225094046 540678026 149173883 987680827 4295998 914613278 589089589 493614289 257537271 950622615 556730733 567861776 573650178 877587779 170023789 651789458 523058776 938400787 865573560 218610402 208427417 976280247 839730975 558219231 175627329 996765507 754817463 534481022 589924390 217416317 443029988 177975853 245495850 519020555 769269537 744914441 599997211 600954731 589665804 572077703 589072478 837082999 182127570 439103631 603102531 832309547 588824314 143673251 556110705 606274896 482116292 310048085 340876581 91349326 395312398 40016325 899973972 446731210 887035285 507822275 686912169 713264642 817799622 169800537 680706288 342854584 412197735 796387489 761377910 212488432 874983912 226154231 209789209 375605950 202449449 830686477 876800206 412571772 329283061 597073243 948996140 470598801 718144879 463248481 107145486 426110215 375187235 52353599 882731656 238644083 9566728 81117803 566784924 993331436 318577722 281436050 454979679 806258920 939697646 223448448 690442688 211040913 550775450 14765873 544293837 377975614 258668771 759942657 298391521 485379508 928455246 469612504 173369399 156121009 18246121 636706253 679019672 666333462 432485291 297102915 827705372 362742264 4719506 9167319 852153621 522769810 212732101 317834127 305583529 457379586 647971941 953205327 460948288 599015329 238427369 615630265 403579648 734356357 760540900 931881872 643002525 78287002 577805193 182329701 269059349 77718925 420785513 957332755 351596767 902541782 652458566 942334260 764969462 734882614 851690720 114021060 808519297 644400748 740295669 251309578 893970133 813202471 530728125 900232979 675027651 544869203 152933596 547795876 175948275 286405249 734795923 29079841 736011867 184190082 445731007 265746404 461685131 92822713 666089307 363765059 609079447 175093876 273272484 629214414 348922436 519820975 718611271 552006244 259701380 882838353 204037503 352116905 166164583 184397987 696976683 700454928 186626097 489663139 134924059 490653503 344281845 83225702 109877511 964741999 147675268 150705816 759331625 785698123 141550273 986342949 459844105 631145932 364951715 507839112 63523277 835801691 712462393 488427452 219221482 227119233 746800321 684131351 383629548 778269927 768092884 799901618 275414104 380280062 161657988 802899438 715912444 954546613 932492369 629502226 447808620 487516614 249527494 608677793 113228438 51704235 816948746 855504751 416193493 870008784 369213196 147466684 267515094 867066348 514379668 283476889 104140933 364636404 277304547 621018129 945019528 197887406 367266639 815782683 627068707 552046869 932096176 232710180 165502864 696883000 91444692 995402565 511026740 549126286 315772132 345923598 388474781 691013644 96449435 71074352 477799239 289346789 820244986 970632055 305234917 733181578 26907653 698573862 200121058 108039634 188938422 909986532 29157225 517283137 796917131 513343009 254277186 152582142 58073171 582709364 385197640 860259255 184971804 842264018 558900994 517705409 430252131 253488785 783029534 527810393 5707872 553927970 852760433 859050241 289278764 868181402 370526241 670824148 112301406 102320307 127722489 7056604 595640308 999263852 753606181 200716397 29078535 433575704 758580152 674199193 738935731 860747666 140245997 203885424 649741949 208253104 947456575 500843299 418043763 287339821 776337269 685701680 104329627 765350256 247287473 934320279 722994255 966020445 154042503 145730143 373470192 177297955 842167179 206158422 261261037 286731113 231530423 511608192 951133651 750007460 265530451 576536216 19703909 750347449 858425822 143604976 999534740 542908695 670998966 780312787 116583061 786626135 530250800 607487719 304750075 71762250 906534547 71042291 367679462 380971605 854984538 320921642 55314232 318855165 579200022 142123143 450418258 837069562 515577395 89636344 265135389 141585896 987655037 330551647 643595190 500526975 308852753 289108035 126106614 804432630 172269761 207535108 705850497 939409965 971914909 696803389 366352909 190376968 415387533 138862330 312807845 269910168 938179897 983343810 420470239 149543418 172499774 194777509 489681055 517585280 402548132 895775257 863433113 609209872 672527250 702666240 541842286 989705102 718632695 167959063 641834852 380133038 221063803 194485752 155460926 761365339 390232171 803528941 251817602 587974793 932869963 241319540 547893383 388781979 55017346 289462260 361846790 368350008 433735469 778390181 468570879 327713495 942632758 95345137 800692621 213303301 789130222 26844876 471790018 856811631 882673224 807215683 328929882 401719898 232255776 438104392 874849572 128334171 366662044 879977283 471607660 33837581 276520798 243042281 876633557 299705943 623508661 931214649 512095822 970049435 327148436 271572401 601824047 443250098 264958248 796296226 430292918 64249320 156579230 176119730 977755781 295831301 642854453 512994214 611829781 160432182 37305184 392338974 521552885 526758732 117259346 482756638 122781933 522569334 721233636 207879315 316982095 735495048 910641534 70482533 708569025 383334683 89944336 310993401 460787767 455876390 143899156 343648766 658139176 193344616 440758292 870074691 179726522 970784974 825353076 2856969 545969504 102436497 5942374 481243879 559089831 692234673 1502902 238532793 176730079 968634045 479689411 307188057 36524453 502822176 80407975 619350083 303747342 790841287 962587870 993438836 91977012 695753444 619318317 779139190 21669979 768323106 678801235 266266470 52956274 931979245 722472935 740060776 792861439 700462129 421759559 756334502 369818653 978568631 353293043 302243966 223112310 145141801 793842224 760574269 772607529 213992268 114631382 80764566 148415525 924750931 384723679 564167191 57381103 161211890 660812641 999550535 144263564 606050457 849541655 767591973 602172755 345081573 698691556 537637207 183377293 407774296 884304541 247362650 17688661 540889532 534204032 496742776 659659777 483324001 87523902 827060957 224472937 929353908 96761588 137546146 215078580 565974612 326979887 233938395 87873650 228613233 474345901 985546386 98622903 488245641 262143708 897902895 420588775 148002661 879444068 286733664 468318625 432107544 739762369 828051234 676236069 864367750 377038854 161074732 420434743 57751795 958681259 244431700 909221534 863515449 187419080 415429059 138345154 121560474 134113762 482659683 156194944 62688126 811229280 606638525 159933481 814845022 600662878 824044903 422381917 62336247 908045629 5282795 896410206 471413864 640103259 450415636 177605844 328364376 128620107 463967887 35205241 285766140 213062124 338472505 75886151 53133388 471032016 766297990 391559458 163074513 891663800 229858362 164458169 115507040 622712386 85249557 636885694 306767766 481228721 251549838 503054994 704414607 112964296 368693029 38253866 243374710 611521628 250056938 495131470 810514197 489134443 345708246 730521548 369145106 624862522 987034834 306357902 710832847 381908935 976206417 904882168 897562952 527705846 583056614 315606757 619188273 18545299 644445113 783117191 811016419 724498539 951476227 80880189 700179858 802627927 706102706 383742071 156539186 279542945 645872079 65803517 533259853 943520832 851998018 995203049 29092710 31107313 394893087 180538038 941219223 830888299 442409645 437257538 625532542 598861362 507938601 34755044 853449716 781599169 171707406 375401420 830940989 458245589 634452292 998437602 702332571 894050897 320990819 639070501 519435868 434422792 15700094 670889853 638421229 867785284 220261499 730641235 569386714 558442362 528240906 917821654 422384049 865330610 195814704 156217438 40474723 946151174 948068495 923545563 320159866 205589005 345643991 45868795 701093009 68727413 298300093 97815236 887726696 445426637 87953718 995685736 719370521 345279763 937607734 413280789 291066958 948702738 414772463 408619538 525448212 820829296 16733485 84192985 47667458 562661853 887872683 328853110 339624330 582505585 348859287 661884051 694835276 572499330 175991169 97592901 943239642 167954591 967249449 292139723 773961704 10469324 514542233 257617981 671480666 512372230 268186483 788731339 871687102 396288900 141974299 857679375 493827609 171047472 944020623 642460550 13053326 826472018 59576920 827863538 919378303 349224706 873781575 769819272 485440369 467989407 880254724 989124865 683283628 839386342 285787536 760497979 55209909 671360251 964456772 620367384 355097608 686703876 53077959 489358251 436503728 518018246 176879679 329177707 41017952 363426253 266176954 393777348 94108416 800782860 850179585 616281937 621451570 584191338 252477511 871132513 120962728 763837470 195481162 131308986 630829421 528967116 788388933 297500977 874860063 784872249 278197765 693353914 286107985 974158308 937681013 280615046 306133936 708085748 861072430 63857418 325602763 845992001 84762108 826562998 418122567 554410923 625360804 662184671 395469101 118943156 614595518 955659892 174692256 289950504 574195178 808909535 233789587 741162337 865081363 572859815 445693356 506516618 929881925 861084176 375001934 179041314 35158703 317228589 47228369 482631833 822663155 895997395 913631975 79846334 349942918 904459091 368087052 522982290 650405025 365244512 847482116 211705766 483629162 795463548 922523868 466558427 558299979 281498954 50644571 486072880 564553828 691257850 913060897 789919929 501805145 822467745 666820671 725530180 687412806 487569892 674313293 356891939 672564159 91177176 78789752 305509993 114133118 159256642 991984008 987967069 408054558 435254893 807441732 268692111 41597557 680747136 446121295 788684667 604735870 360550235 880320346 313320920 606925071 822759831 104758571 425014832 625865395 208816286 20402922 785249746 986430074 847810051 732375622 315129218 846135074 97616463 654231262 864798820 455073180 229132959 98625822 734290099 724894201 880738949 542876848 222215699 767125844 643388385 750237606 495899933 118707341 592793199 268633914 892015725 406767788 285907059 495051928 175526749 81790233 893985051 361240627 69234101 804288325 139169442 217126142 612452666 895837951 223847942 170383744 433256159 360823390 975661649 364085652 164526544 197923857 330926178 215514247 232381282 40353167 320937126 628944268 643542679 997628112 430662391 964838491 559517389 475718750 404150105 686612535 602776768 54574957 57573678 976493397 466390540 351626914 606218126 414585131 67856944 337946749 73960052 951160683 190066758 683199305 827982494 804131070 860616388 87092092 687120905 460253573 729862280 252696969 424914546 992335762 313744842 93216438 218691649 540371476 416854501 891965433 301854549 489156542 682864090 987396825 100688618 764287001 771495218 530813220 457435563 95556799 595080432 143751782 871665947 95390965 840241787 147562384 63237406 287231204 524609867 248912637 959842805 502333476 272596265 543831943 698887904 157493766 726755638 266186886 685671491 277577856 575354610 927229053 439992780 195127934 601183179 709006857 598748070 247234109 495995204 698655076 822247131 243138407 972487618 631987796 334679332 163966848 944674707 419434847 133235839 882072601 905241813 95282109 802412525 718622844 444198282 294709642 992047417 921952889 997205523 814665693 995887587 149679313 647332160 791657301 126405439 563050614 137046587 949868033 208624090 406756760 112219433 202178956 241462985 873216038 271717574 522990254 750113753 153227240 122474776 615188091 501517930 771585373 118401039 52082118 718666389 98544214 525584524 73000842 196538062 959949795 754454254 3380757 455933556 231824600 39823043 753977431 422151389 181498288 243061698 596775874 395770857 263078075 417303389 362210050 23126067 689107277 826788909 157242102 868289046 289939556 398591934 984824501 667427974 632528211 240404910 610170845 601843296 135906534 954923719 712572997 368892560 560567317 444447618 875024667 90910508 275105919 187886124 994825398 395053274 372363849 927965411 446143014 405960569 538345232 94337433 752035881 297814898 934443295 457266861 543054219 821027957 340358769 399469164 589884815 425273331 817346039 504214125 540796793 671725860 771286213 766757767 715941024 174735972 951686549 176519889 475631575 666828972 772521855 137237956 605481233 640132885 939639244 89569922 626457560 260897366 293010564 430919 49662194 443419530 53135327 380451636 810522380 631386342 962551436 654664358 246721380 846793389 580015400 335010527 172285835 906796148 897011429 570917762 719419235 98539554 829382692 352740208 6933829 777783275 385730438 632520859 357873009 910925973 288548641 581867689 158902670 631108191 157734697 584627638 526512094 931510345 468956505 983320214 929633487 206241500 983567789 414704449 457662037 278063727 645384233 97206556 857891091 904661403 1235154 678205099 333369820 701938155 741008265 891037617 563085334 269778748 764062730 475807522 831504443 265249971 888977729 244957219 580960368 804110116 80177626 2525837 630197999 974242856 856546208 752337405 503734175 401724232 346172936 716966503 653220912 934980557 134097700 570602749 324963864 48541954 553441966 777614002 403261955 928797600 511127308 459047426 204898717 192547149 235829985 779659761 213352003 36830038 383232742 42248537 660410605 428198546 322827943 123104991 729804892 550433803 200721091 650467506 445263008 700268958 213003294 506438513 825056704 658960214 420474116 268394225 755913166 121807728 960363675 103570173 318455741 598084173 764434608 787745123 345039902 895722941 347162363 461463934 848618192 601205277 629796198 227706245 649455046 186111831 124490798 473727413 698030826 522959254 935236366 54135581 683724811 37337060 273213259 641213467 258823046 589883104 350577427 957194131 593080044 656090705 747250573 338556006 225729667 415738745 691358362 382989545 220981064 988267422 976119269 11591380 81023664 460084198 408456381 900978793 790463081 199437390 812400366 846896062 21461734 402125290 159725451 776261135 560920255 205035852 143156375 336672778 310749803 601121482 3922990 410472063 599449769 475144036 773721131 262082550 350196085 231669953 212514832 286656348 176890626 788422631 141958431 297160987 756738125 661972196 703114266 462934124 17897442 78518125 363297241 944110524 667779500 515000487 224385841 664854055 744318193 277177821 389611120 277498682 490518102 478015218 241985138 315097560 189786309 551362207 178573749 743324206 754280603 305059518 748807677 933567157 618160549 480648134 380316761 599231270 147176567 23997971 373454238 477077050 512130754 801503121 392085417 85074177 981565332 679359575 739182060 556334314 845705299 49587077 957313069 271693316 111467932 214782032 145046384 330657077 448641709 276466356 355282902 844537203 886803736 874282503 848816341 599766440 405093708 279833378 899255648 84163510 738134113 759513013 436758214 987458329 598521787 678699256 786616651 683337303 685842376 823860196 216942730 334613754 458050223 116550070 395121370 656313049 12353731 363178356 380574465 270425689 303003677 871655955 952489677 152064189 443133210 43318618 621317751 851911157 269846604 387341128 219328734 906955168 678285937 841078131 371312596 939801221 691322338 277009816 293490339 894058680 887101935 844101733 839723116 889222065 301020001 114519293 882939290 95728130 714452739 774480329 898855994 928402827 430866964 690719741 316692485 149338205 972961463 428482460 763081359 296771291 148189675 458345620 943949722 170263882 180301698 183457851 263586516 466162662 504831974 830935755 256880065 508089257 617754355 987953571 896221317 608837103 924428041 450604233 361521831 687646529 84596417 734960414 115155857 999895982 207416280 839336143 940638829 443970662 331379028 430044953 133144688 310745071 380607849 817900403 957637216 681326365 808312263 569877333 256451749 978449226 244825041 801120354 451770081 831221333 995529267 283312953 149408623 409431449 28448238 282274522 597683839 90709030 131807086 17576394 292955400 522176979 882385753 931443539 823853002 901669965 331334234 83173926 295062142 982610231 107442642 989923312 152615909 215727008 490499497 201193351 301745534 621421615 447532164 909676592 532096439 658497151 155397471 77466040 178921320 786701686 211688004 800486444 340536451 809546581 201640646 202981562 546235150 166855753 913824690 706098726 205658340 319658930 782416029 135131485 306985497 656283566 952010562 688263258 810509954 452686004 529458632 594490913 71815946 80053437 949292209 74104619 488574989 275135982 373475067 186660696 708381427 30129334 813898844 760603016 128917153 179294628 95864940 454150575 802563241 388195706 735606727 815107412 661578990 573150203 209756437 591679542 946289874 847999566 440932162 290115904 201347791 644759410 192789300 825996529 284088131 471470922 538114438 889525245 319693787 718269778 952835242 499005742 260057759 317513785 913975572 471977352 105259442 123705866 507558663 359172421 136972483 65468842 248268753 579998106 739538649 90260846 639784718 955162169 985513522 158576841 748936285 823049230 204748762 959097381 666790301 227739404 530185931 333700634 740384622 683088709 147272129 581724472 114593054 312288708 322425915 634900867 931634525 341748927 606974022 26898726 763430630 321427892 810584470 572258326 456588247 122383567 838120260 560135175 297560942 112275714 973637655 160860309 405973457 483159714 428975467 339227134 335866328 818211665 458005144 542857365 818080196 202372273 511916076 992836645 804699182 318133556 54664618 443866180 304652 463172421 549144640 671989564 121701478 901907958 467275515 679705564 471820158 627848774 106073348 444152692 869821518 589943497 504332396 513438944 743990382 442833841 343210347 227506800 834179614 424591723 165824174 417402680 496239056 238312141 293643264 920972219 391656813 708274636 506491767 14501167 61467718 287326536 394955218 683150124 685904567 698386409 551517058 687425936 638063611 722177887 401497416 477118752 301751928 369779197 992977616 895565047 779045412 950280491 703120513 947525347 594600348 210332432 240913565 685179687 664283728 103303990 12329783 478145700 475076719 692840895 182162196 461284753 201033209 298339859 880816249 258884328 345623275 787934092 343546509 511024902 986654213 720984753 388678738 744712687 873650010 216591517 829872031 578997952 599515742 4402476 394383327 665558521 477052540 709141298 789216787 415686580 65670760 64949653 299294742 743909707 86052068 745636060 397174900 562360346 114266466 408043176 376824922 382724532 278936212 362818054 855119797 187667663 728503900 211636967 129928992 729087325 979198909 212061430 927170278 100392111 871134163 193044834 473720855 200457020 752325694 691251644 858800373 790792206 991019467 966838297 45988156 232462468 586713472 180017057 609006950 642429096 634688749 424897864 860259806 771566833 841395612 784848800 287828896 905910762 376271909 490578518 894358533 564108387 23044106 287534858 751907294 109746549 734520399 737998317 491292522 34983659 596575569 439227760 379618754 250391285 148957788 852165335 508357634 61871484 725415943 675760895 42425823 383589545 592768477 789079303 525425222 539852671 846482723 405166387 732859463 894851702 337078656 291025197 427943821 164455564 773073146 358414092 237456479 93520806 556926919 628332098 192741127 712727929 923802520 448016507 743827348 331815020 127870428 900001237 908179605 853556618 235300801 748540942 11267948 312224721 120921643 754150185 146143070 696282851 141383016 577325583 654698855 854173136 21877913 980299751 253384279 565417003 646843975 458284366 170793247 575466029 50364474 128819751 182005350 611781430 873893708 764267365 129519523 53868683 911631218 108862329 86237054 13203453 847842797 356634233 172966798 912970901 516197635 453908346 633536260 37604973 189526951 441682871 865704869 266467839 272710041 549535166 611325520 499297541 833094600 485169841 452920527 358855685 620773637 719596502 516406584 511608188 415273910 930084256 695226734 550442034 908974155 741876830 280630154 82145022 580540881 155024379 594494732 575207794 472915757 796915550 104808211 496904659 513168630 699537863 453616035 902251922 861564903 339351718 694116377 77900754 300329936 810709744 165026032 321372216 125749418 519039349 563234305 495518020 442006185 353409050 847996678 859447204 871688760 402849952 232293194 854977115 963075525 120989094 609831407 650375624 227794490 81750037 744971153 191307470 939799683 378139229 542575968 984295379 952450799 816032387 597684129 700140015 630801982 505992478 171257807 101000130 266653878 381415866 293968374 254097447 163015274 380786842 996491788 335934385 388493662 295084782 238071811 561328285 745747418 267590138 748704374 97314366 160828740 235605050 155674588 675224 568450465 284529454 486989087 748976986 486713754 105848221 929323983 326586369 300876443 182418946 717009335 883664233 369217129 890119361 21206979 604160003 643109163 996509504 341133691 605405979 347055737 634546510 958977439 36357370 371949408 618779797 404123846 113389631 331925305 955971257 47903514 621713423 260572634 891009097 618308419 65729354 784684849 370312048 85203020 726187191 273032048 99808410 858180626 284085195 180983190 4258162 111927430 829323548 500145433 846507102 651915082 527187548 686692870 97152476 23663710 633725821 81722757 104473697 781623452 33001448 619781869 442969931 148523891 7079115 38947783 441791959 282041290 483955095 241384661 237524884 67710018 11574897 71549409 775547814 777299039 832045167 901679632 21377634 901605420 270752345 377167042 726353601 387140123 706122507 894103277 585915044 318304712 911493408 124126907 793241620 537839285 479289168 481377008 855270451 815365947 141474653 736047784 673473655 360726010 430692099 867999093 359630024 455518314 395364199 133466979 944148991 505363397 349452283 679794969 624294387 161974002 746998070 673341540 292536975 629136629 329848131 898626715 8541379 137023430 82009720 159863604 444713806 725025897 989929772 4784998 934716350 145688201 181465461 476105278 744070814 114554069 470814961 468056459 740806823 344006079 511002699 165335789 17527696 109671601 911060594 101248977 142423794 184879349 256844873 380191390 432758460 396428563 847186440 398375127 684004258 333404587 362399710 662183278 530572494 66227981 390563569 980416864 614290024 862914960 504296404 412669305 285373594 916283760 532663064 868060413 50182731 549149996 928122265 620994210 2451969 539026056 592465208 859097670 808965988 847087867 174146623 30029806 167546770 863801196 92031028 198165806 637422682 208123497 471233617 41716713 878793329 671844044 808076856 600775820 676482723 313341412 665212027 92755377 991968281 898265226 337867615 285151828 314332839 91240600 481787073 63309001 534334828 523984346 489277655 917750829 115292237 931288942 552521259 404243357 615754396 931385936 374228320 678910694 87419397 491742114 823437864 167492879 500229715 587455016 655634045 42564342 790590797 129637846 306613374 907415618 87161431 956071706 856871086 458194059 805736200 438698427 169052651 678358890 811451134 705451305 705750878 736944400 560301307 614830559 388018381 670446032 41399614 733866222 101740279 149319536 783257387 131750373 162063673 495778460 835681469 665321494 458921948 230270341 887003205 411785654 413973530 885366054 898886841 711743896 544195256 754213365 93230767 73529486 874178188 418901264 881116685 188183287 342370637 652092890 323747067 844383080 231714182 386925344 716819981 394775882 262278823 409123323 353618946 458457455 578706343 536164670 862397469 743772582 168409861 165958787 678487967 302261966 442489612 262592450 288989490 603410773 967910604 434546940 865762287 648180599 340406200 331785337 294365252 162625677 623344600 758068692 590273813 924473735 995203161 560179230 903724565 232129051 674462652 431422766 543771815 711628251 742417716 264003511 592738536 953279441 260668841 160719317 64551308 878052538 412577454 472821198 605323646 317511795 274584224 682765209 696324834 403349138 395704328 147192007 833996543 412680525 354610635 228400000 208803871 173544396 945624840 849937558 759415109 81572480 278547194 4321714 511748803 25165615 775485856 957308610 584660002 759967892 330576017 399687090 866481785 889570138 622182581 385746950 343413799 982545996 644265206 31962467 35089313 184685844 529598187 764381015 171453979 209981091 477472138 336099100 552105579 361305909 355261462 535699187 482770807 205981861 685305495 535421823 728267074 780151790 917388999 417037281 457829610 616888789 503857077 504795099 90396212 3627707 898468091 768640977 480721354 728988666 748777587 958895473 164604479 780679527 801251791 787800839 118104507 948751424 273494460 941200729 224943804 153518344 839596609 328196188 550373991 476421859 808164299 882554743 168579227 521826180 289379198 336097688 940862651 916195416 122700735 266497940 409271978 543522633 88469601 183801391 795135262 892633386 447415057 960129644 183037259 917057484 18189733 642806971 256889794 381517385 154513583 263592591 549765679 55225380 552196205 723099090 520824576 969651996 233800076 857242397 398392035 881712014 776161152 711257005 317434912 436960389 981289820 878866554 591225816 34335601 914696238 568394589 457778312 494063207 724777756 218856293 34133907 229491883 846266797 190215491 481370707 842130159 934717645 176412363 258192116 476926539 67960859 200731814 437082362 273160816 40623018 629111398 371368422 487291767 450513134 481099411 220000168 258869880 758827852 772539769 554401996 26811911 620377902 222546242 8215185 465611702 416888234 977837047 443303930 583170514 241904891 885610208 488369755 464183774 491679114 510625642 883798082 745881742 476032037 731478816 290041565 257030073 838860518 334929720 504583959 407905745 223209577 135815440 627694087 448477350 967178050 264070244 36779806 398129974 147060841 294066987 660304889 130666741 579153389 469577675 838834193 394021692 425197776 445965253 527172157 400208125 72271899 443463762 371367028 876038596 84581618 419460778 467176366 842120739 991767231 858633412 172818432 63801875 748884715 548482408 806374698 877481383 869306264 854925031 801533952 269203019 336408775 460891694 223432429 567645112 727329028 298667668 259409041 116227084 183425673 942940731 671033707 752348240 280613927 529396372 714882786 981061616 741365620 567850884 708669713 189306750 757178119 551357932 372079807 749785886 548774424 650102856 344286887 254043586 30082932 45868128 375716753 706933597 345464154 97862454 933281861 314603900 656631831 356116994 326839965 743127667 426818798 700812548 717452540 683350891 975535885 182259024 664755478 275505387 378599397 211447044 730778858 425896568 646349953 428309759 999868192 360093572 475109239 830076666 890010670 192207334 77869007 890426101 181239840 195550738 927489977 554335493 426814698 783497013 776680478 636734763 473510332 912531035 946128299 204511395 585668138 391639942 728522545 206061611 924403524 258919834 197150553 209676938 159498410 108926601 981019392 403595182 234561829 438844432 992262747 868872060 639056727 176935801 708671541 748648319 24810207 790087628 963343734 473792986 613429939 930030334 639525698 673623279 24308515 2684832 154938999 9084740 665132752 845773743 638816991 264967720 365209309 874192154 246496840 958027720 460742976 406559126 669760098 960187414 255635576 298749753 386610542 925733948 912226904 93154089 921472971 351170905 837743471 571113469 350919966 131271913 9083072 889700860 123889568 636327892 197881958 966878725 89746180 82279593 413533873 59253658 58169828 88274662 28489233 500154072 183122864 855259467 690334413 370178870 693857009 454756195 709899893 916836984 742350952 132238705 664209450 687916247 859580015 611835643 418610962 790228634 409596316 315979048 867818803 986664036 867356638 698392244 736566521 285394827 958469763 900697481 238350984 325215734 661117160 234387419 12942875 352081470 224541341 337286668 584522808 195545830 861047599 888357260 190563058 15379754 934883709 410997905 52173479 567735719 899709317 748306154 335786801 129083124 128713139 590279690 153018206 275362881 281840590 517006115 287210954 525329205 226131082 710716310 722659286 247300727 828891658 888970916 842476046 253213510 79210728 381751118 734303763 686338117 191991420 939278267 452693206 540970299 280474802 764531114 912340939 29007069 536507722 692240665 473720044 793971887 246364476 800677751 145306667 269874522 155219434 473909019 390446140 788531358 439565576 513513048 344280389 821870116 409772676 60468799 897828473 164003651 589247438 809707770 346867623 227959300 446718002 957756763 608337091 941238633 168919228 235986426 637267683 104759787 460997192 517204260 492906496 6318698 376819387 563606623 644653103 595329124 401108794 443278414 392513019 310023219 550779520 257908250 407486391 944331921 771337265 112562881 410616138 803024668 983439365 521683966 511683246 277414093 288793683 182764185 852972827 114982759 628323869 782301939 268556881 80957500 589494487 533185267 325848604 528290387 73026946 628699897 372097038 238591135 644459631 222236110 115669181 853033323 622596368 513427317 959862776 491048685 681647634 127136330 796332425 156253863 391511867 696823839 489748687 701289431 369791686 409605738 806696928 775296114 951492560 703295805 282648975 682008311 629737786 740620952 111160319 243508236 891564968 697466056 414183819 972352147 797518372 184969461 972107008 524475743 836361873 272492860 440305384 965561568 89983381 776107207 787213866 3174932 783027021 632293013 401593016 459930386 404317054 80264777 222921821 822056028 853163687 133075885 972916968 654263242 100832857 470162860 287569258 506644445 808114863 365519959 953352282 989397454 528588840 84197948 358416225 851199937 783665775 154477550 317579570 117158794 115912544 916527482 628833984 595019243 683416839 183024394 258836284 936275737 746377725 580021771 921712324 667601161 301124551 422599743 419082101 138885866 852007801 693578268 958947097 985253203 492311281 57712978 418108653 2918018 872568261 302235027 884064154 659079904 168778655 262837816 926073997 148861509 458921069 545206565 105561392 585719014 239228218 557688764 973052400 238693951 268445481 248510558 768942528 58619731 239018966 21869285 461122472 748565912 221247480 845181032 85092794 543126075 93202623 140264353 774283623 554935155 465773899 718489359 121982468 91327514 703436428 692280614 773991046 282025251 271910413 573031537 696358160 47978545 183906081 3980566 120615530 155573247 258758198 982047487 265445520 380737767 352237972 959801547 810340224 978375785 767280750 794344189 57163163 48334214 110136505 709719463 188322849 421828710 252190396 461040140 763676849 303083494 554958749 376684190 972372301 759232673 222368615 221142893 544296646 127999853 821639276 774901565 226430696 933477876 537005381 231170912 345549152 768638950 289607448 674096891 465248985 51310662 672118754 988253580 743086523 81555224 884376584 220802107 505907001 390512331 200497604 968843169 515051530 39364327 900917511 804093393 572582369 974020380 619942328 834257118 359555053 630249203 802682469 513105898 180818931 720096509 149240174 833822020 149789817 345193815 189614614 941377755 685627028 845517166 811723582 676429183 529305813 600364495 914872373 717141779 893659279 296014179 559063134 886848259 606265762 436611194 826075172 190955180 583928660 426042635 407684155 194818217 106676002 453283397 30171443 74181596 8814772 881850231 695919717 880812154 331734252 612034542 599066079 822304639 105667577 52953869 136375607 17285218 997051719 252108439 261851801 631385273 751401308 785903411 45703980 411875650 370528846 860897816 539802091 557193996 406821281 25817794 607538778 511535389 607247366 56280260 783977999 954666921 106020931 606320332 295170090 276287301 654169852 437789758 532723721 536428706 736762706 789484558 467525686 290834018 665051649 311903838 38719017 48077329 804291331 10163898 441807089 122812013 679501098 600427613 852403773 419845853 557211725 907863589 33695561 319859800 664361477 926622364 739522865 443910165 730443412 911424579 497141554 413639699 22548364 110995146 647337113 774010052 573119262 971466545 106669808 558393976 690120251 536695206 568904526 411588890 994514666 991086914 127924561 643768746 934111105 767936077 58548735 764602028 825892469 202724276 802497953 106526250 57197868 516307824 64302370 459996713 375555094 586608479 885337495 956234604 557297086 477514485 389813235 996448543 631494753 527476539 273221035 10134286 139155199 326351520 1305739 789228808 533070700 558949478 876766895 593359823 992672511 118305327 565322503 950847 668331805 307619852 560310207 131788342 274485571 780592260 120555436 303278829 258290089 509159930 868652762 530330738 976493749 137155458 689671489 829261374 698482769 526781396 240387570 684187863 720760117 277669372 469763131 603646835 44205080 867341374 687355221 980756238 718108030 44283674 819547718 260023990 794199581 793290260 470718642 869628449 656966803 544202544 106090707 470027223 345325640 19546841 59404681 15296999 28861971 211177931 690583108 35133228 472859893 100116259 36867352 430612512 705440606 326682809 970048111 345139045 901876184 938940345 925571177 92793163 842118617 35138669 408070570 882117695 5710865 957818150 405673107 442849814 237625926 125556297 754675928 507896359 349207564 607353189 582503983 785476026 60162513 454620106 574148 605002305 52731102 95500589 550206980 466397907 349614695 673386237 86951019 305912707 343117329 464626651 176572573 972181259 212487920 389621951 98873667 236428077 19930395 633155784 250390798 359360597 308008150 827392830 696909676 736001335 913440092 615427288 883798085 109386253 489888338 869089492 548518543 96930397 557446578 447473131 736609111 441807648 474250427 908495648 62833952 594557717 172578821 625725799 746487836 976148355 109571563 38812421 482019148 922315285 160093009 362143811 629084619 562046792 632869667 754256530 710978375 353513290 753967020 92342259 905365354 158792281 390454637 767476757 172267088 11496760 717189927 152738641 675220808 134788863 409437201 282513115 634968671 630357818 300253509 759789667 903742360 723086343 616094016 181254444 941684484 252481361 442477674 84723922 628262244 180636833 192319087 756526355 85881158 131360591 947188649 159795177 907064949 505631816 583796285 332282095 334100906 947562191 61406492 703683530 678862957 877159276 739034567 692364855 336738618 60028797 797451686 72763691 299845579 727958759 835951420 755519299 418265763 937142528 635329275 919696259 993512593 13464647 425778363 95348755 389508414 684543687 294950837 460820689 31906529 322064858 24379578 972806738 694422703 502278378 361338787 432926262 813522558 427316925 764616268 332358133 249527560 395292630 152395462 115203050 311713039 450465352 995693432 238731702 996755047 349671956 320222342 619589687 384737965 365940398 156077929 157900762 882102464 40006323 935433550 460139805 92965059 553180894 946521972 224831104 44468081 119001801 290524165 95383593 54412397 856526489 616314844 339159623 120597464 97795288 895011891 618906427 158175798 279251691 52407055 915163424 410017421 866419192 246373833 368718906 907532617 515209741 215522174 65442171 947044273 398019649 101726980 266176575 580687441 895074139 16677177 157550287 329444457 725480465 95162076 433662073 410136610 627534724 559126659 812780811 539220716 184438242 470438392 978597331 28872360 342789435 569609854 407648581 740938477 75508443 311109434 684185541 421170422 79102066 56532406 813572194 668043697 648660309 228197756 153154351 799327600 634327842 112718823 211685664 56500248 161420844 472172568 270882239 553380906 961544599 59008502 570256732 649768062 205998590 305376414 613127899 656994216 246314266 667711762 642520651 338562920 485992857 939589748 766814441 996929470 907088931 59392420 427769441 849553427 279234540 155713340 141630931 819499984 10029514 664708442 553831283 355562425 414265796 773558123 826669531 808827522 606404034 75829579 746960610 194960931 500224892 435325056 893665969 19844654 488226356 702813670 588250188 371476225 780129894 23630763 342367155 231566660 625062520 65194902 248987947 859909778 921260614 681053449 13867717 175388687 59535924 84669797 354036758 784617293 698236397 915135533 275472723 589395989 186916180 249731735 363443549 316550383 279892072 757387560 242611458 690081970 396940262 725330658 120365412 490155891 928489057 285951291 898623156 551265871 633777345 187501655 947660214 356133095 342080065 336611172 127175070 903203028 670143503 588429937 361867729 14920310 66363092 577550307 168706136 900138861 844716367 916205213 40900795 728803154 706464853 875025118 96462016 334336971 74089754 399141979 402774631 309508044 619833111 940093043 206467493 483850776 336668961 308746353 925924238 302329756 689441796 617281381 747713260 886932565 614878339 692471887 673496177 827554776 804756532 914826693 443782359 769985024 391585330 817370985 531233578 22609212 932839203 428468898 759445429 520310369 458017205 889648984 435099898 526650189 237558700 72186402 819867122 120565235 364114286 991387520 506509253 169027418 361998674 472950260 926208778 768615474 228920532 476163661 709386089 707808746 80683966 779543059 848490581 463454866 993487432 776689067 260513727 65986393 464643644 562017090 956938394 167394105 161967591 165961942 596736914 536521644 393105731 906793491 269673188 684776442 299528862 601489408 883688754 93666838 937401677 501830982 978809905 35437717 546750140 378219609 737230890 144045302 523581348 560400432 978931406 384244824 940279860 574747905 155587671 12939578 739600713 254719418 642881189 846133965 266665955 802357204 231852774 776773427 661678047 492239121 479254239 730989105 839932356 881097454 819393083 804141659 973395033 276421310 999828146 936573637 456454231 659823255 306121349 13837454 430787015 105405061 793143362 473655267 739649776 82848118 927274084 455777951 122925499 544079320 683143693 792809690 204992493 758360117 773420160 40429445 755289849 467035768 793130065 160110824 606053787 195982411 419273263 777954141 305376362 326388819 974412666 877689689 736500928 917444204 128399204 589534014 386929885 981119206 934623391 130784834 336375850 795532275 469445583 467268893 223646513 645520547 82960177 269990403 721839438 119568032 686650050 145525778 663740277 99966100 66722480 502118280 622758817 824643843 314858690 25883169 347512871 67977224 389421374 904887685 618482275 618596829 88395553 216004283 104027164 450614939 175004989 774758510 398399746 775314842 313395090 709256939 697332217 86027716 899074193 179907185 75880589 304476929 206518531 513271021 42220478 957197208 154467751 128617517 838380539 404515991 567823345 86818413 595860311 903865540 372603796 21570116 426289782 640071242 616450331 833196862 719812441 431305518 595188542 554130624 765338629 540034482 669483184 637131270 776165583 98637334 991643536 490207834 101250125 784275182 504210423 561172247 665603886 747956444 653329826 539333170 53401667 336328511 744167212 189981675 884278128 442779344 270365148 578529349 473951657 981083329 112563947 679185593 329140672 633296697 36154372 395511846 422699825 24267067 763344654 137590172 457054934 586513654 46392894 332821524 997958047 502540247 693647318 110837684 727984516 358014677 589163164 264352941 87241845 119129884 705924953 300273032 295042536 653844272 982150341 65626252 402341131 818691978 279090786 804084387 766088628 446615912 602554814 486932032 660573784 607004514 22489063 218580 999467028 668949699 904105561 113643048 829054533 596570737 112957947 540362240 522279425 764400661 996751060 991252790 362314436 518112713 459412981 137276272 13744780 81040193 236146929 761543484 841122971 534550838 820569882 873736126 606472394 607614583 296701403 5758008 103574754 288572632 363493800 38055358 292116251 675502184 852975240 464971767 712783842 37528759 501114157 398587409 175587041 484546614 844187280 423510405 122431283 871343217 532785383 769622720 757126696 306473189 775910078 123322908 140108272 898187721 67045090 510436407 518138351 453136742 622418697 491432821 261093701 334097059 886002784 589861841 116451131 247040941 351708803 881830878 68042188 82759840 118941477 130692605 486153004 381512061 620315124 145362376 21386445 792968949 522094554 396702728 469882064 401879890 20013522 730095682 705743620 997763494 441094593 449718635 693754863 402319499 904492686 305775446 530525468 414809947 477188916 846455702 890617262 458718080 624127071 568049666 804217329 866166220 430912976 390695478 401943734 563111903 869776062 561103114 840020768 14521373 97202357 414904932 834407329 691855623 985553330 896228349 602212162 722015103 996353466 193120394 671811661 630483466 529083181 232456054 984123056 461664231 819550692 23387628 34722520 385069021 891610419 761819736 765681663 152020638 106545293 688056135 798035722 816552319 527855144 783280784 316121039 291772457 535770635 498626073 471405559 811745993 962989783 109739810 269948922 799311025 306300660 7055931 323241002 747809415 619442387 610944145 854467294 96158956 560416172 496100453 910320422 800573575 837885419 108390928 659992834 574542303 462162587 133077761 580933759 682303625 471373476 322918396 643907316 56407140 236793448 815645635 268792668 172048306 985002984 512779771 323496926 862645257 646044549 902026159 796567841 905561509 422300001 672898162 791209353 702110991 648785424 506248639 7678296 234159939 83260122 564825462 947934983 391517830 700535478 286517145 267076166 760712177 818811148 134802373 10722986 483041770 428602074 40015814 20853672 637062889 44924292 684876430 263781286 788923051 140568872 929207742 238578873 159455118 8488535 986981942 935637246 315400467 393103985 955755599 278767527 323892627 284530136 646778825 905746303 151229974 785609227 263946268 310701107 324358452 410498877 594661791 505354713 144972423 494291543 189746709 239423213 556239677 630500589 992037435 337369516 708509381 118828954 128225679 634394532 974401952 386163978 158667069 261300800 645002278 326305543 795507828 104142017 781095723 90101178 921843207 151882241 529709692 188716383 868725246 203140478 283085614 221386203 135346641 492553336 631570359 952748958 274596981 864266169 221480162 650765426 622318341 455822176 912998869 728837153 331895836 816004538 290822864 208701413 550050911 536318706 939196305 394251558 583266744 706747064 571316539 450572955 993810459 835601347 891179920 21588079 627611175 688079487 46995025 362359754 201972817 34876984 224354633 136661748 982952467 6846466 139117527 200000219 720326232 768515687 271010827 735634269 666923344 564216986 212182178 711904477 184373085 544488513 220549357 841613593 509137917 891525824 145503447 322963025 777453212 73918498 57536169 911545257 263879775 211071319 310551772 546970839 283507325 793718143 148723820 105384588 926661489 282524410 877282748 825847304 267972910 831018667 106176605 932484700 202271059 922495744 866747195 361949793 740314839 168391228 464492798 682215240 528639774 125294395 824710200 486945719 959668297 521704684 555765837 538338699 650271586 872962082 254761392 479254511 391888504 203915763 764394435 614152324 926152401 330456127 19420812 388179977 346675130 226148675 644647189 220287650 761754977 56095929 337537448 724682148 476962864 164110623 352430665 177417625 832177453 251149392 444385504 857599702 159209751 102961814 463477317 742303480 621498374 174463686 286020761 845172690 815402097 572123772 291490163 583798381 514354408 328871362 783706884 106856544 58416491 401288810 590091939 9062366 570579692 22681140 934499482 448667119 354150984 713884550 961309316 778209503 995573593 192755127 245932259 695847638 323340322 927330685 842487995 798482268 725953998 606840309 48894200 31989023 667851478 602091195 423443395 132758425 170032129 417733626 30566010 224091703 369014391 671546810 504628118 215721758 799613693 585365915 23079590 637566810 890323881 807882279 932137026 130519445 874642082 521707889 798840275 931476096 42178038 258220231 520512411 381147353 945851214 187465706 336079801 99622466 868994214 177784350 476944051 78140294 1742490 506895009 33492912 346198211 168375553 897060585 124161240 13997287 667566009 886590942 661027288 278397667 718868305 691132092 441753576 520120181 98478118 209142602 667284448 179186392 812457488 50273966 577956125 547652265 792931922 360851282 899545007 898095112 776878044 461051022 308190452 569954904 436549434 190932062 901393528 734341771 124577853 66928732 665266911 102953015 917964169 7878663 291299566 565804604 730065313 6747463 450660935 73769259 588686429 677343274 912773847 23719315 307459419 202996231 378845380 94248099 801316820 616652917 790396652 302376532 540414437 604794037 108352206 881030145 97722827 817423781 579180181 657350578 495145162 448888830 537410111 502808111 545561762 221698065 822034476 700655927 185892672 739483204 740070920 166289254 533138657 207183732 652484026 439839969 910559588 374812769 620051214 464466618 421037917 899882282 517299094 620698904 769871495 809832633 518163299 119480763 578991016 718678313 500369715 492471452 433405314 547423921 29629728 835201665 186878177 526592453 201270813 585202697 814926960 113205399 288766041 814461855 543393440 598879636 559095559 893581531 12895368 233066701 38622017 856690934 429717377 821912257 304674431 291723222 277559668 683153574 245400528 593437089 925944092 763737794 130182061 561877168 702489670 152908669 904699443 650050422 14946126 402188788 969563673 187004340 722790619 775877207 196080145 299970819 507291213 361077222 151981330 181744543 364370119 134985222 651814937 608537252 744623174 719805547 357421910 777691513 486227284 644370421 488570597 969295722 104319332 698712588 666650440 927718556 146967996 988957626 780807757 212292582 363506936 530397184 422174122 377470263 878153629 30818457 387647132 568188379 467811673 239921838 733423017 20170818 893771607 170814409 108800021 115189490 936606186 910799850 790901208 555855752 301170264 453492427 34328024 271336537 939310774 709705512 944666330 231966112 979410083 602494846 74580820 154081059 870102823 114225902 643033508 872449198 528176122 751857310 75550195 271872729 984478921 65616812 883958090 87446732 356233185 640408388 371516364 550790575 566902674 172677046 585255163 13457557 893839388 81526164 547018991 102119652 411755538 880119534 388173864 18729783 306561808 816779366 751871056 464208141 879155095 468671492 642979766 862826109 637611246 515928863 980589951 198871737 795571238 836076671 747442572 482433326 510614370 379085534 148216166 798736175 427784509 323424929 977511654 711385678 3958871 278152819 235580942 205867550 921845012 738261027 277723658 165479633 100987374 943872750 555349682 150926430 802907114 659925792 604818018 812977410 47830093 904284147 836170129 704033127 783958821 45541496 393399732 548591403 128683510 746460319 624382320 363166494 645974858 78614840 540301358 623915847 479065390 96184658 587659584 679759904 793861470 160345653 930581553 209783048 311551851 274558424 375255017 777180935 752952753 946233273 866517415 128087200 110320759 421387461 715614095 413181961 703566579 252014758 162589192 851355838 739798061 991248271 575688100 221868102 777802406 875794830 794584330 294309147 690265248 256507976 490249742 881448419 363850476 28670017 769822280 251360772 1371428 130696117 889829342 109201537 37756312 437425232 421518741 543899933 584411430 763419804 673705372 135723351 995874072 426188098 843588454 747143764 147505042 193705397 469831553 386817940 734393280 101557129 961101187 326571568 789797063 760203270 420928811 743990778 334276520 522265092 933360549 784591736 569682954 955173606 487513654 286056720 344292346 631152982 227523182 737895343 168993602 920402133 989100162 263816413 578652929 221102502 102163061 390400173 737918125 934782154 884452927 47521369 316129043 997122968 407795026 751433791 551126208 381624735 540206220 800051661 503279718 114322661 233587162 212063453 39640545 417536772 617966409 233932873 474545753 645829963 37505621 539956367 426766692 232545202 914393396 829086737 653100287 708093096 368681829 492426153 517318680 357486705 602605583 954324811 641043327 459141427 304534439 705023667 453577695 551857511 385355589 232182226 687506608 507981373 549322384 879341368 405418046 410633448 670979202 215832224 269976515 833510270 716329292 993820474 393596485 755586731 946984214 425365573 771969676 76747922 532639463 916395091 719616941 32024923 66101969 161618860 78758616 398736870 398691423 945578347 936344474 893486307 886239149 63519713 979462025 83757044 803829860 344984516 797057382 678916206 604954850 713747373 894827341 817154876 224224464 815130506 706624930 575172939 184162999 820380324 100265934 239483983 247412180 768280694 937163016 317498919 357229118 945493900 422153274 558580379 361338724 748417332 483666084 641304297 228407532 655871792 791157886 747340804 964239906 207632441 777453740 80904818 846223092 659027176 556770262 305625282 836819139 732407723 734653604 649506093 970103023 461369905 577615568 303679700 103189219 279783200 320748559 182238118 637189943 190366034 923708363 859354563 672578703 220536016 389137592 15587299 177964917 160407798 441267354 693048173 9280286 250462907 766908977 455198551 968764931 563661811 585435284 387292259 977729505 259864176 48918000 275960 54674957 967841415 797049284 561489119 602221642 401018621 420915472 36180216 543359273 684081195 502743245 103738523 779224407 335944617 952260718 342843858 9521761 666785316 88807445 374734473 763368720 697943848 728072397 136703818 752475043 555206817 725175807 806321209 196374451 546599915 616787731 549097917 373327457 150777287 440657519 475018766 436999161 783477513 288250816 510170614 730336854 756624033 706204609 523564237 454605826 722205489 477154421 223023880 457676929 101600615 162465215 288852849 482693789 368302890 468536333 127216474 405854146 369209965 482124344 274325038 299551155 152559887 629619301 366609344 191651512 377748121 64021064 948414325 709498093 813048208 607428373 145049651 380388318 802336042 892468976 834328486 862148803 347196834 256820879 392126320 955810848 817292508 335679857 897013492 210683928 765719123 39817312 649349547 371058604 395184886 182464021 938482617 137731236 237019022 707219420 104392180 216352807 746482333 377558298 511086211 139118176 378060623 567790220 402839035 947990753 32193137 579962414 771383196 710286475 192764887 722170344 309978655 412808471 657706614 190241805 563016081 495941095 943607320 54677575 539071052 74895599 69651976 328210479 740274454 549387306 399162375 741319682 942156539 522087393 984749253 453522722 889003133 894833084 715089526 236831244 826964976 536365654 382275950 851153738 23292786 727574279 484976969 746516796 717989056 426303727 288464099 210521125 55535225 898366807 87706731 836611934 235289269 501400211 628665955 874376904 136567044 798263545 252920371 679028337 201861476 76619337 861886662 683074066 805015152 192958125 870612045 860703399 873668697 346768237 316215868 659726317 847258425 13453785 646098987 187178431 693865772 40514282 445423633 589312512 58531569 254121509 584293187 208118638 125123607 683559466 767811634 508991380 529291465 847082789 584650759 206001063 913541645 627192188 299715584 905937314 284326346 127113285 952350783 391939293 743017481 514280459 382389620 116267536 940674719 378112476 866751463 517367786 785656102 639019056 805187222 646052135 714417250 776130808 277299044 884013419 79044738 218699932 23302132 617003564 609890408 893199264 221913231 525811176 397237723 213684165 510145836 951971694 902297687 743590460 53086451 158995365 299195406 627152483 224667958 528322529 85379114 538034594 938940276 189886165 69963606 376477363 155533542 383421338 938653526 791754595 236916756 698835431 604563718 895198555 166527450 988176171 121104640 47725888 815212088 634376938 107948109 419791209 302884915 306290554 897539551 203600135 208628890 436609320 281653510 144537879 294424054 73688994 416147335 670273172 673336566 150199515 201507927 548309194 622175563 125797568 576084301 655669042 59081877 371714635 504593821 585397353 728987080 610482777 608819071 136109096 181842958 399239034 317882142 96480667 174582920 335062707 951692559 651282017 239458480 573746531 374496917 198589377 393860659 577135125 595635033 6518580 925048121 132148707 938883603 940003359 229551079 530686311 433308750 608581965 192733230 674660186 696902796 447978478 415378237 100045166 117952237 623370010 697372018 15706522 90815403 146183312 957870299 646328641 6585319 21989540 571985610 75789208 700821267 102421197 566398585 947668282 304288965 330685141 45748437 233873314 427221145 728950482 75519204 658514728 430347807 203483306 660356151 174263505 881284157 133633460 445174840 278583349 200822976 29139871 573360903 687909644 787343900 549487066 606803805 84878432 637718391 969940975 566890353 430637774 736445051 309545103 867628573 629552318 970265336 754879020 270821299 886051599 537182776 514925916 127427860 602961297 730505380 826787902 607536416 295144309 15905733 13364813 755386757 698234207 512645912 440684876 724229572 560587226 261061572 533059715 306489643 240141169 241564857 703099064 384396467 979033838 388860684 535156660 848878860 410378094 582633039 432881513 810313519 844284083 87010863 321014629 388304817 386180993 115846645 984694423 476787129 466861066 876058239 229101452 986013373 396509696 596652031 780404257 206124323 298969767 584595376 434761064 862671759 600095176 860150498 708926887 884440160 917740012 643996256 12253252 145367155 6618937 832895721 734563232 895295960 569051226 389593175 648357196 453743985 106779905 700483319 42281288 149551396 501796520 420011214 27615130 867144322 596503179 700198754 435126865 958408469 502879267 22797581 359494645 616468553 850478943 523410398 561742253 469978585 147664568 523217560 936288372 798765850 398636884 689913272 850969497 556762497 866545636 993362532 26896700 138235641 794624130 48418646 300662434 670207562 583501277 226324523 342089827 264059912 512103117 916203677 160960749 529834508 290220779 917264443 30012628 877941932 316052532 134284823 198111140 607388749 700197958 119914946 931419826 208545469 634860111 840156310 443724250 536396742 352757152 41214000 549697210 448798276 982141599 449418387 512781363 477258992 152652632 498776344 68716879 929802977 229757394 363551966 676131959 886883758 910363041 325666257 612326866 462162132 207264233 265469136 111025537 572131964 120766812 195301179 208928275 560311006 825140862 832161041 223732195 159201286 447943239 982184191 419409401 411126816 621716214 938632350 645395701 545839796 905116727 570828944 877492817 57534018 978823884 671891167 949003086 466394261 437174706 938764378 487105969 308147497 98835794 338688604 439807564 652091608 533658914 328468995 887018078 846997656 636580170 957690960 26052686 498704759 492261480 504181740 191275532 573379630 487231275 693972787 938207471 594349052 586557220 390612991 621971930 257461846 792987143 327881619 107005131 936688854 486998046 833252802 737528073 763608245 236891116 20030517 41153125 444105565 759945062 359544107 583641065 115290822 636468765 403970419 565739658 728163850 849397200 54894071 135152557 958754657 767547559 963649060 453017204 315070422 404198899 332183593 41063487 504051007 25077328 670194866 553814781 398255057 820294132 185138027 136321666 458797554 119189524 738695662 331028574 913396541 547880389 345471013 515304478 150981509 638314884 49173529 847983036 466448663 499613433 990116673 940567214 652212182 77529504 487020924 473772202 411736251 56527788 97374191 479814484 629592387 878627113 572032258 425342730 156950516 404800191 778295525 410442112 283750736 162016127 140144051 371163153 686044820 292070549 226932023 90355331 933864412 243154801 126789462 716423983 42113420 437979132 236210865 93003234 734342755 826951459 572720964 156441932 340316065 775549181 294969116 28291126 864586813 691681589 946796945 442730275 820668122 591755627 43426001 152062612 552429394 96757767 725385655 177002953 831575919 359501326 987685586 411962521 584960721 446166299 325446318 603175823 517654878 497638073 862626449 965349937 63675279 810519063 2373846 474801969 117586017 695801027 71981440 255603031 393424221 749265466 155606949 893107024 900468896 904649801 321728041 459962013 738428224 143676871 72194996 89217114 686479919 539144429 28394974 825433294 602282918 172856764 580562569 140299411 538184614 308780414 930263956 640163886 218611436 537737441 680538043 663621189 193515296 667988766 707676589 648356925 928299831 84551825 196072707 672635136 529176413 849941465 878719089 547268275 922104257 683518421 275336063 136293093 44629363 330894948 562402512 890292405 602125300 2473923 15077663 6306189 327288001 681639116 278473103 101021476 289469477 993999971 663070818 369339551 998131488 295011378 510494181 946920507 82798893 209463018 564458012 39646291 218606294 701919256 716154983 667782906 72005532 829891363 234725000 119985600 719971046 561034921 805928504 640152615 850187304 57823369 342487256 415061474 442842855 325039342 82612047 76970523 397965687 944875289 890433670 626249542 63527587 642133534 41511257 53044271 555449439 942733860 689086925 640674183 308049346 483823046 740067992 645022000 460368014 900625696 272595416 479503122 26775301 504757827 801931949 123112420 292248292 16071568 990661956 98478629 87643462 378996289 114214855 565741519 145205628 501679382 463980995 362034478 694878235 530258254 396723221 204949362 127745321 8704001 979951894 284230818 720704363 435940640 539357270 208139594 686081304 751206212 399426879 76020234 267940596 230684956 647766708 736748373 651597401 507127143 617165047 680243011 456817916 913218664 479956016 800234887 924468578 283213055 366793065 144240632 744111584 637074610 295660576 180099777 266746880 791445842 131246585 285880346 54506340 542433032 506741700 128198987 62676766 964688669 774722511 336300547 481392350 405056266 53654869 301309390 102519383 210304880 67668931 206991647 88228028 687447782 824389021 885199814 703071220 571052095 398592199 964934635 446351866 757996713 715401888 29193347 708919515 711689325 869888584 743383488 25609419 570594095 142663629 934917674 466556104 883378434 510546638 182591129 171260658 243049055 442338710 113852568 306995614 493185742 421415626 278441873 197621997 851954961 194987976 380876981 916344789 524884859 138889387 206816079 648323248 188448291 1598084 396820393 84059432 924156203 198764039 251050417 583786635 322235812 284247503 621923418 16647329 513217897 432528558 386634404 148491637 72704097 307303793 904005231 482311509 28952222 350245208 349984981 112245289 377693319 321385164 295719374 294192495 330681046 806906835 839156644 642438913 77453445 462116205 809372412 614583133 27411057 725040826 198303035 850097367 801363627 324121788 794165578 712010639 722346357 537186779 28893545 203343809 701955766 192430156 435976885 226137373 637676884 349235546 937020013 540953897 779081459 412315834 950686836 562653083 873607866 410067034 607769874 691111994 331429872 681777837 349032096 841135631 114221205 544111276 501151036 511122689 127515417 611850616 759484214 849528837 581567793 80686875 657216771 361598792 369077239 668137419 849809667 580191960 759611316 862090185 443169747 131607392 509937989 998874058 385328295 229407216 974298667 816911581 989397423 449471619 314545138 344948567 70263748 994233376 379320614 292741187 210705842 118571593 96632110 652631973 538960921 455660636 640637641 738367826 167904282 294179204 663547355 902598292 206831080 55709659 820330482 808572168 547321318 983799462 863730388 914764913 645440138 503493050 792119755 830784388 178382657 400972759 957713407 464562092 541269957 42839471 950184789 697932006 206421546 37739932 261451733 157971465 143763389 358924575 766327188 332877191 9049404 873464362 308804914 250853271 893520621 215204374 542139241 147012552 158084775 759063989 783753737 205449568 157426654 756810478 288447923 931281936 967088445 407228059 373037176 752796636 661142748 328648744 856566316 704133807 399184124 365868537 6590785 946562140 420119876 174315613 473815751 749639206 678028762 114867637 445412241 546067542 969606630 557904127 275357390 69905833 738445385 239880912 359682764 542916675 944431018 256567721 672756937 989977079 532195375 858939635 15944632 333169213 602359969 51294018 573821666 54139274 511670016 95638491 107474288 288524174 817628429 247256360 641467347 414601199 552207341 238716610 198332455 341279882 195257152 332247251 659959264 540255102 291555654 484741888 661659093 306686143 786045553 343576656 58405576 670048426 99115465 929358489 686800209 375637259 179135018 741641232 244175288 55274122 213224316 832387073 25058044 822560899 250955889 321793254 239040554 298610142 147298863 252746700 174225095 454956961 559408406 463032102 915939790 786622099 617302924 271597539 635729493 262600280 186113758 34545677 493811860 174103049 495618170 534655877 664574682 109675121 225050442 40188594 369927795 673371432 348613211 652097574 608054285 330521313 96457244 298480627 83615007 29192044 915421495 919541023 844201138 738487711 98523073 505104000 54318939 694843955 4955614 261410857 606201691 461238386 790574501 624226505 215804991 347906006 496164087 84268028 699492785 327908937 496071716 990053446 835174718 399451560 723718274 39425125 867866982 357870049 694144419 169639287 679610209 547311257 739708682 892716081 464586030 135479833 722403245 425378942 302202505 457687147 168548794 458772297 379804268 386019613 204152952 869541103 475516115 421208021 247150053 390859626 138433442 358485199 340327424 74178857 653303379 901193956 195306269 600859190 934025156 544158719 561768921 8857747 693206454 818580747 220369823 11869407 518960948 106701137 599110247 111784609 247401298 384388462 305339032 760911974 279826862 310888466 401132994 851779652 950439133 97193722 629298933 726629823 787280516 913148394 600242866 565894853 572906600 73791821 891115992 399405189 200078685 810674327 770415586 718185970 645562042 698042114 601927322 774103412 512935735 357707545 593390290 627835621 178880092 666176199 48763034 94094446 464170735 753279971 167656237 188033490 894465512 985107737 289514 163652470 530587273 251110037 855646942 221648977 717185307 102103762 657104130 658992434 231877507 28996868 887416984 491466754 502111117 751770618 829988725 552791219 373835873 256328573 180450492 350944048 342386400 570244405 953832880 235174612 49769656 253743725 883788341 177558299 36578474 810630109 419990017 360878717 551739562 416555623 107369314 161960902 157428262 572041479 319251477 232829926 68474550 683611790 518005716 796068973 48708676 212144540 141291862 680953996 973440465 634694153 190566508 642926018 415633726 457528363 189618927 411423368 720517863 660368217 356672095 833481334 510758330 462429473 442183265 809582134 111798124 938834367 727507252 477723822 363538441 701068507 953407440 490049408 519974843 698856095 378111709 376933528 916621407 709566940 990815002 640612601 534133 121224452 369402491 301624496 44150340 262845809 986134238 573891527 225556057 218678086 310808663 503859637 381669558 640793245 65819862 739917686 447496472 961421336 521996456 876984321 952601702 600441851 819582297 952102064 136652676 370367966 650578099 734365818 406077591 101799257 734779193 675414713 526152521 177004705 952534270 439892938 927991867 714105109 630853132 782494705 224769957 741290248 786354857 803270422 976247367 869917170 939305577 76029372 654220482 51324393 973616342 5553797 353920820 118100932 347291942 815863951 288971461 832277211 552025190 168472701 697170896 173320822 489688070 88558796 838693658 515580528 490755432 717918548 172413311 302037350 465239464 380871001 270728979 256479992 460995074 303051993 935227388 613999352 505042240 742230685 220499219 837844633 159521456 861982905 863776924 732411420 461432403 353304325 918682750 213085105 367553981 469092014 789004746 982223729 421107226 372231276 169315658 152170996 991584111 62415572 960037420 221613399 238155732 140601919 876891650 865822640 801889974 404977817 749818753 98252908 742043471 923859285 285520912 628812600 545928902 429797400 285515761 503223002 579238982 568850931 430868969 206000104 247796212 258498732 569226354 960927037 769497315 269880810 684887552 510138621 239930809 642166335 808400401 393293951 932577651 41964891 240332488 38633684 830363581 214815342 638437454 719053150 831054568 348440441 783324891 214178964 553502962 547819298 763650429 100357849 964525656 827849323 622695471 554515994 771548051 348857488 925786488 482824304 347032630 290419115 43874431 556542725 216298483 107904514 320841021 104972911 336380030 950804539 661682543 669151160 683047675 255990795 254921633 286071072 181496772 820278300 109202018 540613161 435412008 878702250 720289704 839265820 442783889 890125886 408717771 608428093 9747492 198639706 956372570 9945651 43338810 50650818 928725141 754437281 837472171 62017027 121484033 307976645 458778278 85936326 203401065 305497877 239848443 298889436 219634328 914710871 666011795 665948729 610446911 888275710 284076341 228169369 97756942 910830361 600971805 274521493 832856786 928368204 940250028 744423086 469420779 913183380 545950217 599944836 43787592 709713348 476761782 985043183 89446483 769502872 296613321 28973463 324109732 614531840 834414340 259227876 157884565 955084430 876060416 154697058 802590930 225559263 299982760 866396705 975381699 429679733 373414340 844419288 644764006 289532830 743242960 402312305 859256697 615894731 513100752 202510255 441141747 972007099 453971371 138509980 421639025 602487732 341854396 40784470 147550757 192113961 242623942 683032702 937626543 41822828 346983477 739557040 841128302 172867378 660724482 984509524 85578594 275906883 692960264 928128744 504820789 212342070 746856533 502394826 396008178 632872854 854876894 143868915 638876325 50251934 227411717 455202935 338447055 235014439 686441776 253115905 182302062 594358202 602660932 237770642 783175900 625402073 976894256 29508831 102030866 769875257 853549275 836991345 718039604 938255497 766724328 215739648 534247429 611034811 255549467 487735502 797713828 192695058 807208641 621687863 760453614 654143813 53678688 385243511 954180961 868396440 675765879 849428181 965375667 61251412 437352994 88007774 281054294 435025392 58452675 209659910 478321292 988568852 220423053 388487949 720342522 892842626 177786762 37641188 757338165 293823586 84483771 255157927 991006900 151961411 278118141 290620914 540854588 492798856 491641061 44708133 498176117 95135042 16126175 45152608 751203796 740294079 750505497 579564858 311911144 745355496 22782621 12485907 481136164 668358538 529736317 452322394 645272632 1439303 175619338 993406550 199310957 763474220 219234282 721758721 529673565 805522215 714920441 796642853 396007334 382243740 907347333 643397440 679197838 398732384 780870984 610360174 679678253 305527330 34408623 787322570 834117784 304997501 808071164 181655853 770752926 233750923 340074319 879448574 566027441 845114614 24117444 61247059 775113780 573017566 658226207 451506169 328194242 769914444 209481188 600475303 465552271 936554231 612493948 269576698 258003268 177594382 935004278 442835955 74032178 82785020 84845200 697242993 718560289 390612466 731090242 731914389 545767968 790954920 440447048 329981826 167869895 922311817 446955444 496796835 704176489 3171828 851980153 658418784 447788893 416309651 514854022 446727811 34793248 575791866 616631210 984815829 746467569 768084119 339076325 350961787 657701555 245368946 872874045 159070355 602667721 556378663 210692795 101042743 123163 913722310 393921399 132778367 52723443 512825688 806139889 287959194 35262050 145948368 923458502 280798047 301538269 788487024 949381185 590078756 708436307 103204925 236745238 456825652 522641208 114672707 382150948 23688509 485527856 430924263 249910261 515353619 425285713 835492906 965856309 75333818 561732886 38972341 283728967 824546092 111180721 148596339 699122697 405599254 849308281 89752227 713331807 155278708 339981048 675465182 590818782 205624124 219153425 763426905 734283339 724368307 154586856 923174390 433088325 767754323 68390955 286342501 634828440 916871977 923847433 675514801 151592115 290420112 475239852 578779681 187898563 651511182 239616118 399685676 445386638 373857367 822793300 501389908 73616019 388796221 202466549 229494828 609989767 412506912 317113579 471798926 856789082 283993244 434205175 702636467 802918064 367468916 376539334 334012336 451935864 869740744 250971143 470934404 780647439 534732435 166208176 222126038 721586527 596183214 265504851 973827880 310579471 461514416 894282119 766248277 439631681 668833929 601741 916399416 178417887 264670520 208524060 752023361 244696595 302215923 987813414 217207672 896877324 486823090 694118890 954664600 714772508 701828089 146145090 18976803 481073547 554308013 163997148 724597230 6066878 264181319 627815576 588233062 248365413 203969597 116467831 328950046 417142010 410641868 673694192 392438121 445080424 848606062 339710724 952543842 389231487 200087402 571311119 69653137 923062890 459812662 628276449 405295136 33380102 653286925 710620097 732985380 121026620 832230364 955746588 376771635 373073015 967679632 526044878 210821798 133069943 270727921 723320905 455158810 612648829 538705756 329711129 903145175 945872752 22480348 555052673 464859911 86529521 521006219 676665996 222639146 749190220 24252131 258488999 628209749 753628717 420842473 332476223 175357352 199096763 783292429 163306208 226938311 813853304 482629 288356922 128959595 935432841 404154984 660527063 557576256 145734375 264090882 634231867 386384581 253754840 283049851 309546739 214135391 207167563 351747292 394521090 434296761 662496145 48148320 959643606 598267083 784491082 733321497 126694049 363278336 772219830 827906217 449703681 489572437 744492616 914080520 469647586 694734172 574188596 939022601 84112280 538837165 813567215 688345666 406946078 178991063 370963391 936908463 273790808 944696500 653233727 253243901 920948664 505648957 528419943 273473895 501000221 186923536 985762608 955318416 624421497 679147406 203121340 543797426 258850190 12782277 653765362 75759384 419468582 541130079 709742909 782442044 466391917 460069240 563172056 166125130 968032577 668574622 791801876 139722133 627702400 693988519 426135635 945076252 842747639 21450309 554966441 432366357 561257378 911056489 83866038 715048272 623253750 876274039 5605535 736594305 870495967 270837141 278260832 888045416 837797272 216724795 310606286 251024764 12753844 18789972 861640316 501098635 20418033 918056792 785979144 14535124 550869222 328428939 845838555 977520809 477485794 227103589 456865287 416233021 832752370 900468860 992659777 952472371 442505366 430649169 232906615 637674322 141556698 939041643 224821717 196318142 937629604 475459983 34658285 616706458 299001363 450451813 310302288 920693500 219193695 502102051 248185324 239110403 387737750 573160291 224374516 715419611 778777105 532654595 566731501 788154887 333859080 569897793 462209574 176741738 1748515 83749376 662422594 859631747 276400686 328256518 945780668 662167898 52262150 26381762 329218761 466955844 698325927 36081583 166979233 291672516 271272275 916165185 571087353 485508294 906531218 438001327 749831907 180089964 239234296 940629422 807072671 571556405 118966582 911513546 102797438 302770125 958174956 837479525 459771980 477609558 736366774 946973207 551242006 183592485 788316395 660449141 385317764 432269924 291565397 444525521 379487392 954337120 216206827 791702793 433007022 661295445 544546985 281906178 989900900 406831852 829017395 59377960 699749656 108789682 858030174 270096203 744830830 444970682 702593838 329208578 483817358 236809260 808780295 151148450 466154178 138460062 513924489 718714756 938521806 114484113 57430416 725993877 529578770 238209907 441504515 190580936 599269072 6601518 952253806 79303365 606301257 231245933 222081699 393105961 429579327 248727368 436890842 476675814 472296985 386135293 577979977 363569680 780740291 372252687 609729859 879513010 489273451 303568038 54538895 854800872 45254930 995225369 670105161 459832051 880363803 415429158 663247537 638462567 706273008 855360660 776866991 764743028 278579772 658491889 621029284 867515778 676795656 802037181 891437035 698309902 679414921 866446423 848637692 818247742 81063765 319316811 459487190 950778463 725331100 807084497 463217256 586723228 520847665 928699366 95063018 197012099 658670807 337053066 998826069 237303769 561263324 875213447 125240278 498193065 940920189 60367172 603440285 171241581 472929916 859824381 119460450 601185325 903914004 825556019 928270810 884882477 687516228 63257980 850778457 29253813 441574782 467808210 218502682 640281373 683175556 715052243 893057522 574749978 52086907 821279111 633567543 714642326 971162603 370376263 148049937 35629796 106788645 392477538 600482744 392514911 265752097 144824551 950787793 459035475 558347096 920537355 243967712 760308072 832198464 484359994 271107454 981935566 633570941 92395339 154231222 306861535 773230977 636450623 68615846 833494895 532343752 628913205 115515145 245096962 645757895 277892125 609371413 840361716 132738268 151400375 88186114 151493864 45569493 881261525 940204466 361565005 637411218 985033555 418120711 450546898 840532317 868798644 41896825 957485226 478244102 527676962 278145021 556250773 928763991 338506097 323830728 132461939 908099386 677880692 133473388 359867521 294358832 582796339 107624435 509786292 601048615 709454026 474064539 528330134 187335836 656531742 991754923 724801972 407429480 176131782 478938458 342660508 765308709 742649616 169869827 562045012 688339894 121697662 135797691 698907101 628100759 972928281 220744917 399713945 866828629 585853870 631546030 332747602 539941952 125598740 953258084 381457292 542763007 657612724 843437323 40875684 368368538 888381218 582889237 575862681 967894090 961111658 574478207 254543472 96222116 552024675 863074486 882434421 775629037 96009116 678706049 238998758 642429020 454080609 441537620 445221500 703576205 358219404 107902431 489178424 732476712 558524648 506636118 884367804 820126427 162658508 54093279 829149927 73720938 965382138 967357389 563113013 218325762 31949802 937737499 323771245 27254870 854627132 576473069 930258349 540181064 203130806 470558141 973564166 301877265 146894131 209929155 75836213 469549492 156755110 889236799 150477150 3597236 698789025 133350468 677522387 424579986 887909539 489748494 408078770 411997753 289598915 85838844 914319853 944784104 9581473 897904419 159510826 285720630 115613739 109715420 949522342 745245467 185338810 358998702 278962139 156784482 341991449 799489743 137967534 422572632 82030250 992053943 51841690 117616568 947362176 484717570 677073402 254475275 233452184 775533809 848803331 380228152 669871360 180267842 807458352 399910447 693558651 114190561 323944258 336072916 160253958 401198617 717837508 818514258 46730100 565933876 229612352 580244555 69561815 893740354 856966179 651281306 180899142 888792371 497393111 211508278 279051197 322884067 72392565 611795323 501491116 191538102 691876485 572011215 439473983 121564347 614100830 811246666 349011722 211553696 349286756 693463247 36772991 679594278 296735203 111108526 464396834 187538459 941779244 920678950 835972576 223410965 451480791 44144226 324155453 798668561 329925932 595635416 932626985 482074061 836629140 483328139 149219432 312158762 529858905 315269217 420165762 100629078 319862467 475389273 166691931 291417222 93708609 344713680 101172150 745607084 770842701 495408066 494079547 206212119 447744660 547386421 323098528 925900775 336926352 314087922 641969831 792325424 183333029 611187144 330314060 131690354 761444080 324893132 60785544 80688101 693023136 287913632 913151984 546174719 839168434 273149928 994757536 576346804 675278062 379091781 168836413 564422623 348459940 958096774 563383105 439359807 791088976 88556359 187296882 424618461 84889373 294718459 947533752 836500087 416424897 54026819 426503253 672109176 838411968 919731468 611940054 116498922 778305330 976247401 399546677 8416718 59737566 221413088 833149930 645429546 164594724 259337704 217900915 245777317 985515915 811803233 14043305 455824434 854520847 948626337 509420541 262625000 81384445 692739825 279161580 298601669 731600597 230154584 977598857 125123844 308656406 719304081 46121229 426080888 435958536 693738131 71359488 898095149 961893831 255949792 506727098 169007179 707998480 546051640 451433003 348641563 525714535 228910623 773626954 668922332 592910224 532003728 529455620 395420744 79948787 955264569 605252432 914433423 601269477 355544328 944142253 472240025 796071519 63989893 869560174 701726970 705285703 600042547 810812285 954320946 329543838 955622895 551105857 122174071 262156143 319489084 516531662 913509574 131748392 352569527 978300155 191018959 924095466 348759536 524052396 361843158 597503030 569943716 486589968 597693041 212324094 364229545 479800107 895776840 305240633 614459056 899325361 899721043 908468947 669651785 732951846 448709790 42204911 282287549 668706368 981805907 797308765 537311263 754717605 250613275 429057217 41830154 467824153 307734863 180189847 261447068 971873484 481147722 819297348 608043508 498514395 496053836 825351955 783600938 336186596 498093566 332220259 44803496 386732154 285321257 314498148 641254822 475797321 122285681 122097615 261645729 220429577 36286681 955670052 102418189 701372625 156119705 118149203 95515282 939903798 323481458 492766385 573648043 238578892 534079768 496712746 24643918 362822253 543421260 512036478 347901334 81497784 637108197 482292841 204400694 579643784 325986486 603450776 963174901 318530691 437885292 902880466 280796846 90550985 963922734 571506859 277893402 327911768 101786506 735934237 496500878 52941265 385787332 327328612 743919787 105637460 674653821 785559709 2066137 930160467 102867799 415602123 944284506 587044558 996163278 491593272 10219716 248543586 143229230 206581599 440148021 36691680 852209746 318996418 880667970 849924391 567560856 603292402 181287561 440942103 251337440 966601473 938073387 284531774 400047350 789138278 562792318 698683433 13933266 78646739 489186403 616349109 12764318 761048872 932150985 288449649 15787685 488218128 414074828 508031147 160123600 899931611 315339962 279016288 263637317 80150184 522844351 218595767 419412431 872793339 152622721 586859810 952073292 54125850 673286341 681453319 61284946 61871536 103175239 256375187 648678600 998518143 905263033 172812321 186045408 234016531 170883532 530095150 641776687 839327694 712594810 828645126 710910681 281838249 268602022 971038348 144384594 941782472 713220471 990473577 950067865 109816686 232048310 912663462 845238703 381131241 218506279 50339161 301537430 229440993 25433643 70559420 263883348 979120163 191855433 550213740 547782689 556907501 755639980 593413509 863860210 330862809 934902775 924082646 892845360 23495401 255388120 686068398 107098722 506343662 608627856 374380267 925972653 878363129 643163766 279285048 797101644 830866214 580796198 912577143 586071072 869185769 56732926 835766307 281410227 324144763 733986986 704188778 728352113 840923257 977786638 197170714 352370614 487288508 904126347 23486382 235395555 529619772 653358029 999168899 264633444 340658400 611211532 807860055 902252695 553403907 527079409 889613483 54013163 137901417 492884088 17893816 632657762 353474801 571646756 59009182 640455325 867474968 635952902 514466133 117236223 840700396 998620295 454806679 920241562 857703666 921070038 843317268 998694876 66050472 355239349 857392455 822041581 445516328 414484369 586781030 106964028 759336136 147749990 892601552 526598506 746922330 423755194 454854230 626737671 990209109 897747654 124116227 502203829 818888235 691698675 50913167 387220557 494930016 293766538 27493681 204566284 468603393 564330512 268546906 632370270 311744326 915507245 859210894 464529903 621879321 68279918 31426302 700419673 93339624 483807748 641142737 704279779 737080162 417819052 842763602 398313668 755767734 681804478 685723582 34386347 984863103 223636343 878359844 702813093 292061215 1726757 574679944 296049059 99219537 223582396 824313405 989178940 447321408 6615691 721954046 280140663 37305708 938839002 39911502 395982894 906371325 95602486 445274137 686594209 634249802 710993744 574096452 394089704 739680061 904204988 500653045 626092818 572095154 518294052 369667710 663709599 162238933 150034311 259639428 381893051 432947684 809055714 802622132 537659898 616749319 808657780 961848639 476368770 357784369 168833473 578793896 740507970 294320163 897911972 286085896 72446160 520127409 735586790 930062171 672920398 889291414 25973028 370539235 618519401 691581675 853837664 95741756 107669752 523247081 276125615 477482226 515382784 924056296 50647855 420183394 877265884 258340732 715779346 228886549 225857077 891287070 558872625 702779912 940923611 862461140 658565628 287757528 126855151 868944582 944665638 525809948 368401513 449362322 908802210 365912857 566636961 439319212 292239254 899043764 446280206 655716880 895213275 79417146 323612366 643135941 937011664 557654112 839325687 270516247 662409365 802402552 570524103 649818237 781892287 398688063 700316069 313187276 132635077 817995740 255550964 723428825 393219221 138033182 499300428 378616864 148842424 255138096 164021148 638986504 410944634 916646171 952661428 901083566 699474674 17415874 737906573 536399345 207667187 16399919 959581832 158128429 716760141 54544671 185053154 976787372 790718297 370441416 795555738 748727900 95235719 9098677 20503989 203339344 577046311 238765202 135121866 863911156 478775920 244746574 281245425 489038558 88501285 131898606 101852337 932224653 513960271 848553775 464071964 418594440 182994454 702998124 757241307 611951386 541888274 222914398 935684833 646806046 799487847 244620174 618447087 697222996 917006263 167166041 280319735 689282587 370128784 452913496 159419034 868695431 559023545 498067539 476881989 562993583 282609604 213056533 976992132 341733147 108303982 814167599 248665102 771929923 825828441 598754696 822392491 284656682 832025203 468429649 273960617 55653059 646244456 442399517 507916235 6307797 917435094 741773802 950822168 74157239 685106415 932520764 76201694 734736697 191105076 593238537 372258226 569236062 176715634 294332128 957002017 830407768 575797410 611068870 112930849 564239129 320518832 953226817 976085933 219372436 422780743 920136195 372047467 737418010 5376110 82433933 608618961 58980492 465563447 984799828 951763140 647752160 555475912 196509214 589699579 285345375 45151784 642219200 457385525 265961815 242897680 304565669 476668220 107071665 591588953 646016521 818132226 144799500 790322674 201983267 985597758 746317086 122404177 91458702 835635827 593710034 994076153 942777271 757195191 776624582 347133144 934582713 176832147 56664113 570023803 700607268 523820924 619535093 149565975 28977213 792908830 393634176 755443463 302642766 50570208 189345955 808303314 813766882 686928202 544416703 951054485 999910572 382490731 248743021 822470532 513630222 279251214 970183426 430886768 390809422 931727524 864294702 277742454 986364243 309219457 359736791 482409546 999790329 528730920 836317216 595846681 233038036 105966000 626737468 741811396 704221954 455828880 947618195 105503270 108353505 816252946 8381143 12911062 216235359 338703438 62072184 272278788 350107096 253119152 779877665 222707045 37803920 326058055 180213539 519534953 278027377 432375222 96988060 120901408 22938490 24982513 170627057 275156643 224706028 488410793 371993194 213972725 643614548 616310431 634086380 283737662 839502085 402839346 732220301 903915955 35310187 850414435 596310350 135032793 681308172 383409744 724844681 473719997 951953875 901138072 181589194 341013944 977463550 203025231 525108843 441276475 818815809 943037668 52533365 983892378 403462918 83085692 158750216 303459110 949132061 278134061 284055046 280466782 813793130 123151335 344287750 850342075 357303444 162385157 67474054 360325075 424157689 594488437 245031370 711436946 233539435 89614222 193236153 620276389 575958257 382645055 878452835 160816406 642221525 801937756 391065164 670271791 833793082 585908647 565695064 274423615 274392708 646970105 64987955 36268395 133971332 574352276 965051032 12794881 140657342 785077196 332269518 930674786 51971414 198012796 248927268 231083249 876674385 315982085 720877285 209667102 159619630 784169381 794178682 682862486 942072977 469329102 493176726 868502273 68764663 484459952 59626270 270707453 829453635 427665584 519944933 682451698 97675252 862109862 236910673 552782765 360573449 421478811 187975905 527262855 869696021 645578345 97363858 953545916 108433907 696493744 489846886 330928818 992637402 706166667 385126457 934558302 623189024 741800237 65533597 572115286 948972363 604694229 223666232 949894904 742862256 617691742 837475109 780102981 670933800 548776286 543754724 632622001 401477784 753356202 820871435 923369592 479138245 952737084 123761805 59195482 241693616 276259489 928554096 753732993 915862374 254602078 962397055 981153504 641906348 8259008 600479674 316643935 553135519 152414395 903424698 135436001 168650586 378274965 906678756 226934397 287019100 738501429 845267904 457668192 142097726 243069269 491418782 34620067 962636636 836452843 93516594 352967952 248078509 255097971 842847817 357772751 458759942 894927278 225842922 606788247 33086570 376935563 313788619 486273670 181162849 687147973 548125595 665098583 488312241 155335406 732684100 781210758 210923024 568143733 308639014 67545621 269461340 924025372 62372820 824927770 683286793 467900775 237850769 77277314 357765649 265210822 765965725 887642978 823953787 559153458 925841081 730699616 643875781 222221421 185203909 965441618 914107801 954187718 366168207 129206853 820922476 938616086 517103867 549595209 794223102 110047364 294975751 430836613 269415741 160233590 514284883 405305632 633323999 899868157 186460732 522037027 841645981 892496223 860910122 885668390 449826504 177832181 82937637 247407240 52627993 431550307 293511651 986624131 806033767 960704194 573430779 905721671 534895670 304942845 266306090 839495530 78991426 503801049 588327490 588570236 674476332 431325924 295024546 140874752 408570123 87353513 81529782 108215350 851971833 954144024 86553889 661459195 426622319 53848602 947769397 84450263 346908902 427031715 852325680 632860674 753243806 984318667 707476355 302112905 600766820 996283802 630388619 562539719 697858313 594215723 696465885 949876204 374667832 723231144 321695428 353270892 285836395 347542750 987536516 712292690 282327422 254661486 308366205 666388305 909435684 409458541 596839029 106094544 527272520 206805357 676207891 10135891 888874478 37992686 207020028 736096892 980398726 917139238 250731330 935333016 704677683 372006199 309278096 164966235 231366982 854033002 897462880 203285435 848276195 828867712 639052238 827751951 995781273 412418746 616789045 24641846 858298441 255905409 106549553 983848556 817193648 853943448 23480776 509196977 708505020 223501928 88399001 529351581 988333703 895944228 111126783 489779440 484287622 790290513 270346404 155727851 506949996 32969610 897359293 940565770 435640360 654786873 310146757 366005214 329469776 726538386 935539799 618313439 595819930 543923118 822588240 919414275 885806129 904141739 68820215 885492696 424374538 547801964 729894002 566472681 330338224 130365998 517365436 565762875 127260161 904895484 756240518 878049738 935997966 508265063 412023187 623321924 91331609 255635250 452461505 932680991 573478516 562000439 653985762 55121072 287438404 11937992 694144727 871888088 821046311 585054537 874092582 305917008 561778949 772537187 492990933 494100372 378151833 872511725 666031431 391424745 512931043 187593896 755447145 202168679 285252950 176109913 344184043 420749789 252160658 49982547 273342754 299171491 275664092 948788020 917893049 236926180 490539466 617537775 48609327 496983510 965790297 597762721 525088514 618784727 546520100 409089519 143766837 894367400 420124581 185283056 467712739 654544573 442894310 912091466 479201280 105796383 389469639 225850537 69518690 528021331 834033566 151913212 447513983 983339355 527742614 871152964 409458572 764507763 548346446 128765666 129538140 985678681 259700639 423469169 765057019 277012058 275177837 489467620 476865019 892895187 710622960 486444548 218400467 500788270 716222981 137307581 971446781 815418906 656275293 331069048 493295615 793902370 818393751 549492676 809022163 343119195 714688154 858320680 752841488 591701744 719257227 566030647 933090311 931626579 705338154 796719075 409007149 965757756 807953603 519539962 864047744 949145278 909160223 381047932 506410763 861949718 309388284 403534887 506842022 977420832 323147901 847302798 361263785 468032914 34786180 623193024 841505163 473834514 697585651 268653341 583773092 423489969 237592919 283493005 897429612 831399810 200629806 297067734 9319523 559477770 336028231 243450375 720597806 94187168 184905778 660742582 523006930 984296333 556661884 648352337 210722835 976575894 970432048 915577826 277568234 237265382 812076979 96088535 704952512 524925214 713379423 118545196 437000478 856603570 18310801 162052114 790505872 994061022 188970845 71378272 509991492 543901164 521466129 759214116 676255456 517887719 815612886 801714159 624991574 114489417 374321904 226469841 416220911 218496430 414994292 965436226 343103731 430768949 479906337 89603335 875572235 812712078 23367567 118845043 42516598 699370862 404943190 271291872 813332330 528531575 271415831 630721178 337748777 18078802 538226518 680665845 302131749 285083934 657821519 83352695 247174932 941420191 739831256 344722541 740762297 257683125 933584084 745226343 295858671 129665756 640267255 899713815 97097491 300674377 3382969 325463450 997501862 578990252 620248934 577638683 861618397 821692929 279146392 172868363 973234340 14354962 647121745 572794668 817728659 182192009 881376465 858005766 809265469 986241465 936665919 65646638 218143532 704821628 94707350 540512191 566153206 90239250 336500329 534442469 831410858 160416934 263718936 125871952 149237117 26375780 505653674 704556981 195777120 159631655 136890731 388987391 894361791 787666140 958332192 699493434 713632 899898654 809200106 283923044 37623372 674799599 374555986 753608272 582675285 694380782 449999348 279521131 969949308 71734993 634073579 632362297 282892691 509582292 92951567 826605807 951824610 643678943 301955904 514959834 95900327 653624916 323602822 491320582 517717497 934492425 904356402 102700719 581354308 24621854 244049541 451151564 817890498 35244177 548170439 623649075 246477202 527436193 11772151 515282534 999831427 726895069 298856758 827090988 953931905 957588154 543682179 960655945 531495654 135389263 992018483 569331150 347914233 987703710 410932033 270573669 291333795 890139332 417261179 371168912 259819777 698712855 184358286 880715568 814604637 882162445 962353039 739933008 734489708 448556728 971574231 299557143 205495336 161440771 274076850 949338384 252131333 233245066 939361724 675778005 752284374 767500108 869159084 584373903 184141570 110008990 821348086 71109198 11024895 865959666 609916956 28443016 701192680 631688483 276647072 662073485 91093453 493624274 476221391 528620415 217685370 608933500 294284542 220651027 450494015 921036341 309490768 571409083 464713639 752931900 788802920 623217357 333604813 569524165 327805314 593181212 577265994 768247094 300569197 937891774 43340458 226320994 76766081 610903692 723140511 30086997 570897927 907745221 772455578 394878010 590021718 596376821 755244593 602189771 466365880 670317295 807864274 789868283 155612712 420365955 326040776 424514920 255103035 650837449 348061337 342716143 575113621 471583199 959591306 230942841 612452852 887878447 4437783 295258862 270202005 29192009 848964054 787868630 519202043 593707512 880824322 262263268 720492138 806008075 272883915 335869236 520945684 814766292 847818783 565104354 516276159 115197339 764085796 408244291 953619710 619015623 382258803 636554456 724738742 151871761 363463460 213698606 627829245 967864416 246986330 780083992 991318573 405377174 989689280 607993396 654382501 218957014 403310714 563620187 232543530 718002044 972163342 840575271 361679065 209650460 971560387 343923480 693298579 434112819 323679945 782590825 427092005 998566952 241719698 582335845 664240900 581627106 501357227 59389860 883200493 581708214 535425667 734974882 215443800 390500544 697492985 92690727 105134910 20445713 176352854 392526613 576629155 962640529 938504541 865710676 111892795 341663504 779160670 154511572 409349498 317317855 616403225 581484373 682491004 252814402 929973265 932968881 464275156 731183340 960291101 611049965 899483223 973067764 749875087 856852990 832782431 503603832 106729827 771951867 233011571 848274403 80053661 784238103 296579836 145340591 313190067 770196180 897167316 507627823 990672831 842837871 599391995 15491432 188813766 530913398 751051839 216611872 642230160 300060877 200936632 11907659 439114359 339208592 236183211 376157278 492435418 677237738 535474781 153256153 763067040 336877607 811599125 65782579 904709790 735740576 202061885 950877459 148754515 764641894 549201425 119301771 874024979 353803463 881842597 770762427 193766132 12899986 246679815 237202017 290207905 941167441 180190685 387825097 861417692 493005540 812192437 739183118 631688905 544821139 786525656 67946315 387312696 4421105 896532558 530135757 69899341 632418722 934399287 985211737 220617026 516951424 676880275 848124837 761176770 312871109 202842967 760141830 688263249 898331083 838446064 480368241 432698837 867273490 539559909 380067863 368041712 720350769 846423259 49377191 204762457 516975485 708549672 568334673 307917265 775460705 81022644 405541144 803293321 962798952 838144501 335245973 964563499 700814996 898574534 853852307 635001824 727062846 957183151 974815991 405376316 645615044 44189231 973096447 378621057 34552916 428624732 823701527 743586880 169751928 49604565 343016141 711096015 775477452 938972384 730041202 996509761 795441096 325276535 791235593 321569389 393535747 272840199 922683688 465665089 687726929 343305619 635586969 256684433 840053567 959840697 564735173 682443800 873345479 52862571 40898104 510521391 378433406 118631319 771130146 47281173 318285146 689041548 687879820 525330445 531377847 648032704 467193113 2385035 33749370 63332491 328464103 478967699 728093598 249186424 760951284 492964658 372872118 434076908 212994095 100737289 525095358 662823110 86155414 876521409 767551193 980649428 167852164 962413208 379712152 900846377 371995119 655367508 119392794 795393383 426830573 355438369 120773972 215601229 322161491 702825916 42808446 757438903 951945753 569294579 96828893 992403484 903266537 285689268 31671836 617632720 279089995 809719022 752528771 480378860 64608349 304680286 106365465 570242942 362088206 389128923 528827899 298587158 945061877 897636077 853870865 971705627 902544083 92536648 746634761 958150441 741257840 511781576 445291642 342929799 263338037 221122340 564011459 964801859 736614130 503475312 762065445 181644948 97140207 183127743 838704954 935172109 379213899 430786160 621929800 958219292 642542806 499957501 730321131 481399737 887537659 452455184 707517858 785101310 206456077 95005291 764262792 937280926 340063434 325473823 149246270 775905939 493667558 112344861 974079774 585870358 939924574 446988444 997900168 286463775 591222542 281271912 924373426 611204560 87501507 269485528 970422511 122478550 198296338 853036965 277609056 86269616 874643105 671881861 542129961 490812955 706525916 58779495 595028754 763068663 741953779 870222765 977462494 229013534 320584641 385845180 235948551 648051369 847068849 807157723 762035594 884576462 177173552 348143241 160444982 906074210 868342986 832911701 19063838 625661548 648989691 203867242 805152385 822792981 177213641 692784821 210718400 899904147 32515611 61965513 350109500 61703077 178195011 456219224 744684824 231583796 815861586 498105485 263628818 750533757 695382598 754594630 6438686 873538728 913263070 464220623 547131472 918564300 526794519 859737382 728907886 352267351 159622925 52385034 867300083 786510308 326857621 430851257 895711026 662684318 523467296 54517257 307290402 586727946 520975271 439307309 191602489 854807468 82208007 153999163 811261821 264050822 533435914 2126546 701555924 404364638 746988052 830861916 24712739 988496809 323200623 363785986 985437576 587818214 106365206 512028502 642671498 444150433 241088863 159736912 727738036 952064782 826809477 801538848 29163535 731700026 732699442 813588260 795915284 741832566 518889354 182983920 988667409 560168608 63486207 842363456 990526229 126723598 496052211 547456836 880701444 746841392 946592514 583305983 111912200 440085890 884851656 599819384 296406572 636748289 639807408 44853131 25013766 818206103 299763248 944864979 307620779 457344525 365500745 1881066 579356438 289652291 761901777 867851853 193000632 807303298 121068479 369889379 175573972 494015024 13761653 446378968 584181111 981921076 75215143 662105847 564215914 534451000 129774870 563088814 248765419 474103397 148421675 224725066 608321537 337392771 209758624 439162575 350049602 131716284 482734569 959971915 647047706 122920226 56670668 186975122 514968841 108803006 550773105 863082313 637142914 446563959 867930745 337612709 798013696 183682660 18406736 68303647 44612777 97398779 630055048 724938971 591857428 704814789 484683200 56963972 508134640 944409284 713954907 360546075 550956099 820881084 44846006 414835227 275917539 79292692 907796078 504860434 552397565 722173063 998169624 512078094 631718786 392517700 921347984 76761561 300917396 66152636 603614391 991334762 921126827 802043777 452216559 134414160 951830575 326546071 955719102 94142123 823323959 976039900 801102765 569621374 554917209 3636385 244400418 447273716 823240020 263343329 428208738 235418449 975073348 364830343 408486766 912223071 662811438 83846524 261774785 130113548 339163236 859340334 858447373 127380132 70044764 220672539 412669591 523597882 217616471 429970258 177383630 332923743 966778758 885936795 293087685 183845055 482973450 608929531 380714887 238343199 498989917 69480130 531176070 256917713 260730975 115339887 362200948 922450395 977426311 519618884 723097486 37417613 622275454 291192641 518724644 235273732 572832762 680299945 378527118 658199137 730801547 66998255 536540798 425941515 720568043 278303971 669180425 882192941 510724918 54982374 14419843 994747790 587270392 755231881 562109985 665684003 611673180 231356063 167772127 882292096 428461609 59903287 248363406 624781425 566983749 365383353 810826276 31134532 69285403 337666434 520684547 180664581 604099622 717313562 670037457 334397355 132470621 144836271 164111800 857747882 805663620 53897649 691916933 298825730 443422738 211787473 500443897 320309414 569470109 595206125 992094394 286468412 960128524 546215696 697799250 502005801 103634040 657598465 544056227 873865094 362376544 57925294 799994287 15227563 679323597 614440181 942934164 300860657 993061809 468139007 762467910 256954135 716327222 746439006 838722676 189746339 3804317 934898092 981879489 907497744 525672901 313774619 330188934 591300325 268219399 193181119 400834707 646144187 874110605 833293898 248298856 143688096 889739856 392628645 434246258 311580246 437897480 474276141 92349842 974934523 678320544 685550338 574883528 696139485 323081773 723827395 553084597 86136331 63455041 263262098 197524695 774251581 494569944 945315964 454865096 23296282 35367834 465223996 600852317 503366458 41926184 345559572 188628869 938175405 593903319 947144660 100401117 786089746 535801016 817781492 676060940 122841562 69923123 945381390 793881841 359860499 207247877 900112733 643723625 764300157 372901484 646400553 171653399 667042104 143185310 763286609 63431513 469565882 522757165 501597784 724940101 218632964 657137577 816980031 675041281 312948475 567412934 565471812 451652316 978233879 362837997 617585887 768734309 813994229 876165204 982533039 327818337 956192682 421586481 175255534 344036599 807263841 862106802 609178268 528236695 35416233 991197213 840271235 807136427 171521718 945370756 78900673 753086514 100263758 145922471 416036080 436113692 717454429 599510410 439470822 619543687 628133821 479661818 802064670 509259012 357276149 64851610 123480369 102620759 106527476 315512524 998372514 320884385 874747517 748742213 334705025 880325423 655457200 128020129 975157888 792263901 492584445 618085152 822095354 337339401 73261934 64697187 624667369 245212795 850214876 957863485 441566527 865840882 323747882 916395407 794776294 690033026 54078790 291543844 56202831 666814892 234648361 919455764 964139068 297843434 171254895 482864478 624874412 167022645 857144160 412372559 650573981 544216471 300796506 410794623 513538827 350114326 889885701 8246594 56062753 208897321 163761585 453748900 793512959 408763080 827977689 836479981 638450851 920635034 286458669 208338319 8013896 304250145 544301977 339466968 454045432 165953651 433872342 913427040 771085374 957241208 412007991 459302032 375433039 708478217 86445897 895379271 677807534 177979856 526839617 943490246 859837029 652378246 949413790 573004690 645420568 81297451 377395525 614916148 144223879 437841870 549758299 283695228 927716090 877594921 352517933 693756355 459941920 73062749 946067260 598190829 406011922 996288694 997010494 987303442 814121562 306340148 62912969 882042181 543924959 809427741 319553933 533866769 706133912 87105659 94890724 673538957 781559813 364533721 713752032 134971001 613615139 309556361 251067498 593902159 639308218 775219453 625665853 486077534 647371056 715561856 587734564 223752555 427198856 997274813 992421330 297054683 758879504 487776490 691633579 859357746 79275891 710838312 649131015 48086703 949143602 396659753 355055429 856783311 124966180 11699991 887710748 201171438 345264321 147364063 208338567 882990774 119687625 161532097 366613871 486435005 61147567 686677164 210655020 114935550 111964981 830526328 573288513 183567133 804383252 222096036 373494437 312946246 788024166 541803536 357316480 192939062 789572174 563533766 950897521 717346841 957906 436392883 408292020 995202288 793869518 949087988 618046498 33322756 113101704 739816381 275713109 355139294 861234678 23639694 477648254 879289892 98085663 422433154 139544502 403236602 359957456 582540316 132745133 908966746 972825362 869985018 816663936 800042257 738581036 816958320 815220153 934154691 900674682 116472776 615356510 121178228 260423099 446680126 426134282 907581367 790895115 485591257 399450645 104923066 924096536 775684113 166990278 559020289 725454545 770417351 901809869 182734380 968057643 895468090 155533840 592151731 697250680 853653482 975173438 957260319 233581645 55571376 443786798 411045780 51831854 401419978 565281311 773138113 735339165 937401947 19721499 358750634 424004359 519587128 424287018 9931354 41481194 172565832 669904561 979214139 382436662 899111683 596291911 136723243 712626671 826939675 922056463 249788623 384404526 71156314 691771457 95655564 120176708 49800553 865995517 489767534 446473104 427195467 317563677 579160545 559602047 693892497 116539941 227172489 904935114 969825564 94405490 163004575 658911705 546049105 10218287 284244714 935728575 547131513 97063270 117274048 178702708 856112809 793424861 33647343 50779431 485177770 101849138 535702088 469885521 809251410 96448999 177545487 611808465 390326839 220635293 720810781 567109629 832266200 88695632 542854252 909771693 233080646 98558228 846489081 172929931 643982206 731282674 456155091 815932003 161648906 348526378 309924247 459962504 673444882 43016494 539276761 640560540 903741867 204882093 681316509 915649929 410832724 716710635 126676558 357112587 154678532 555539628 162781322 643436597 521842849 664195364 647315706 98517447 914303899 669464486 319895062 386058560 317032644 526890267 330024799 557147160 315818939 533919465 777663517 550618067 558343059 707934771 644941042 995176173 494373464 693162482 898445115 709759250 165813326 331840387 342023991 227203334 119560227 43277120 114578059 951254664 581057389 507322428 133009645 687259882 320248819 517569947 214726278 281779772 466011551 960617443 24254190 261406959 94857868 228950267 154140373 232027365 964054734 226641188 246564925 683909735 224914569 289330635 714178198 579906567 170259587 209634347 987331073 906107663 791384798 737130985 88389922 144943582 155456854 121991501 754043774 979750716 882635455 128549927 503556414 769939795 638128903 85447068 98760168 944466680 117686332 896970827 331056023 529381633 807409624 553863495 776881277 44552103 860750566 822354922 860214405 256460901 466276118 404186617 843170483 563626515 249346882 975895472 712463722 177882314 197826673 810271898 339306384 467433788 457217896 628071207 874020943 243085063 420338449 733134770 252829605 694177308 377773615 242015711 513790398 598128791 876170943 257491378 856901320 282726980 513029170 595001655 687329292 590271353 159625752 48107399 762918964 445922334 494895743 856031854 330988182 687073340 9159409 607767057 829645512 242022803 547448988 249674953 631849843 550422603 704209769 367121648 90656925 199793381 603697689 195664376 838615655 463251983 160340630 774857100 280780832 3963448 333842276 734432450 298376642 145944551 915372878 816397593 763674117 262096583 993438638 267790391 901574005 580977588 740004888 890077713 756031702 438452242 739223756 332490822 140496163 266674497 14773074 891695234 132828746 134420191 669604715 866931718 195080200 797199264 310956543 21458163 670519244 608512033 645137072 906166871 313076691 273601826 91935025 106472395 587063589 783730267 593349969 789877951 575523047 923723768 407998809 500076845 470993297 90181323 62609292 655233092 414676169 956221552 155089224 926207616 471733413 362337893 559137836 121571003 414129082 329310516 415886524 42204560 229103054 990872070 798003878 374769997 696200993 116927902 459601431 543567878 547603609 531092605 952655408 338401520 884017213 619039885 532730952 214274643 81370708 329504603 350705615 654283331 796818164 587406812 998104442 81805496 307445296 112572872 460121140 288418529 189259824 161931094 913323788 934293525 730822832 646758980 661575472 853879635 369514124 391204084 88548683 68883582 880595819 36672910 941052576 450112130 760663737 179628076 463694343 100813631 675712935 584686225 132334141 684257118 430791054 346950442 376513623 949113794 404536699 205907162 180388761 98340210 966461590 212693475 717452384 555600775 482206542 53404813 356118652 277482243 194851231 876136438 300984326 515187172 495375352 744767141 901814185 586956161 210467030 400746001 329301238 785712218 29073957 966944345 316386748 7597357 581246806 683213907 285941491 24455400 247307393 866850975 434386716 544750236 116745320 265889360 913256229 263902344 666090680 234647956 521385583 958351236 284036409 169774586 354660528 285503456 387958927 692913294 992511672 185406051 713179048 52028701 87987443 576039667 924473223 55391589 843117780 924185823 692463969 910245183 953303996 522357361 158070479 475563167 170794514 713360943 568724874 752802704 224651994 852975328 389118277 275769971 832297591 11989630 710413335 835238097 304826794 839570515 699140971 570522022 638477591 833438880 938568352 524135311 375868229 532205461 908744830 691006878 777849295 668900451 626044937 179163547 975385811 878465305 459895737 6443389 112936966 943490863 734963093 15934596 111398746 898653325 318347665 104628327 713620880 649855253 162495991 414168656 76658732 317568872 950714244 287178789 880403342 916589225 524920971 752976393 708105613 744825104 421393867 539734366 353847850 218031165 417005015 365495158 652805053 46264889 182459002 498169001 813370673 157948071 169589917 663978572 362041397 967554889 228024146 732002618 997150423 428015059 756239893 508295728 950343076 68072060 499787338 446469406 155153596 950156376 154249919 675348583 634200571 305093530 347341583 143153629 573843401 284804320 127431969 771229838 674542869 303129216 53725413 535635082 293745519 253057100 3454466 984149826 320500668 566084244 714351410 360911357 421986020 554058671 363269343 490134854 828876241 966523894 279789327 229894924 433848161 579109306 144469026 321073922 570958567 150977112 125397325 27283530 114993021 43757961 497737694 545679543 657653413 201397318 633504738 601460972 917805958 75808525 636149223 848092407 955047926 138564706 655211272 242322856 191052298 181477546 64177841 961671175 26135899 750765943 449374281 307164142 959408454 837252654 488808596 501800989 648236184 71958479 477016894 530843627 807374948 529090835 877627958 311407043 627299421 998890255 658392842 929544393 5631095 463509318 937077433 306202642 482110489 789113304 365052477 139182699 611899624 343978590 241385792 750050926 208382240 888374501 830962352 742322034 71913577 839257109 9519686 187951207 770741413 693832853 841432535 946308778 606088133 722725401 81351284 951942155 927945891 194611256 192640536 100334612 556518885 484080788 908271337 682166825 552161227 152457942 615739501 589540362 229142377 489209559 506013225 132672605 549438825 32013034 217258482 856062963 791043710 682718923 952896748 295764582 339149555 755922016 290584870 319793061 229205862 592031259 435681841 655564211 75575290 771556476 967277535 822142055 595847386 89769278 888803020 876501336 707643431 1779203 815465654 191119156 346291237 581857290 366427043 286576271 19133878 609579548 386305067 252912860 507055189 504989517 213034486 71926236 520405873 593137377 386502118 794179904 37835693 262922818 966443443 539278142 197911760 512039890 336473976 890485892 630177090 451010869 34110542 438743797 358681408 398751191 711665925 356107962 453764556 452259954 322391017 126497249 114039521 187313259 473791480 655816379 144070074 705502379 593567538 386065113 39616016 128695621 600079683 816431309 107052764 599104394 416774653 572952956 655544987 824826289 921591537 530441425 564674651 389513641 382615669 77882642 196247724 670630202 755491334 369036628 84606841 817539377 362901448 451108331 775268797 32790016 202581914 877467874 920074230 577284061 422616708 479209009 548896186 47144531 226688737 291270219 820823877 246614635 644086466 792277311 593007641 825381816 58602173 499264376 815884129 988496715 64196982 752673224 960732633 496652923 192756441 480454672 429294284 527300293 2535088 974404775 7195606 185230406 52903799 771885820 750751955 946449896 987234896 800091094 686282652 887721540 500719316 366601154 211000593 808254071 371417854 442311824 856883269 722571750 767473468 587943333 747526851 390107247 70681608 715613409 228815099 265990558 607050430 34136883 168941563 831216778 502960337 298128402 90958926 398734667 910263221 490904654 705220115 475336101 922141250 371819852 554985221 917726972 771305658 440196510 196191778 537432502 408192240 440459196 220738433 855935962 982498119 333052699 866194216 184496015 990144902 769367910 668423489 257600392 994532120 708704890 363304835 361877284 15468140 133269379 812742107 47065771 177234471 111309802 539917515 403652365 834923839 496004346 605063364 941019242 327011314 997809821 595632771 853905134 468929816 878026501 984564869 119826574 416178352 288856607 983892973 532083102 249963762 267820293 618007255 698255229 216134797 79240079 283611439 727641 150330614 69694442 356935454 830314339 652805517 926393807 665581130 724824487 969016887 25467057 433550778 808610460 741958824 991691074 659839138 732334080 525969685 615621391 493652267 456938898 860892574 897277643 128455664 345648201 372461913 776417190 600594376 421958564 602943921 201259481 955582999 586322488 16973527 552813218 575917440 971328208 132322246 596573884 148526864 644297013 663523244 738641041 747329560 915954148 349499743 301371695 795078618 805519506 29804667 406327825 423079191 241447861 951356543 938979495 636967471 316290866 921002202 760537202 816846410 258665211 97609487 623462361 624487922 57247954 504270383 720448637 927412587 111178490 504856400 779268299 618715407 391878361 842487187 109786643 779330801 590443173 222367776 470549856 293704686 427710891 468456272 216619729 956923831 614142457 303436569 625668188 578355764 3448119 46368208 443492837 107348779 246045283 562187401 451551799 959178514 692724264 253746412 646383465 328042490 469283465 334011919 377229813 104898498 655335054 325372168 202620631 334662312 898938726 451454423 435975723 653275764 18788870 781318154 416253666 895083679 918226082 874126474 326131587 713981408 933485977 157913431 228574174 315402462 986151439 644358378 504495522 547173350 250777612 704208571 182733986 498120454 956307411 431083232 812097846 975440549 797187276 81745417 608757991 8156406 761687339 977445544 966318236 141866252 33381915 136749695 939810609 602965564 925022405 893460881 89633335 112450910 712102952 178685932 959962907 877503050 57805371 765119696 683876078 159701278 669255240 979139993 772644184 845571323 497346119 684223284 858692998 852502898 241490330 674448700 675742597 769180534 725793826 469578029 471709824 125517746 655004517 290578681 59849165 943667707 518665348 371832139 626751474 395749037 289812547 979910609 545651306 800842275 327845328 106679589 465652582 412021907 902265234 875080186 284940099 66037991 719963003 609214141 266887273 783260206 531880491 10573221 647184360 922635398 261620054 666500616 603430492 825841429 645753424 60253051 609687843 10079981 212410782 526015572 816553504 60402610 522635939 664423701 631469722 17081699 490913427 765781935 452647243 866689279 978093457 275526994 591787830 635190390 440955334 682634856 798581330 932167185 552932241 30268971 319698316 244784577 381629195 689861430 331612748 586066732 899372758 17160435 209746648 727200813 937801095 135130815 444995878 597423744 446332874 153750085 152038819 112503728 688861824 154041438 556866247 486905386 482475235 976249505 525111521 306815772 405748797 771718625 215209449 792629116 65944516 469646722 204967071 204111410 837202864 976129990 687992584 238665568 820576161 35246481 246524337 808585727 846550474 693327029 719324784 467101833 8818477 965096258 55654225 321412225 339245080 427922708 229674277 994393844 62536539 968951190 995522077 464283122 714948548 532315776 380798537 949577019 14885986 266573233 839420689 482009986 913435443 292681614 718046315 379157923 831639 437854120 874110709 848638199 832223083 162625943 819362836 371447246 714596002 583289564 30835919 374412849 212756315 178528506 28722218 414510760 737185439 231549867 488933769 395418147 1836525 566181090 980603751 55084416 447665460 421063646 68509436 647037579 420659041 375940141 754841515 544742404 897880258 573699403 988037935 182551343 955564073 292550818 254675186 855703080 405905312 595468636 907492816 224832609 720763118 468291343 265695550 108207744 825758862 281191945 435274122 433140900 801194298 423523387 883356533 841628776 750727127 160482527 215534027 663846128 706062491 281996855 886061925 115738688 749026750 480296673 68179655 498688888 790939438 608742927 240122155 219011390 796943286 714010331 621268206 575588340 534669758 438297749 120903747 968253809 246581877 714649975 808108306 203215258 975419851 611926943 841634223 161655361 658485793 977458630 164729019 997304637 562678697 419084471 417485833 396440470 862606269 841531542 402434638 410435653 438091577 597408892 410738746 258899874 596902621 659693779 68032702 492226743 638210091 306684389 549692206 65211414 842212408 525430066 630659895 351843843 501557620 920759837 180258583 312911054 113491320 880345863 980311742 25448971 128135247 707509854 575201423 225935507 571476660 68319676 841781645 534168156 399239476 558507387 46706622 737228238 724574832 879645647 106200604 10091277 289575570 603024640 983284540 517902629 969277867 256622738 942090193 739743601 959041033 109105061 837568243 494966827 455685555 170708767 10568534 801797880 727777065 266982180 428795685 844635339 75799577 472629224 652350665 115701583 572146304 27397277 580130338 385743732 346952688 273462777 472879147 844659343 588615115 728557934 205576985 750201963 346710441 161369233 301808513 375396746 956063981 448573334 45889970 957976907 767876201 627819431 497117521 243100538 407106450 888749337 52430399 280832954 427518078 560984076 555581798 102814019 495344050 389990413 402030877 103976689 708570888 859560641 842610835 160617265 532744014 793252664 60175793 294431394 936592305 142576012 203462638 267211993 447590747 783503818 546393831 474400853 283699740 383814529 172181260 272571446 684077820 340543091 507491064 154296313 27358146 490951743 34323210 342191942 960018176 809050613 282942001 38180795 348167708 298229491 538431544 491227805 224838484 499764926 109591786 414757181 742451007 127549269 672608181 832368770 982739480 174206353 835626659 903623127 458206172 742015351 977890818 938509086 147809398 144971362 187670152 382360429 465296840 630624496 481099941 65275364 380192631 292858254 730680199 847651847 856436627 213640236 545358643 751199445 534381796 955110170 351046050 28345128 12650375 374222336 786164851 234461725 846971376 279717079 812584651 914579244 654023930 499405364 906852729 476867673 148736206 121343859 513264651 180309900 636394325 405562599 638648368 25549550 163689556 900731162 652009950 897368039 266585464 604061689 601365465 805463214 739813071 276024923 977042536 942484470 118919131 297675160 145773937 101347384 829295021 29634029 373346001 470602528 204396932 955112241 669006338 421298498 315849507 188111747 991486251 624512234 464659453 249987508 464168571 568291082 831222807 708701142 914301828 240574657 394081583 876140158 997046821 718831343 35730494 525364402 581506404 687415504 537162357 747168574 88748945 424353632 615845509 73584900 168552930 149753943 587125850 427287865 381088724 118178199 429498939 833371705 29323020 839011236 443270578 197097844 509686502 325897942 230966423 373709308 72516158 733616522 493205285 936290082 231481100 874561581 74201925 72227822 704563926 974680615 539278470 562204970 548675469 531166943 882426777 214976094 168202494 210082388 852176210 273914426 629271656 618924030 425222045 846859184 613545727 172336800 88465369 779320367 664575379 971125316 460586445 249309519 640294393 587281577 444478744 589950083 993674645 759738185 644268504 440943322 826389151 411724812 159862538 496864389 34129944 612860891 548477699 688663486 678749213 966615994 799411958 335231431 535014438 483587790 978405120 388335748 995495559 915914194 83231754 233815967 337115744 294579702 661293846 664565715 12067010 856630357 299117772 397168866 666305270 817975269 26442197 922413241 812069819 764132119 769117805 538278841 405042088 92515618 506120850 500175648 675168632 782435324 817786038 976457666 841781439 300827780 469741693 791847917 290973935 155786184 181301038 827116024 851930828 441137164 581009075 570008940 512111578 888825654 196533019 582167401 152135838 302276402 250043525 158213247 287934890 963240817 851115300 332784700 718632080 301713932 817907572 308732677 425786990 785384316 409584417 461077475 123779293 322955676 17349623 627913490 876354502 113126795 38503081 270539648 382954603 552040859 513752415 186093402 24046630 949944986 184271070 58840059 79279408 956723413 377666757 991596217 146995415 512074523 218052343 388977565 53536534 64929406 464694303 978674448 37790801 59929569 312058914 394153161 469435935 298559540 561068069 941789362 2858609 707359147 428741010 282274333 23753306 290402030 599907906 734612522 9555472 927573252 702638706 796872038 965530730 586854607 186288016 231680025 55885155 672860686 244495878 882505068 542659954 892231501 619144320 744063085 202633130 841331526 112297115 293253042 295154245 100980336 200546583 383986176 407565106 734823977 186145998 276231292 418289162 233879688 342178289 501944825 511839215 55475380 845132058 720064810 947344704 20827203 904603462 337493112 473126158 181581353 466802983 627301786 537882668 559098700 963192873 627054675 325880052 902189551 470619301 346135514 508924604 344874175 499969919 284748877 656530491 144748157 779150730 428738970 744991242 499823704 125544422 582891581 766568782 234328457 528947281 809270361 105785041 894124224 133107389 171533300 617529992 887672569 43264464 746406219 623700051 986706797 363551429 119296127 245186111 452151903 474479150 212224204 930294315 472193306 654951059 942148874 545591480 311545655 600020139 776960902 982017641 315159611 410384115 452791283 581515095 711412849 546013552 633472764 423649624 239020094 740029848 545794481 720825848 561311851 561106866 332518254 834029879 297203422 514159814 458252994 408799967 290794421 712707632 989714822 744985123 358730418 503902950 699923974 976498907 93312037 167474296 662375878 789556872 531230352 425010079 980333314 271211898 501034557 198374614 65125202 975204 104411400 158930836 396816653 595457950 196885192 122137865 667829229 90886229 368912074 680327524 663177772 987029140 701406660 956018242 30979637 30499330 132700574 846390622 106575422 181285637 978745205 940375898 115683457 242373231 817261103 701437026 763962298 596210053 68605956 205926611 159242472 371888478 91320559 589521756 583672407 7707744 848335606 37373422 350734252 322064286 554237175 616944379 318721773 358212843 446867982 272910175 34127497 58471594 4562790 297033754 572864338 927219457 365999812 543431513 438863677 398575089 984662814 491189911 101065689 319799930 163723245 448199309 313152280 255737194 778110931 305733933 21311541 383176443 737741364 455655983 917396394 258528647 816534520 520620650 509239526 840328913 370794119 493425755 119657506 791660360 453032855 488355933 628808716 65122173 910811995 669980010 643155816 184787727 210925909 192979697 477068587 518876885 413765860 561324569 94515563 848261830 799012466 199927368 626956124 43081821 714766000 645877394 192755815 35797051 235481031 567735791 164242611 885641711 754488923 610740501 56054490 357724451 942404408 976947935 117057683 550392676 217449043 160972235 973815918 141272709 865592126 659038037 427197162 508677760 345215067 178083706 547255617 732638277 391278958 688090648 228297849 128684081 787209829 907685471 720403769 57245220 531257790 676368199 933425311 724733983 453126869 939252858 660699618 59269921 1945015 215104469 121878248 507729857 342319221 425576011 178492317 645291077 434153803 209451982 663293476 57430699 477113067 400257054 48343285 581039337 445954166 434749607 772229020 9735560 898224091 496154386 534223590 679548485 58434543 12975219 705394870 831416642 522130826 800129993 180674808 42464240 908642783 282128642 348055291 555427373 895471879 162904014 938117421 756362439 576988700 436027034 460303748 821436016 104599467 831563480 675452511 294448842 637762009 789971174 675948728 293815828 195011742 369207302 811525876 703120134 240341999 23307135 271061014 316504415 954436719 948995076 912347285 913825610 754781912 460395338 879494845 564743757 357595249 44420715 656021751 313757386 144899045 675108246 886576069 596189680 300429489 547014551 638224323 589763194 371407525 800745777 178825279 66136965 645709747 85790152 306867147 911193075 813549173 686028012 196339008 429494571 38226514 818496560 111805334 883601647 217204766 7318640 187847661 509406271 716370875 585864445 428391469 566598956 40798941 923171741 822230653 32644622 632966973 459988647 797674247 93836167 232878187 698682807 537792672 337599578 903986915 723065434 573355268 109687659 966676677 825221348 229027545 728463607 717415341 493523871 379651742 237818898 99289730 13960915 276813617 643491988 714056566 820483336 586427978 292404372 75619946 26130675 294722312 208746950 347401824 626171726 87628874 866036911 678071847 87641213 636518546 909780925 969407768 644124472 798557782 781871395 43819642 743787799 134236253 408509308 125968561 41322901 454718559 252187472 462966710 274381609 761429061 702900109 559219605 995117626 246313061 62001229 136758846 530213549 742008672 92025457 620903697 339189787 568136565 472562987 892302994 839728224 701253431 889976119 284462855 823871175 301333783 211601203 526929644 836764752 70479921 296649169 517648813 491777171 755819652 176329571 626038066 539615906 42598696 945902452 682980231 120434452 274636006 977167733 860844804 736771563 476257264 757260256 417525059 336138611 294131358 640080474 814253759 878881141 391152542 697825550 99298573 519304272 682552466 170782554 339588011 207458972 778613450 314503144 844766692 453450381 724497485 484477112 122283843 902858182 706638435 110744828 930476524 924092595 509270433 63787359 950036608 557208591 189580811 885633671 167307087 955327160 773086707 896836630 510962261 727693706 772983314 838358330 205258653 15710897 938512274 522579334 597887848 993933530 768678379 901680067 936303466 20407161 194434283 485519950 5628246 560553457 474240984 194261003 704271540 858613908 292573303 124777766 786081939 676553370 932410932 80412171 277415306 832663197 657679478 109892719 472827713 728739189 117910495 957206214 429058365 421304965 878091450 392096663 765407640 986471278 942949284 478834954 55404829 587902047 362027172 802657179 668763022 15802288 486971691 529123337 219176332 384709213 56398744 700559008 520269196 624497025 406414810 60349558 429701154 428122386 735507946 667143119 305178895 234611986 664204854 645920952 554764346 223582654 792427144 219180517 517381591 356389142 388246650 342860471 761920807 207860890 294542077 825614117 445551657 438559835 165453140 639513690 539237935 556449653 791286959 449014899 306349413 918250875 949340977 768164634 876162440 727551405 273900805 974998703 50631516 413605466 124886583 134510060 222526757 167323781 404121765 82964237 175743599 263948139 905392000 738347110 654702479 860344669 174252695 982881727 805028307 450503024 821842881 52158079 851780017 752846578 434664612 430344816 118121967 340762581 803105207 942332662 497436223 359537480 405976410 698456000 335767992 6606922 200398742 540376128 198547606 824526277 180836929 454974790 398469996 21566602 449061189 985700877 845684581 729493154 878403742 837837970 437813442 485601947 550571936 976854538 632160423 13411345 906626869 282510229 132370778 443115334 286386705 112580974 837999211 675535914 359327980 114821065 911082707 765796938 735103407 153876860 794328611 130063063 773650906 654097279 200272842 950975228 30392870 392599440 375576255 385616667 911392304 851823335 842735695 884477727 160594010 753615843 871096663 161262571 820921788 606552337 761229320 642586030 584353348 545611894 671234282 141811220 551753038 958854083 942279649 791500161 103090095 930300237 709876239 75369503 518963211 57626436 110897499 535336251 750032555 119229032 287160539 509071577 607691787 580034711 329789553 921578651 115459589 239978457 384439154 220544730 107295808 615448094 334416159 859457407 380759234 252948429 978832285 70039035 406640642 277403174 923572558 107697594 482318309 53821647 837708769 723788727 631536079 695461173 324717326 488273121 594784320 290885617 970410650 701158040 454509668 529712462 599205343 721201542 591141445 640473590 36092307 617577440 382067585 939277785 494220271 135827086 707913901 900355371 159641325 514664969 734168872 218953791 734371234 259558735 198007358 292655399 553476628 948876770 366707576 147539576 445874414 274510251 911973351 565046621 901248201 723194053 384868502 284298360 70163442 754791266 790796015 396788112 657033808 890059345 166580563 798019255 551382199 622127304 873995498 758912279 650654101 258083273 917539911 719457185 175881611 647220157 510859449 216674432 611604104 607919874 119134003 270747310 57397646 856113558 753650369 278460153 199664392 371678931 167991696 207407885 412470776 70999491 148795815 620760684 392946701 459427313 809542399 394869932 452068690 111340315 798267466 848377420 566873538 45916974 601074167 463373771 798116493 390941235 457080507 435525726 361857190 31513252 340387255 142507600 293651940 329895228 403230974 740854943 131922630 563210869 896508997 955364955 821517263 180846805 802206817 119068199 979635086 868858818 537381436 510423389 889920239 300902006 613795084 321272568 793195555 618704245 841689948 743841234 937293406 521625037 254157657 940081629 748207550 177692226 82750699 80518395 681842226 782327533 91301052 635623904 308899652 761871315 420652843 749050674 828480458 773475122 377929310 201746564 796359978 773952618 380282353 656956260 609237120 330181718 743123100 76437523 816104216 807046996 985195947 836871561 977020835 129584644 984227533 790874762 611594556 993303838 681913901 650169635 46444432 97335794 738371794 975326773 297869183 692616633 136508650 861778037 906087731 25497055 720277740 343623291 813743898 466055676 584729488 614199549 319443395 173876378 386923740 431343583 35438915 982013394 175086747 334916786 436480457 626290545 612078945 214225364 439727437 380170971 493269369 319587454 700183776 370971436 963489040 309637391 775030351 665242529 664623835 916253820 547729944 763606555 281585886 325187848 277327212 110699722 267780203 867067659 608748129 875604101 632330188 876344951 41086692 867016300 624358360 44458573 611672876 655959191 978941789 201122124 683109669 346351541 590732197 91943918 709586798 752373425 189530870 897226022 50907108 341951654 567819357 440538281 756718403 209673708 507444 711143135 29153416 81023596 156402033 175453859 783224935 191225618 231150688 779412217 838458576 829553832 360625005 442554876 159075274 391285714 551495455 720170754 904006524 372569151 521460611 478792388 462432128 815090817 275804797 72712472 400844202 233521113 941487599 67763053 411461198 317887408 513384693 160741095 854933741 875855835 713846584 711207912 232372396 540133695 454338060 447873180 595594890 319566248 989607997 833586927 418777998 996053053 77151161 69675787 310272313 36082690 945419822 488926107 362611737 710367247 62240555 968444877 52765600 200737578 704383565 9054325 139437249 663040208 975001448 577336412 314262848 707355038 931217666 530641581 604113425 484609265 816882346 461693080 581562098 674487207 491573472 532691657 907362833 219154549 165842101 981198079 397543193 99925297 11365119 440430973 963747262 415673715 528713146 706872091 614051548 193432419 652322296 744118655 633116470 280330441 543344546 111050395 992657221 537690763 698954087 215502798 422940638 999803933 70442556 699005412 86165665 974935549 984851783 639400620 446645627 504221165 545003438 619086132 45307945 881781377 467439548 31722762 662155142 692913232 849264685 38187491 501032570 730963113 148163162 836078652 625781595 480578708 174955133 449221984 918428010 199969249 360902774 340507786 222004469 890107099 806824047 491534839 520949039 955773534 967478677 387240118 387901391 37379072 849894356 151416339 840174754 22126671 315463014 746677260 24330616 463234271 133332467 374951371 250832775 991047183 828490378 889249123 455264829 41604126 420791314 87246242 698883428 557979702 841643531 440297280 930585089 55651510 745048156 983873679 726227133 395916266 71622325 958681484 976614389 885301224 436548393 359360199 876150194 608739203 403140165 63995721 394423340 743355365 855148030 416686349 123318250 680388934 450232242 414438952 251039541 961303014 80042175 358851949 573387479 874708389 158349033 37034388 764832162 708183022 836575825 971266547 614447962 887534721 279057604 605417291 539076112 254815023 756992066 675643937 221348295 58406960 750148370 244547451 74721231 917663859 514054654 762759092 997746854 765319605 725979136 815268197 448785474 276645860 118499568 484633481 814828342 859004303 578577273 90292250 785502594 475010663 297383760 878352252 917468438 737819001 471981833 885318770 682781378 642478973 835368517 845963545 143603749 12743112 89225432 683053814 272481045 522636787 897139070 151062707 753649488 949723164 615147371 671627923 289085489 165227699 74866053 215035525 166672869 88646956 955946096 710002175 440853613 980744365 951922564 504328272 786151692 425999695 202250696 970315203 355861301 837945910 712328725 852733172 722018302 88019757 168219818 334465992 313519994 985343193 233757753 33994315 81069990 348019170 691396223 822716687 226513363 512475758 4885737 101672713 242464963 443087207 547702070 203480590 182824562 75428369 885891767 734579275 418546582 891133256 287230495 750962188 191756745 591919807 970633963 971370112 963958360 641152045 518144113 51677592 207286230 255846743 355537937 491667756 637568106 790934283 543371908 338422836 450420354 759803327 349590329 265446197 970740901 614292752 600573246 980113649 484496897 272416215 809093001 276710438 915140827 733719242 57480392 567421275 93749989 225071514 851745578 860008345 57402539 500469998 246778764 866373566 994393556 545110095 216041014 992480212 394864572 542549259 582023129 84546063 157156065 845427509 98384982 576174599 95532023 536710202 363356301 814103445 556190808 229316849 895367095 169242507 743808205 905594899 233358753 216143638 94802471 961677390 447937055 679626334 195934338 119410376 56064596 494980212 536363991 26039000 135427070 537239844 708323115 658602413 3007219 479317346 74728633 967919836 29425155 709153030 988539098 941410955 19041474 260069347 330649471 161218942 454065064 45901504 314911526 452791335 926791510 729802153 35686455 562109510 631394363 543550276 125122316 468414155 20462690 255651152 887578478 208288024 242449847 842098493 204925950 962543829 822724109 989735741 965338560 882542646 806566572 857249931 893013168 270991637 56724682 478662921 521418686 514752425 856074725 375014632 37043457 719430393 117844865 588782530 136292641 872726460 852194221 138238791 238745528 51443772 876374493 511880184 251874719 437863622 423846433 471500080 589195113 160439184 65625019 867421670 57977709 821515201 584775276 196434950 829510899 343584103 585372804 959075376 93530703 236913394 116682041 503757697 989052634 915186474 123382882 781977772 481723555 392066126 243184742 984973502 256294956 598105724 888305359 794399801 620580104 607722489 475494883 909758938 388665907 810247638 998424763 154445359 226070426 886506909 996607671 617913444 42878915 252449336 199086260 545035944 145823969 100571157 952049683 915592512 61163223 454594026 889706596 962334433 518850248 415479788 443579903 633170646 710269567 270006070 401616875 991698356 434697798 71347477 565312229 766403905 287975123 350283890 803766541 86977557 957930689 858359802 236200797 975146616 564551467 559747340 661576392 949689884 931877074 362182619 764430758 698410138 77906620 984583068 911055706 698100238 82534111 59191487 594149618 990234209 200110241 104365110 392573887 846860061 120768837 846503841 788905725 533870394 472480416 816329485 907933839 872942482 651418416 11471479 823781532 143472015 306629042 258073705 526936765 378674781 97804750 959527534 833966630 435730934 72775210 566630445 381839524 796848898 388051585 126883578 139011153 548638173 559520598 139150862 46009291 285021917 264655093 328458759 240046365 367255750 145252193 603212995 374461810 169145037 694414808 10930020 747069937 863924106 41034715 382388988 692022011 807744289 77512838 266702374 829412006 657841073 447177856 415320210 999533292 402073795 653547196 3966192 832701656 178025043 6988894 503806939 658304613 927258103 689504534 217212695 361163952 9554944 364989895 908031143 227980600 568199516 668115126 281153208 74881562 873607249 137326994 21305799 489452899 602661058 886920249 918104837 424537684 796178757 199463246 889970252 296065082 413189088 692388248 441250727 646256394 390781128 869526652 641635989 663002277 930769018 741632896 508170943 826075611 26948365 242163499 308217445 493525938 828242357 603025524 509567938 130098268 725783773 569178126 375469422 789145254 5490992 35796833 26242541 352339258 938922304 226763795 854531330 299946953 866344277 592742327 86560066 300542135 219636843 707073943 727729773 335446092 332118609 224732100 331947931 823616085 129561945 566302011 459362441 526478707 215325614 423127307 328416424 837888573 911986241 242153298 72515863 489852529 854252174 954968632 723754448 723297357 749694539 623685609 72253375 108258460 825642280 797195598 512840480 287317525 945127942 495823399 957626950 359546044 159795204 93969045 247734651 630153527 549390649 487443125 511287632 565392953 825746849 100965501 130130503 221479417 584962453 354616187 953016324 253064496 670620217 136287778 931772685 622098734 242602713 14150534 701988657 205478139 956404664 612402843 140632160 613074421 936110810 593718442 602598470 999731345 455198453 313022876 815728003 301692600 395481440 516619258 486928573 179020454 233755160 601894206 312366598 774087416 542938800 316387955 556576462 312411971 145310207 50940708 112549538 933191577 143708317 687391758 1549497 917845702 737063020 590903178 841095761 895454600 143871576 927485449 562342164 405743619 810631182 438072191 379203189 833688948 376204875 639113635 349960751 386110688 59352350 568707928 784282947 622126123 449394096 847929909 560501702 157708445 818899670 565557959 596914230 184249677 72241041 358005024 81976146 724076418 744573738 331366686 646773770 654618295 877228318 288217044 112415065 957954961 61486689 498397142 714564966 788427409 718863866 349370727 15393076 585248996 171979289 335820593 853839366 12524348 267429267 998722359 338998564 945027585 956078688 80953963 786560288 930202574 253715090 555876904 209777395 667456480 235810656 417580484 798936786 907857857 824052210 793056329 774386997 975836396 771683874 269248478 400518915 725924376 137711599 316513355 857618452 179300662 637372784 311480475 263202057 670898628 989950832 475279257 857998732 613455698 182233202 896860454 412310827 300925617 730924083 50532222 237109184 603606317 497038525 227448388 590123236 799117562 399646947 683958905 122311883 932686940 571509834 751087323 217684912 809247756 256803993 131701957 120819458 377818212 491377781 789172926 949565593 891414611 163262247 555880836 1124008 580221295 401354774 641074912 588475669 134760914 978071788 16229379 60915166 106092865 237985767 704804939 940752634 883390427 727801300 549168262 964690454 938282493 675871065 105746795 315760048 193916621 518025537 283319991 42653254 147003254 8484154 900638464 706851080 589566825 540168549 151385753 923606638 743958788 3988188 393262656 481770782 307523257 90360395 213884887 799427609 547272285 556723032 184357985 708520443 808376949 535717501 288836395 762882668 242695502 332990824 930457092 275224399 232161691 378934439 237812223 958230306 298310390 359543141 840230245 388240027 510760067 193665601 683599343 264144680 339154814 409938408 783417497 744641892 879555218 679305424 752306229 220781912 168115909 617578761 449008679 154562187 632793323 719463428 136092976 997617592 825228238 804238399 936616863 344889929 295632910 471349972 728421066 87096952 949787487 141298666 4557437 41188200 499323719 188067872 432752244 696511829 515781376 410344128 932570649 639658880 460990124 505344668 698192578 435102378 621100317 432062821 363372613 91431249 346630344 924225390 992530983 562729371 260357729 150392598 226490515 858273724 834052264 180323845 604785199 905112763 678294750 953590163 591348148 85519457 769992383 926918811 98833810 503398965 561188800 215684850 995031194 643524167 355083639 524094321 269853906 323388783 345845032 639147076 683217030 899503817 892861202 77411684 76326279 252093786 370299766 767698313 684911299 486381985 8954569 629280165 1260438 908669725 312418069 263514725 380306420 58942529 666413151 875797942 220412435 106502914 943347774 972144124 4948496 275036659 910501476 174717546 765107668 172484124 1998195 51230823 399302038 473286274 892307901 828401736 684508103 637336374 124098112 32162126 377854113 940732097 564698220 519270348 227195282 133621784 317692594 937466855 465307590 595339824 180070549 38899891 914882492 787515731 478251224 216179637 448872379 401662487 510720538 588819226 750437770 371938410 961359721 494875223 715088065 629871756 536935732 373502473 184516375 11279988 260292770 760647003 660334191 831445595 508942777 927939044 92846639 419090383 345102568 695483695 72348540 707639078 544967310 100911824 547344271 752241658 712606413 344587559 385946567 395841558 885932528 265083613 901379388 221989059 831342881 932666616 66063072 995211333 143995068 38598630 730718455 258682411 13985656 511566993 960638423 858588597 344117885 258741328 843886698 391920201 511677484 250530842 53306754 600962748 975571223 957001127 626622991 610213512 586141452 316376159 794447412 610890148 694116788 974930713 591775525 496545550 79028526 335523870 722348267 216028007 184472868 22382979 745760819 616649083 24758471 595483984 767820013 772903977 705007195 104231818 613367274 585173123 436771366 540725707 225051967 963422726 177940754 939878944 493427260 1525446 782640852 283551094 752470880 840904632 507997320 985686761 931902087 48934946 859893459 227910803 985702666 345739015 92965821 964909627 477219350 336872192 800589559 376458207 297689751 991869226 116675932 761693311 306279418 33046456 13302698 83656458 274982679 712621206 203637603 870914273 282229642 358890276 272562704 715050401 695793024 202919362 6431801 200501807 105823046 38187870 883353553 649929438 599098340 141193753 706362364 340186310 996706634 978107923 868523817 406475489 551762735 796292025 597258202 806821263 159386805 615676321 733041106 805508483 201834529 754114769 332744924 150816910 118751965 201903099 948609540 225788805 585548102 870392153 627896419 862890411 589868106 554210199 27850144 206274826 525278740 421365887 586643149 840194631 38922154 700758690 861962254 670380741 440917892 815759107 694194745 521828093 43812975 806491640 355930789 780363357 558790795 42553644 463546205 618148294 519291823 838373646 490443382 499841384 455742418 627492801 325189998 38291625 442505931 388858657 124328111 421639327 276087537 737814043 712427468 778490732 317303162 969900429 30481343 496895329 427597513 238499022 343333320 920548826 33765547 336431309 38842378 298167836 312906131 622411581 391397204 789692304 849227785 718199484 107877371 354876686 994564067 638048666 623926280 911189324 892302579 843350810 106033121 925441399 814000598 664378348 876990796 240352419 34012797 71413203 490912420 700213288 333888521 892220100 690324170 268753186 950484452 739237664 908170630 298135779 831270291 409630654 944989540 896199018 935987504 466411693 802017425 482860540 576911598 783635974 278197409 588976636 558593672 75775640 944388227 564329039 764587739 76057290 321592188 574633214 684671439 932977590 655821756 670812947 507722556 198004290 548228489 722032232 684832739 906085096 923612018 803966448 239372801 942537796 801561506 912737596 661147745 807773436 299527689 298762232 908859779 897239860 533570540 202651010 873323941 949298224 25622720 866827950 951393517 896220475 282073895 110825862 943571575 324000092 751548400 244167419 510816053 648986281 134100697 315046850 718427577 769359969 329533506 850270992 506294268 128815655 79206133 225794981 557567288 804561244 761752332 594139353 155821958 114885647 163981112 116709641 476550637 761175026 127260165 678004465 869271000 164810342 654775346 842261884 821354210 226980573 147184157 543414434 289891589 760585187 236749559 870173742 646183107 575556775 891856872 634783242 617505502 860731178 605849883 128316460 930617149 307288646 156464730 419560428 838828429 733987949 354423849 383223851 914962977 935700464 157702910 201532676 997618055 128645366 315021285 944173950 680176591 808295610 628266940 767565332 703443436 104544503 340473117 495618937 121043536 279689026 996347297 28895585 270096066 421738748 262105717 798501147 278351509 627885927 168663602 733620031 179515565 571225956 742959666 426173099 560093108 662693505 115861109 408446533 155531261 440208763 686719007 556045073 560885233 536694429 234907147 973476061 799525147 910097747 915867663 727333059 965245260 869129249 872624219 394231147 388825529 860429713 422968307 272315118 873801671 20021750 244574061 545435123 620362360 268258607 212227167 286389368 396212667 846801150 569144462 282093456 204966595 777745528 699818905 365919161 915680098 317159864 600692683 795591028 839085907 304135377 28281601 230658129 20158301 466979649 850302751 494216161 298215564 398719967 267863744 667919444 81640630 594856057 661139023 526394297 733848613 341642374 549933946 509678749 833811277 800703292 760774105 126258242 615498927 472825714 682593763 920598603 833032336 879462895 149414123 707598545 307473292 10381911 597999558 247076861 804536788 403842985 854629926 452968460 6593649 467077419 68503730 24448861 121221039 526934575 858574824 406585141 983006472 721183539 298326380 610136067 840333322 133443046 457940264 480728602 664370550 957156025 636531887 64162021 744058001 71433125 638679330 605703673 223277350 301284537 342914846 422010331 987174885 814798629 759417992 373208479 422891897 244292568 77177824 539467045 50386591 169856047 664774913 166468975 441748620 623602448 211327370 385636554 164095697 694015361 555272310 95548627 357460473 823231044 641651067 277325483 516473850 812511910 502806165 329356007 842451721 108112793 918390963 646832410 884759637 982194249 75889789 310769305 370220487 624922122 122678697 251336439 493592377 383088599 664764973 464087034 322584107 356860642 49689206 40694773 491402746 810054069 585692968 16078938 820433999 450628344 534171606 440462985 533224621 319683139 675761585 252453848 942337447 545968976 910284618 93311208 517788017 41842582 908865227 368331897 836882908 869378450 158872220 619661724 216046843 756959147 483422783 102766277 953970109 997682520 665989335 461690319 604407986 944849427 278499827 281751831 251420083 442910653 97177949 412340757 994500090 647508778 639653118 358682979 896236886 494889642 767072188 842015990 21750690 88909911 964421224 664488090 426303362 950724590 324154970 276729493 522472196 151789114 808803094 51575911 2933281 273761768 440939062 684810187 880664938 267854377 520457600 361107863 378966414 853224025 10047682 147805928 475318928 115490869 235025388 96137713 579283200 273316884 953438770 661437284 862764601 656652560 465506976 396662330 88644103 343299401 744636565 19800824 774157317 799060675 853214874 615457844 769048990 928991900 455871911 135545342 672705726 867662982 400501004 838555721 596336311 102437272 717123020 736471371 492949181 468534813 369722414 452358187 344666293 833789315 624705535 82821615 87293852 169407815 306808732 406859962 173797146 883572082 850399291 898230659 188032279 583355759 892369632 577595868 587420912 443998855 222436311 999268416 892140031 250518155 26269226 161863404 911757734 398786498 320425169 713865968 170233775 719396889 317636959 981279028 468700365 756141452 756141351 419226204 583734901 727270390 381898845 209980020 403088939 862457852 448717831 872980888 453470528 127106315 836717229 566769659 322975741 209250280 951149673 306872795 531469088 350260367 946952345 30483685 645989448 314125915 42284611 494075247 59868226 567454501 650697464 183312157 507609282 706156557 136144306 988105100 555011370 474578904 856491276 995537828 711363159 614422448 481886258 159539321 554522450 203066994 559816449 701139479 796604019 128891891 316321729 151506090 130764701 160947233 878128336 265819023 874401644 480898019 617125039 727886258 844958812 684318588 336629873 808286433 203548115 326186802 654386495 7606717 764905307 689405989 73961371 537056725 290303656 582344035 774050983 904021447 98242014 751935628 870429161 63265756 565128970 568916448 42133235 532066614 943963273 41191668 713647581 91958891 416374888 955129802 971131534 748855678 450132259 135975016 127352088 472887951 362884068 249398767 959282550 206347541 98153260 793794345 301099404 443782135 558815894 278954833 504564144 520246085 432885663 652845566 391915194 716546844 542423622 47744149 934506487 224930558 266389859 849077621 522641069 673241770 505135573 469074760 86475849 420505739 649531556 49417463 918884987 445378436 455492062 525579941 952552378 236893728 77382198 228798950 787498400 753032639 933262948 304404794 565731746 49076226 342676465 885593819 773331521 477223492 797303910 264225204 765336660 993398878 125462692 468363774 371109986 369655586 920253225 849164418 738474482 628989870 38693853 902556126 965682902 576576729 523863665 938499373 179774208 801693613 234046474 330196728 671976002 432478582 94617027 868016994 943381504 399304143 983089326 238356164 671139212 468802859 534466432 790740047 925387244 892663498 826796693 596361586 340117592 14477344 611894993 349912266 896604042 204779669 655870923 324216293 343761851 271141713 476519660 137728922 778618425 178310994 327787105 797534918 314275554 655926899 118705154 252801442 129752878 228238428 326981787 361171959 913085388 869543618 42260927 103552976 295641645 264607607 84886132 27470823 576214647 403263362 510677003 791631813 24731804 482954419 594236939 698386162 442770678 551729327 95421865 917619732 974664279 587903442 884978526 83437571 543529614 524235426 217717907 154049420 69263323 134542867 272474095 630032791 882745359 510077863 148342754 852947936 929935576 652446330 849506217 195678917 31225659 528315169 19522585 907578413 794577119 417951248 129401957 806414345 646730425 982671146 745307943 516932187 8142673 111687476 352955175 209131945 636547054 546608072 33105091 455534163 926499712 172687255 400214571 479751337 433968203 292520904 370285717 442830323 161967002 260499759 771447724 581494729 520541818 751268251 626931971 700392443 260700699 598895579 771419248 942749139 634478313 989044031 212693370 373741439 671910218 682497300 29044112 301237932 507904100 917170420 688905532 841681858 232725252 897364720 500048991 26193731 556775969 451211975 862490769 41294119 698781680 205486347 463535520 326761826 979228925 170009156 710498927 278622485 38590973 923197189 860856677 476645857 86553562 324179701 290070485 680209468 129548727 183179555 136172439 746400870 562749115 950921015 767055434 883063400 618720706 404587673 764915590 792192820 924611929 460391449 857633909 876034993 137894658 790438672 710323299 73262018 382267994 995806127 414576248 251958511 673025260 16222385 968004173 651036091 797889149 292947248 2497677 427556830 779548050 28110911 243818409 257730694 793375701 730618407 589206476 179555867 634865817 778710560 620630472 323355032 453476300 694215221 697255075 813827611 764468208 538695833 861579023 166878158 255099012 125203344 614289294 326243276 536431466 360839540 137021440 138221937 790528017 346795389 849759454 713913923 954370287 79479864 385678754 748673814 154195100 671018213 338632753 737068457 653652534 476381935 969991450 226621811 1865463 734674316 508476886 347725017 6704978 935325133 349041617 445524045 777175840 881779713 187745228 128737515 976771817 950698539 778536442 45159520 829464610 570699063 985781225 293633973 391952375 967154416 267268186 354586294 640376570 292453291 939481280 333808456 853433575 608552577 402358146 82550744 552113290 331266889 492056845 143453185 309309230 463071440 660849171 675676510 898494446 691577307 128545025 118869194 967347872 462650942 793366145 161421333 40902913 753310521 306658256 524611333 664421457 899789686 455694698 333536828 740359468 204457030 122598886 588353433 281580497 887330977 916181909 40638852 85667654 652904428 397462444 752408152 928227101 692027544 874223867 56991216 539497555 372819665 961181881 416895414 275965655 228059496 837936619 186748793 165549263 657752009 55055432 356766323 559579013 909114432 293405208 842994605 80292124 710419383 559787453 162766303 339780240 837738584 90024317 13571835 448670535 763732290 340826413 488614710 291245408 812218201 485729314 914733526 793883222 25413116 435596890 458693928 539359556 848285639 578556648 463717912 8191546 193829448 338204483 964654725 607340996 159974738 888154570 451316883 802559296 564969522 564654045 512567237 17069220 698190585 254764614 106156422 215510307 326001357 584155222 430728394 425745003 730429729 331719378 105323795 786153617 49536519 85224954 464269092 321831110 131934605 677966138 44660709 347669151 404102440 618991849 961764456 161956037 395040098 488992734 117232415 272351817 298879158 674083383 923665700 858488600 917323633 274135894 168432985 708112610 869689481 267299603 90983550 334293820 475440774 254515452 923801979 7589685 216770719 794887815 679391857 539560635 909428253 743313100 988551025 136502045 163322468 656410004 147012279 22409723 62984541 109994025 670097266 734939884 931330047 920515398 628250033 228652116 108811327 705751686 538129931 117339411 755064000 640181379 754723830 751441481 829915422 362671092 468898300 811852297 638522299 677411831 744355783 68126698 727507597 986723389 143028198 323637656 43999607 236249349 797794868 930876089 223550574 968573641 771922201 796370130 759509145 155974463 507497420 122762177 108212351 86442497 877504339 62219867 943661334 986918316 819991861 121610585 618105372 806660528 4021393 107041850 803250208 320689161 167677690 64537684 337211216 126768661 102863762 267174292 419861179 562816131 728541652 990092037 513835314 886814390 317474407 895230373 203804906 880650865 269405931 607959347 768049967 811740892 851238666 756356418 750230959 45527536 1394139 120022727 330500539 236199593 741809398 939385796 876350195 188269701 474601388 2458914 594773723 123794373 49090423 834622994 814207821 216711157 936773028 37789497 709828752 616938983 549979371 668873110 243415083 669811583 738041775 982417123 540925861 212944283 671637613 762917045 597012968 176494944 433108922 649725963 924159788 459752651 558683249 460150950 502318164 732208808 878727523 119374871 211631288 158579618 663968261 827152640 659515316 487718817 632752441 211046351 913971079 840080112 576842915 372811157 500403607 542728890 297865726 255817427 823637366 685140679 269135989 796732027 931959437 124349098 156927065 516123777 612632690 583006363 396623354 559025348 744016015 259297019 221543430 283137718 812621206 414989372 478448964 477339866 128767139 855031944 906458416 636609915 227552629 497853593 381915304 684199099 237933005 826260851 592253184 146524650 215675618 253291402 630672645 254821524 443215810 589924456 836952106 108357945 59364516 416467260 272132097 674063611 658238781 726748974 131664929 110781167 20398595 364855626 765195855 785094159 836742812 841540937 53963407 622066990 47554073 283519747 979812325 596058434 608405246 236771831 280526616 268136631 912985756 391383778 17259812 576762995 556699061 38870482 531461947 650546161 494086152 826165858 984460261 779552355 66031783 525010262 425382898 989416259 149304560 459644720 657633910 566822285 691563085 26319129 826598486 936135873 59822030 152666010 679573788 341819965 239470978 748092960 707751183 914328649 483507144 796509781 130665803 225364469 75669271 821620304 131606190 278250389 597022054 87237115 867161995 789091978 137895280 881716283 646394642 273635598 907852228 518557908 25104345 212131213 714481972 190447309 354094895 983668089 130585531 820034329 459493599 196482616 788948256 987481691 902485177 902970506 67027217 858486609 208338240 796570573 770243874 992412619 890331915 89907196 958576848 345386711 630727246 909591317 716864654 444639799 904674629 281019105 332801155 585467859 29215681 570275170 697878136 28009447 90922510 136438014 489171462 903895281 912757591 688107800 127799208 763022070 17861803 623692001 898601185 215990246 375908124 55710680 861509202 962770707 701927975 765713565 536628148 839961286 847667503 343792275 396795924 144017697 860295733 244102227 783593815 903719260 867481511 122375971 797415432 330150173 678275024 987095114 442147777 903406728 967241754 725234521 599081014 435929949 390775246 355314352 261754762 609538721 792848537 855059233 816410 857561795 826624465 44580046 241183922 164603601 864387095 102501201 472081125 712752007 312320063 279208393 250008242 803427363 992875476 462038148 732446584 531243620 616404781 2649867 117477602 575139835 667982032 132174327 32186710 936928417 377801919 305158810 256369425 335442240 833483622 876184358 365308814 147422177 295976285 449796252 578787116 405024980 328024426 266120190 680416163 893481910 89901025 410971880 802380932 568651235 796272132 294683693 696075233 110495148 505966881 379474406 465074188 814157573 932615318 675685946 481352740 704049637 591736254 737619128 868112583 526643248 377338910 529395751 64052960 464083892 125336475 345613421 399996342 252155760 222788220 121252905 517440588 54954116 613942059 528211660 895354895 885990381 896130034 67060297 46958266 334085889 519241427 755261360 741502854 130221164 818206823 188440824 28957179 582390812 438309244 447367697 246978851 281903138 806169846 277389279 806072304 885730159 348192145 326266250 212336368 544374500 358761870 889032991 648839981 307462314 673199255 184376649 962570676 474444456 857168527 85072412 31779287 363166126 339688910 482916761 972036609 64023178 29728674 288679911 799416552 931292525 957370284 175910382 928067610 733871646 795704212 617258648 127871098 460064492 597031925 156327284 590238369 868873024 459515881 176117515 60468458 869883718 907638150 220669487 986197600 88579534 207408188 665969579 179951188 440584578 729095079 514889591 999951927 22203702 892922281 114669661 868506836 923185036 50942606 164214738 97006772 790254845 330448271 314395864 366364181 668805952 427239614 803315567 848177171 150262871 629497858 2938131 701397374 593313771 625867674 931836891 418736003 134453779 560614306 44620385 350130437 74141451 211549740 201713876 100398472 242609869 775828541 493174892 792689947 631230772 188534909 158485998 909156124 576152268 654331624 830819642 927094659 747701261 483300053 504299685 875138366 841245836 107108362 924718317 165562736 413213957 847956075 372114475 445626496 803104717 558201728 183169889 411677005 758741666 946413649 577744549 504576578 328139593 489321304 426159158 998195017 389068590 710740336 697240333 750348695 642091117 712840920 222949931 875046994 724987544 510876608 248043961 379294532 337689420 651054063 959605784 953673004 886318232 14241684 10889507 8965066 44465766 414882230 721720686 41810282 474150763 174501778 64924935 567079595 745626501 403222578 277044845 804241955 473311359 222690241 610605639 59202741 607424762 196610946 281134617 786300379 110383435 264071618 37388003 997679454 382594573 290400231 431364614 657911261 727219445 999335331 221648991 27431889 632859282 321211683 200815112 666979333 654036334 941725292 619746359 142406997 293167186 412180436 739682478 145565364 49793747 740158699 783090411 567669328 732298617 274006783 933906472 285655700 233586259 233571551 72268860 528491602 385483281 530770071 919446193 553192270 698057212 415634286 234486567 623488293 3787402 196048933 731065057 604192809 96797823 158651590 840705026 514890081 662334703 913667957 725804139 25733032 534396231 958388074 552039894 523225908 480985772 174746548 252819663 131960306 883465037 750806591 629836165 582535411 824132525 126448058 379141823 5970881 624105947 924174149 876221954 88849265 255930874 931060651 553040610 106044614 887281242 241396087 737839905 112653857 976886694 885012091 654756497 773344133 704349133 695476 86658755 757871679 214619524 891006010 623592948 587710568 668344518 472589129 110879898 973125077 534361170 503702865 628947925 532269999 98826324 321828741 764768827 353790788 322268691 938129291 717105789 499824863 748446956 262761510 622859947 243190991 324109944 636071932 628865272 304865481 564517066 576075207 801319529 305403461 679658414 808455249 455360316 152341249 835929587 879770605 937298484 907013379 952314619 892258894 994629276 93769336 377432097 345018086 771166158 231549632 606096364 360675131 631915205 416413027 622250535 890139772 770157271 295295317 45214531 716310545 747324710 99697043 893719424 152311475 258923069 568147042 401226238 893306431 768795262 417522661 152693404 110742851 35619922 550918816 613664719 952881714 146686817 154721490 203077420 822307154 935284622 294567840 339978143 344854857 840037156 409584717 353177973 820520458 614227065 115316716 206674029 221076651 828968566 395485635 802132068 445219836 416298484 681639226 450563065 323961286 409745508 961290537 274883285 454358179 635228669 313625088 283465443 729673611 910093440 599556665 556240217 381554198 775639424 508716427 92685032 198719621 718635309 146457790 980152934 214329573 62163514 258164547 267066081 686641897 678533500 559046338 297883106 589643549 20657047 336449405 325204521 902899779 216758546 230907588 937405941 846029381 420581414 738628229 709318256 566754759 494557588 785596034 14131624 868835021 668785310 677571811 565464958 638269706 576178988 592878875 960976169 42765466 292158368 568207233 857656174 540128630 902096953 820684216 583758244 403340914 67882591 954541229 712274286 918841454 539790185 659217173 285193605 979182446 750712117 41739191 852970789 287255604 924489837 534840137 694081613 969274030 448045342 80495484 416314501 919487526 466083021 474603671 618864053 997821618 112759861 482879093 309545780 878387473 904985407 884674569 49155050 352942224 584154735 905105177 475037046 29610344 291908754 779432142 426332806 92953358 464325869 333053420 862809366 708245296 924184720 431524240 649809168 344669320 556814156 342686690 153873327 276833581 188596058 787944081 260081696 512916657 482672313 563489498 923977286 140755199 925662600 353897558 607063758 58573918 372312719 67205355 304806785 798108304 344697480 297257952 746560087 2488468 765456249 541783202 906730045 395101844 691399157 119801461 800418472 15407389 936589737 172384252 844608169 533894243 369044702 685055574 792929725 499395920 202614905 87888737 829522367 997058837 178709146 525951279 650329003 891990902 374044238 64669398 387396137 849097316 917241431 804014072 500444231 428559035 867559369 902267779 290312976 307622793 377522636 761063657 259709868 922769269 689875680 546723594 563559569 726125304 685225885 409344990 256047960 89410626 431639745 179915032 273652772 659104288 454389361 909086025 991557647 114706710 772996416 149646103 622412967 534716390 90094984 977445947 822010083 41718067 176214734 611871421 923843952 633385625 625032895 340164920 50692479 883169998 709859779 191586405 375826719 814688299 782059317 599463440 139657397 305916177 746228245 964869245 846510545 490808902 448680301 831268349 254464232 28170878 69595311 383677861 339566504 885297248 432576153 790524155 405162043 736341257 542663630 484574968 886829035 926039602 786659076 714887113 93995634 57894876 355864612 1533768 551049041 342004838 635332201 626125137 655510162 948699922 145450092 291653961 857603928 679760906 564863628 891275174 757288462 838517654 174844311 604282425 217298781 837048448 365311985 826167574 85061382 547694179 605824068 398266358 382660039 446735029 208574216 813760314 167394771 625836804 657704264 20860444 843345532 589206645 573826779 31161042 695860934 724167530 529848008 621457902 713289693 432067717 276655714 802271833 948771937 509866127 44781111 208080123 306988065 833574862 619739774 205106869 707717595 134254402 341436390 252171956 112094247 526089966 588078063 419015129 913224427 202754826 612695303 339547002 237838583 631526521 211461758 55765030 322112780 256415747 561228349 745145001 205252186 174911126 879299923 887324810 108475742 359489252 303280230 987358077 79439263 24112903 62889299 22705687 642152796 226347462 856427517 557091565 969010134 710195702 196414839 827534704 409304948 2839518 985680384 82781935 476072607 718706528 355129144 397075493 478891402 664290528 296195350 846184755 872288227 272266335 360385347 594565476 939888257 656777690 72059813 695706395 887497998 725412164 418685576 574668641 277173928 806223403 916674916 761839221 234373316 522819416 653920333 79221700 169540907 399496451 130524140 696650236 200445835 950415224 123387249 491227103 65228415 105003982 122724547 359696057 964876919 459949913 645799049 447036541 820850106 327240150 302400743 235752699 562844168 911375565 514586369 525298084 657574422 483840358 884638528 628682958 55402487 820928208 840745697 462094000 241582791 876187028 898803270 251313121 468936045 33340975 254517992 446807991 535089884 908000091 251857464 884395428 26913894 684496340 907678510 887987423 650906938 409204323 726201021 88992143 549612168 674798886 369580567 384647251 223255545 417400936 323323473 106293484 868242263 939910256 553249109 635532676 624230571 797493571 81431442 852975318 104306403 325219227 257564310 297632886 45776325 507032459 507443561 931195867 574228999 934327342 457990308 357027363 351699198 656658910 56834155 237462890 837812831 816223379 676572751 787268797 643009838 137292383 758372208 551407772 142902196 241212923 751549667 803260704 885385221 987909813 965867354 142468044 40954738 476418491 303679560 758050122 880631302 527182776 305915036 163711239 320796788 273460562 768354532 554808927 488351285 940074442 763414040 986106378 684625893 147702726 376008682 799742882 795327595 487487274 696395357 202364496 31060425 327564379 441082481 879613531 985434154 781502240 337676076 103501255 831731282 386104378 877095218 372985584 236114668 171205943 155275251 644208309 15893946 267961462 970416107 978390300 267371605 863932187 975573402 191455685 219831921 819920890 68587013 637968361 304361697 270176415 720491422 942448271 354456662 546549566 582949940 336571973 258663561 913651557 854945697 424704837 925432199 402247027 61645292 206744394 864478244 952299032 35544193 950767176 825119796 49112249 590108470 135979593 942288297 973027953 360083186 903591554 201911177 692830531 289652670 251158043 769292132 255576135 799246517 898374533 696893719 226501957 969478666 564653613 256114021 550304689 360777614 247769117 70124090 466101306 764591983 940377702 470529891 580995305 120503534 846191521 179828951 734117198 826467219 937889222 739209162 652402663 300933641 32149202 955167049 925649276 17835975 456580057 210812085 125638942 257279908 251951440 914923218 195089595 155237616 256563412 73939983 602625803 497366914 621898334 996418569 520925709 189495187 370586530 820676364 709559059 163189647 949088217 671376700 507713134 925581460 895692032 863212837 31639352 684189224 244987150 958114210 747672285 210767124 387190733 826578662 568125118 928445515 888839201 415307156 492725616 472109304 989784155 594206890 600515321 848215323 507980590 865538826 872309314 568288702 844237786 987241369 436234645 388002977 95319206 534118427 526397672 795321012 382652495 677426907 431078450 860061918 162643736 813448013 778679189 274835673 614506325 403770959 102255169 905442009 973442039 607804415 411433001 945851605 226120149 475728728 778016043 680204442 761462748 817417277 756144060 159608062 355732466 822205929 973437880 755090479 695199440 270514891 464843136 378406263 449344273 428197220 879314916 462371845 254698855 703690467 786111207 130196350 693312493 74466741 127076681 562542784 245984827 855834170 904953883 121536752 660068215 304075367 276547352 557184945 12858435 683835644 579237985 513262138 478316729 989591715 27306463 281923912 853957512 345932118 952974254 254428735 354951221 305593491 279158149 710410069 580730693 217269773 98571240 110879804 67459169 170405518 286957193 926908132 787050822 572147445 535018572 876343311 522317037 525987283 832073057 187210187 936750361 489930456 438207001 977734934 979432288 766874386 339230991 387023795 67985332 848494766 794004795 62169966 602863756 959189032 837314415 418903691 210856583 578409911 945731669 158870652 345547371 754522553 766925466 71686869 789310870 814059889 173535877 970233377 292681584 512273755 999911959 71515754 245148832 349133189 936783950 780051125 343402071 391676904 620473885 746531862 856639528 385898808 223123339 726143589 562725047 861280083 144618550 831719547 260112448 975408684 614382923 875619618 70963733 509220429 675972388 134754019 524770889 595379055 545112317 101023366 718764359 195649763 865900499 410676756 115695209 432215581 189503382 415323362 995910554 454147045 346371433 863825574 515530478 364155233 907546247 498965308 920829783 523507008 561307397 384909413 512675406 163196503 377025095 872087364 846819734 97123704 695369980 599783196 531809426 658590237 894803686 551838675 317820566 824817173 376353488 633433599 255506536 867477253 963041236 665775271 49823579 926430994 869056427 103631614 442488049 666722665 254018807 114636823 837483463 701763041 908593381 487783691 6607164 206017363 799474955 110453705 594904287 413102325 674997564 151315563 265576727 118187047 425337321 843075041 15365639 492599704 163866072 750812749 687236781 852467002 493605911 906149258 135165782 528338919 695428041 899519882 170055536 371212111 550337008 347380347 880385555 835144854 238239728 994460922 543636160 863998168 610225891 727225583 643871354 146675330 662188801 680071274 313929291 734601783 179968245 831843437 447255553 849122637 492682049 550353055 326391944 628059690 998469469 854339877 368109315 270428059 311402974 376613368 23639194 792491311 50963672 149498876 27180965 112633040 801457125 286787694 428444326 537032786 14092846 38135554 893427580 530968351 931900593 907499666 755182926 907887482 818955482 589806768 329692604 221579771 273085194 993907562 623649741 764212241 274435618 938530586 489955438 239915739 716027117 777681273 86313195 552746018 871852825 201324283 56712021 947685594 345789586 777942559 238508834 988230461 762668077 631558941 448383869 786234350 619216141 187022789 857819241 224876080 710342708 24384609 376538554 101548088 349383439 686382123 684407290 33531461 320904463 694831089 360297046 557268547 223079781 569366410 378869955 101199648 920357527 129560484 535441926 809030399 668315503 801826893 454878595 397195200 300765368 282673547 930130789 934514436 556480030 452417500 582470545 499732161 899318517 332888553 598683621 212451481 909500021 677288207 283635923 816504720 477881180 727369478 580460053 478679681 456169521 202333715 676048351 745383714 451833121 91643463 321384189 388430494 236329575 359953842 104675714 834341614 767824168 126969823 415496640 448335199 878278897 688750101 427277616 249052880 782219347 239498078 763611905 307229418 938504446 673277347 850310574 111665253 349338055 828976997 196760696 325116486 779868282 987431717 630941163 429090720 902071158 457291270 160954775 8619901 435831037 192638512 528713863 562765835 887711891 523308463 986198604 582282899 315820164 410096156 504348047 864003388 878623268 626989006 249408595 508569672 356089640 788772415 324883512 616757816 538137696 465066041 352704417 358222471 544218089 227768720 821440508 987075283 421426555 728843228 343395599 547081796 428507264 384610873 288638210 169400832 35029480 462057493 199356337 17984067 323540715 675585540 226270737 474788859 981385260 465981747 76092453 256406769 87155191 295030593 350675221 94743998 496461554 373736852 925147336 200098680 661759195 642964717 421148921 147362627 158799641 774198455 596223242 975417589 53456114 476548479 141581246 723919185 175796365 67833535 520692758 159341163 460656012 765754089 247114443 703202307 730091721 959055855 641061888 25996823 433666082 407486050 919180113 434133572 584798685 929396291 272998910 679021557 287629866 752254112 938488013 34296336 290890051 634079048 199324172 786823696 422350053 537094927 14999911 791741479 755951711 442216669 958596540 652418136 358379685 202105864 540439629 694221285 129526227 16810057 955850691 376259252 983244760 644237365 53699947 410839900 391546364 297344816 264138547 814678830 877735467 148018695 412990058 970875916 332060032 807827564 656074423 940250632 668818892 963725420 191191002 551025209 938703417 999003337 643448487 236175833 368818860 5169926 26653551 650218365 846429334 952307619 447161563 754275710 960488020 371751456 622377566 768211731 6505878 615638303 231842208 282594387 731864841 471341435 907428493 269745417 857328417 80780488 293068791 61049342 507362100 241358410 268478792 950632842 923996816 70046393 556649965 119990866 475203235 174243302 119466801 126530073 767467115 876441155 828626900 834692160 697818055 605559602 402106940 184176651 358832697 81215309 190134982 104234104 307742920 886629983 163994775 816224871 970182622 464969539 553801404 495132781 776992295 844446257 82564445 997756044 562844835 529502276 600721087 630922767 903685928 48776876 403452070 198555439 368090140 922385607 892409780 346257382 963167182 563811395 420809714 92141925 126610100 990843288 767827290 511955227 791037633 737444116 24676271 82590042 720126822 160454805 3305182 364455052 885142405 685065190 765556514 46188915 489634811 664595404 600487368 460978837 610543989 375692725 511868017 676915814 506588180 875064641 980280059 795574466 225565299 399846010 803893846 23831576 257395098 575622893 11026100 21691784 102409125 419052886 981574589 104865589 778665095 974113865 646286101 466647939 782561237 120107250 686095697 462632649 272638372 334171127 170821243 765268781 18575794 534543718 965818900 292323722 878560045 364816301 551390420 880841363 942789885 487762044 417558536 831005471 738225295 797891236 436034259 906258766 938296999 705798441 736166754 928381285 74836763 626130850 11635022 254833327 210275299 306985708 844519945 531846039 629823030 553837533 495867236 672015436 182655524 152183558 375100815 592999352 53876385 11364198 501629928 709792276 23035514 925284087 908431931 435036442 386591167 796364780 669222428 5781482 843277921 309424347 455706740 374552500 950564090 638686099 742052889 728910414 325561484 929387120 552773916 61083693 404719628 696609209 34973064 306162678 449779880 134309917 679694251 341344956 581754437 799280393 28070847 780497323 865348843 241348187 906023598 649564873 969211442 310693297 924489049 325179270 362325771 252121346 62015097 557069688 273618067 3707099 650266339 164242990 295544804 329779180 370128650 429299036 617434782 461807274 898549695 805556556 228065597 931173380 645240123 885524506 430113354 325617695 149901743 115524535 543243247 582170851 162655707 594473230 685514043 787195352 368115348 174462284 949544756 721550394 873246587 69617819 822472290 916698045 352265359 764034009 938556150 938422354 623829936 292719151 538328380 438623476 245303959 113637895 767693136 491616474 446802013 911317220 235462501 856343613 452401079 712836532 984474174 446423914 790754876 28352921 300954378 881836601 993295515 110206478 917906974 727597454 346209913 601335897 560877285 16443886 156802278 11560579 286912823 245629881 677414862 933074197 199647552 591339862 49660170 750403850 597996346 956443051 721078836 809950669 588312492 153024332 870067520 982729892 623629634 628552813 302952667 388529568 225562607 214762037 986981688 851037106 702725199 301351384 322591308 187911821 15367919 80586738 382884910 946819484 74580228 565771691 971818774 32257705 28372458 995580185 452156629 888422535 585485251 400754584 291959783 790623440 584686597 652600542 998668539 345349266 201448767 179078047 824125937 452807976 565585442 171033913 471747009 726362175 557804383 75499023 156413598 329760092 73765586 500010591 333110467 104791834 318903892 568801699 887049843 827525459 96400203 286393088 470566384 963463370 164616253 863269063 528528794 328730973 532130714 824662606 478662231 997815932 515533067 125548969 939759408 693860504 560361004 215630838 775114630 730454147 549335681 664136994 318316865 567590121 653415794 723628552 609695912 629704768 840456646 96343193 363734602 125684815 689384846 795378318 782252318 401207848 235125566 664449820 681500765 82177960 231092158 438276291 887405107 496460261 369864047 589674656 573149874 936006020 24819012 29452586 335974883 267412266 299225836 724101363 291680249 697418259 140804663 175615901 26127620 247883899 336896138 315764650 579007837 728177629 865494948 289604916 569951410 552005530 693059475 968303497 739130010 676078123 989557186 233313946 896864492 493618621 641659799 823398351 614232523 575839124 600255329 895856634 666402097 805140804 943483121 667726804 492439359 176133556 754864962 68240124 550324214 597282900 785413947 44500553 646890860 313498813 162241984 793819972 925906904 922756208 603346501 30625918 404958857 531075678 515876579 100531427 69341953 414685858 386937781 136030335 808101143 430309210 872200856 458917475 21763295 131175668 290705402 807601862 595575250 236290173 821797539 155879680 162072485 126369755 962691469 405928290 970225544 132353418 262304476 26631927 320730325 546739433 52965655 980189922 952513469 670884582 100094950 380249226 764706780 6718405 629492533 639269485 854870312 689377834 253372807 344732448 862619400 776024020 252349755 606558009 819489750 456033623 919675083 878109126 420575126 122599474 69990424 748881595 441919840 69206438 104803171 24244431 206979668 600689158 94518292 753653672 853132594 236071583 100017487 573669244 401576458 139578215 219380442 809144851 174232515 25092466 554699855 56040815 919151948 279551927 284467249 164522507 202018044 84497409 163220921 79347446 198895946 282200379 272267665 178983916 438536558 614342655 44264645 551074469 66509367 633913095 469945593 109483443 628162617 490405861 196006152 689039942 569646324 193428714 321461162 815863096 134848526 256496053 677253265 559318909 87094964 897332648 679013200 902279882 324384546 642804895 944300213 585395395 786682809 726902070 849610256 559026132 121747496 654576423 523856131 683238250 263951439 316888409 520676069 927658870 612600819 806672962 423985812 626358065 366962112 816490109 996198395 95987790 855019435 700990460 319795365 777389053 114707325 600932851 612863392 637502325 815347755 633908712 952318272 749420221 156886040 419931856 534590223 159092798 999238563 252225715 825123969 27909256 282331435 477058374 324255085 185829000 431929863 582901494 504192741 996992521 644278491 266874453 318163169 848149465 956975394 733300036 15676801 232516890 640881647 967418318 855874350 919250897 312234923 414378303 701766251 742102564 122727121 561186075 686183413 282681235 806872779 68408913 461950323 980986816 765175186 76059184 368164064 618740575 358225357 906537644 321755063 317474369 56933850 879565980 939514385 521050405 400718948 775110362 734764047 556088482 529297656 982796391 287971336 670964456 139474585 255851189 559862672 312455549 227843782 364614450 894768030 275603443 202714954 65324549 999508376 274384639 450924634 11216263 734841977 480335324 106402205 153455007 753958103 431243303 677976044 711707070 926087454 77754192 479319084 168887846 64493954 143705661 151589036 104866777 988070103 412279621 150715597 694940365 896331883 512057290 135919072 716804869 128422631 864953404 713427482 428118509 467459210 263655192 196640011 809262302 200930372 419270240 575459047 293742065 629528771 848501665 763707479 344828153 564019939 323547585 330588011 854944685 271272481 550114813 686559280 359007558 248097754 175244179 912828363 735062485 466081712 183458430 624374671 779696463 890258695 481744 276049509 183197918 575797558 400040925 214176771 300664050 103637392 731866482 25050051 819740595 539650670 59427863 687636988 277842403 117362535 603282644 472972101 656994901 739892797 939247681 662225153 982047796 226646709 627340547 371814144 458913771 362117236 768256751 692516207 566417689 165941862 12332170 550626302 492900808 968742698 805249358 819081626 334084749 989798999 491427433 451579289 721504543 671240176 476261471 897789916 638685728 935974213 740771352 119684171 818913004 218904172 324576969 314173975 33705547 53170079 27733619 467758433 983879301 608653915 852826962 855670061 405235525 719535653 68117206 289930522 397654649 381644658 562303277 46678851 652414229 85538152 586957523 559590986 855772941 758445173 3978891 175305432 951810061 885822565 795226103 378884843 968026413 262806728 830100103 687260351 951898944 287858785 721503990 317176873 750976195 839268908 61640308 914451834 565047550 171401710 494596718 397288992 948880184 527746897 714837126 323796806 416246878 38160882 506022639 570062350 211341855 510808834 558285486 891780307 482057419 570673534 936957917 178823941 862166570 511169455 561264593 480872266 572359483 589643209 599854239 79113601 153930137 175396975 451140734 564957662 647918763 450906041 905599235 301524835 112296488 428935523 634758068 639912718 705319210 717671333 223660272 260719734 790943765 984605491 606727574 599595400 42956042 829687849 305028212 792054860 431852549 123173568 989887482 493583238 730103182 674969970 419889100 159170230 70924765 822220793 592281440 921239620 200591570 538763496 893858353 404301268 100652429 591703810 690179693 125175291 484616235 872076204 664270174 710391448 958012589 476813910 471323289 491204247 922809970 223055226 915044589 776533564 558436371 297107285 472051635 325910427 934052778 541419673 837671064 400097516 872681703 189805464 508691453 997359090 968668258 583778185 837292225 792525690 263047650 365497267 329358485 13334365 209697022 8953337 21374336 494960731 565210245 292350381 475082427 601902570 723161111 844576867 921922756 713918487 685280865 977222251 636266841 876080091 538176260 911193041 652552931 455914378 106592930 63314551 787846158 899920942 94565304 932012858 940496703 561075841 908546426 61076148 668121312 188878991 53493131 284415161 280587101 70767916 937283540 364381722 78928279 329665525 677780788 614209971 917650849 416439198 86483398 739434707 704875690 399255749 400137179 64484388 267156778 297945005 865885690 628150519 138763526 732189219 339394852 124607630 849905699 356482004 374841511 506782918 510930784 192092962 625033978 344711489 926430646 66476694 296791518 101253958 672886488 899948039 659449322 565299395 471035776 783187983 175763240 135542864 257727960 633457298 140248534 322732325 57676599 551345737 200373289 368844603 369601821 503241234 44007919 64156126 943975579 308610760 156210474 530879889 617803367 52079077 84449233 662378941 526566576 397348321 241887316 161943040 224228183 445131172 150730543 955978446 588403520 407728868 257075032 275038790 99766638 870145815 854345140 281990121 614624235 557829774 916695903 82953206 650111862 999452541 370992907 623027560 969683335 551364697 324552173 952769081 929726291 813899837 682540168 751246671 697280533 50896562 83437975 397584711 223678604 755700408 298961355 420774038 324617771 320183348 334917775 375192820 147965808 94363661 42267208 587766030 229673202 216751776 306527893 526130972 446729585 59647215 597981328 550237351 135388885 469566091 956575844 18184899 163076256 617359746 912457311 854345532 874007651 416384233 303301223 950971186 167863749 684642100 556161402 441132675 758146132 860520548 451332163 647298857 165204284 105447925 522536863 793336917 683595151 979536941 111062614 984702113 847729408 219040517 156085928 290236998 902373823 536246879 930754753 855871509 294026867 326927669 973404746 434517673 966157767 189614244 516133324 507981001 74211648 4987199 948009031 361181953 877974307 326082841 417566742 754113228 733573011 550757219 350647621 820011306 53226035 796584948 293025277 723940654 130982008 95393176 692866604 864081834 845414267 557372879 281561698 276503696 932444332 806129281 535339834 787851533 403526351 112929762 311993733 429040978 53417859 450788158 231732351 456438209 348557363 12404960 244104836 741352448 271086954 853174632 864308548 832485083 76526313 323963257 892422348 423923948 484442471 765184007 259003298 684993080 99075986 552370168 859705234 31540256 291444423 592258478 452784807 38171011 999287296 27725895 767266302 31490914 223683308 762482823 561137656 946644352 425167960 738165224 666478028 106433811 59065457 787832225 14043655 625694357 678697077 158263267 526981562 407413192 964332774 751470609 437101226 283873919 459815965 981055454 933708203 461803609 300800258 101360485 904687819 662413167 467598002 4638113 929818186 156212236 687851742 843170961 126803558 889412780 305066517 21810814 668633235 697398124 939517241 410481774 213944201 857404873 224519990 231456381 859143818 718672824 99901800 359363283 288676391 271511131 946185273 994645056 660132343 624047317 437053670 64361283 206335393 616703448 510598075 696099562 148490774 962737780 121046667 496521809 297375581 244540456 156985640 114545305 903733140 623168589 627866425 323115490 214014054 978255287 394369390 936606586 945306838 612554964 974960826 621803780 1729933 249965579 151790367 8196186 719314566 161174913 217558833 31234503 83529549 945458794 429805756 908496858 325088300 883381016 742549694 728256447 388547092 825288711 746055577 535975759 533439740 703642731 549632789 989149792 145195972 613106054 2883163 160526195 435187168 366634082 640874370 534416374 691051467 440558855 374664520 766304886 575038227 871189709 498400515 411123072 735338073 368952137 691052127 959079878 438977647 500025781 896808109 502479422 267329701 611342080 380749765 103779599 559912812 715520891 128124697 500788257 703360859 520508974 661058060 475110677 377839010 1167522 797375899 908775313 889667368 634951473 134685994 886172419 409562384 225312601 47560510 295951949 176023358 430042627 544769594 546515633 669437677 784188354 37741548 48424550 854145126 372063606 550969996 584612200 784108704 73726997 543875553 580484154 585857015 777415242 949403931 157282566 94541910 275754051 338608119 260552157 717502438 784407499 656935230 44549980 96364214 167547915 698000417 586125036 63090508 547687500 454188121 531103051 235509984 904234529 510972685 115106430 571240173 470771285 921959306 745537747 686753778 356102956 293887028 267317903 328785435 503625920 588786075 288874472 790512786 573621437 124039448 669143387 521165572 589265025 3216308 313876946 397575823 847786510 905666894 741887222 770201644 920879294 240575184 547991860 668513680 65459240 644866959 593380492 550039010 117149338 65108979 382894140 675664305 432219381 16431304 127061468 952777557 529031914 335239511 96948565 414948915 713532525 702374792 220791012 98367407 82672648 40697892 114075354 514926286 477461504 577449359 934248042 52713840 165192054 455129174 464455478 992229637 189418299 451872738 265671391 805723024 118955129 654314592 165355988 237238058 503221032 315856448 123463516 791230898 441460082 561601827 727280892 707846167 178725262 58598552 863710217 925842755 67161877 237910518 528819875 817916277 953255423 298677091 122488224 213252737 356325374 72906125 460428380 717860414 272392344 587683973 183030193 249455234 117016949 719614293 271634220 119205754 687738290 286613647 408679002 488660230 380321499 687066627 523845662 944213312 775003131 938939785 882057934 449735392 878981464 630273941 515386168 473319203 425961775 350474645 624029073 938855354 941321754 319817086 70218588 860093195 39029797 14650516 311262737 689526453 153470209 605018849 571177580 6336870 108250439 397311912 244522603 202635859 103998655 569386309 32340062 483428870 499022816 799312868 412481413 468095807 719985386 730494500 232293348 626203391 200551681 714617726 114092573 200794079 486094271 831578407 483988900 749319678 443982881 676002190 305924441 509333301 908829626 105051060 358526656 361510827 221168340 12102665 227730437 187462980 585902265 50443954 770444084 372181997 835335908 304681618 241990290 205051275 562347670 746035170 886187736 821605761 607534055 833274250 326255285 93861193 652197177 110743209 3730683 106388409 368755397 316334231 923153546 367269776 25050661 64298314 295385935 962464006 545685424 590567941 353890204 132844933 314490219 233766672 329084129 395994504 177204112 967197446 573328740 783850138 931278928 339523519 236346425 383850219 475276505 703422496 606492410 311001168 502705177 44540162 612085670 901450391 174843701 870188572 315253618 25711219 196889562 226513386 103109714 792304549 456386864 492349370 737255340 392737025 301628303 960989857 285429851 878409692 855508898 958409850 441985679 334400738 68202626 393311454 441731086 289379555 939480064 830383234 474054875 389212577 404734085 40791386 599520030 645431780 599251730 935935894 220940779 574537617 998086945 996447427 289682484 729461626 5079413 799908759 723468832 808445599 657526634 30327247 962526031 320966597 877337828 612849968 816359480 627015367 315898199 913767860 422551607 390255594 953628649 385832696 647736831 563875009 832924683 343461265 194638700 87448179 730256133 673001402 645024478 718486547 27935402 165175763 475773295 597048647 954638526 742218376 491716421 911389381 788309517 65230771 434552140 764837390 596310167 226298055 198943164 38228612 54410292 840346258 735511568 821834836 321373515 709172930 365019013 944583764 740443376 394717034 335299048 89894408 553545827 944643640 8256646 173181689 755162731 6819032 754164793 747217241 391894358 501995674 964875326 14732395 654200191 31064960 596755978 209510664 473894137 994169262 431432776 213440499 410722368 632429562 283535885 204759613 201096306 172863644 103504138 620685986 855973337 903398541 591981478 212127661 829302089 697189526 601983312 927483450 891333672 354748282 302751380 775777132 106580611 420977459 863636720 835232668 399065683 547613932 502269421 885576820 876175327 551823757 159596950 50433097 926125681 419388444 93511796 871115197 677254763 619582982 770899293 208369264 18388884 800564013 82705233 764991742 882068174 775891607 40471335 668691538 185810983 221891859 759034806 878412601 206002605 679961534 141472113 411892770 896364418 903105909 740059870 530419870 970545803 571145700 689648320 756011351 864958269 656000929 321870069 766907207 218167789 533933251 613896823 281933072 523135615 800456503 488985138 323349690 852827436 952335493 789045218 79841408 91045188 984920976 798586915 153956848 871953946 191627311 909463034 51982539 146301497 769724846 476418708 624564860 922649908 582571603 288837900 574220898 916792304 406533784 592842258 582722693 354218781 236989224 611416058 66704630 4570471 509735034 870382157 374707984 800019677 209981465 670541490 140776577 224715830 604485197 422406228 244946016 992261455 561609707 62022149 362781594 260785968 367168295 389514355 168169451 315474875 75188765 443196643 12358097 604563779 159762122 400252556 141675511 10922414 921223890 677040460 206325013 66055008 732574289 604609857 345373168 318791295 167880835 527177861 892236268 311264668 869625596 728431907 222398051 699700740 797453068 443307513 758372054 910233686 260477463 823640247 93450473 188628256 513367338 228004583 860754815 332077758 24903188 442959434 653052444 813117081 716089537 348646952 432390757 981494526 790212660 690041368 186902461 34305540 981747802 191680712 482716833 230081254 743931183 384553737 678340860 535442569 860402754 312436616 29389141 628447976 133444962 94756392 334952057 560245312 2206908 68141268 814237276 33631337 602011066 882302021 767197562 62728507 28898331 715951405 819953640 521692427 217550870 876581079 674581049 468032267 162580834 942189425 80645059 676757600 97265830 621256496 193993958 16992927 339931311 381070119 961340113 429560892 79878871 470035256 813683463 256261210 804968626 386958464 443842200 97720004 961258754 727558058 95309154 841403022 387106906 873604103 314198237 456133473 143398637 249830654 477640357 244154755 702088265 135842534 499073615 299200556 826776435 24434454 242762373 62468908 795370912 459646336 8863386 277585511 210854959 736750456 200535085 403336351 97928876 731075242 571137830 238508583 602931848 72589374 210422805 801261742 288601400 252181321 361700339 102928912 573312460 843529288 975748198 414831289 279662616 516153407 704388633 209541065 504150977 225946044 669369366 107964579 839527213 942280503 25657562 746887132 234683421 304734658 787785030 707714236 919346615 606019866 541655617 148576379 584308501 689334418 572609545 792868710 608706140 835245616 874199061 829254200 749684598 181604515 387140362 867623924 288091515 982088600 17000046 31426225 758672628 55552215 401348780 633916128 586727067 526654595 768018158 27031228 987301884 674389591 743289330 89695680 574301139 908490182 224212098 475732476 262307109 537565598 392542036 635446923 1575080 120158475 749362814 582964822 366362249 258719077 914093766 403305 322146829 470689628 477818830 32932057 528327088 510680917 633928063 89540181 983097675 782980042 375426482 616883336 591420304 988347867 351026274 724890952 306457772 371466563 986435783 141140348 673122986 877439993 612457452 128531077 166527639 925095262 844606449 618370108 618580253 782789066 989510798 391127808 509532738 152443848 138506291 278375088 898897414 216771457 809598275 871604668 33555026 305614478 547210843 658602952 79653280 437113924 353375531 444445904 171179447 422881211 330001710 602089581 862956112 239552934 673579768 527294816 732217553 147105614 48173556 341281479 153204274 38252598 929233634 540686171 665461284 183176595 32356690 266169616 282128910 640371705 459661753 967219063 246788586 25073205 706100675 537987447 573903677 391596366 412048861 419276604 656411517 287375801 745713597 781079931 436516759 4346328 587379697 867215301 636732395 959054845 462151554 438130137 112717209 789940742 189596671 606678188 401275056 149831612 883954473 178853729 193289867 753905678 668931581 372701491 960201172 116547338 924378212 517683054 786506935 136816611 836171744 903462423 733470821 111428474 616026726 518949093 934959595 629237711 623960538 572827402 429505459 864149294 610351121 518900809 722132134 622054616 628290090 590760820 675218122 475108642 466373422 955258801 716860037 606429389 351227730 237900385 905118726 691915049 236140009 115244621 464417550 518610887 807576239 328408743 238481540 70850915 45649375 498726678 489006829 661500850 722156332 237629127 980194040 80107944 544911698 593270644 639519256 506575977 138383637 286840057 380145913 742267130 355662625 29449328 312951116 695525224 105154289 319237932 327122765 871297410 765228444 992480868 102730972 515633207 1106345 753526970 564692913 65135022 559436921 707469613 841172809 362034876 369360484 945905471 627270552 468695583 858167628 782365634 753428590 191158595 521246502 735230497 20905803 244674735 258477996 417438666 208711644 323507643 515247923 854878014 708804615 579128394 742525190 620319580 929966766 886372467 272466863 756031166 645611709 374908819 720900608 544387575 247313260 518503003 772801045 442595404 773875145 742347496 198735364 459420991 532184446 951641025 719060511 517398445 76774863 340717741 630355637 956068240 100705684 299919061 413595470 448925774 270236646 525125537 910924846 834721782 693267328 515174870 311987651 948957291 166845015 349167799 489265012 448713980 690945870 229801820 111156955 232589922 726262574 120437094 168200473 55032735 33349485 23958846 718504662 192556936 756528694 385957771 635523324 668870695 336447701 551644310 207001657 971069704 963164772 474201848 840932021 284147171 102056464 682774970 792528134 135074381 874674184 675396025 403359138 312756190 292913999 780934949 201913807 126968701 20652845 302737226 929257988 570698531 216170003 615730131 725702698 225057767 393177156 558260079 864596553 189883448 421202284 786031171 950145046 525003454 216066478 816335197 586321740 613336959 357097474 383797108 153124551 412681446 678942338 335997178 94374677 227402469 526356918 46281650 445228207 722936496 213594637 790456739 307635321 334864187 856077040 747305058 106002498 674094842 922872902 744623552 199819027 741044437 625165388 788818912 203913040 819853182 247506125 330423709 302096228 914770148 196136402 800855476 866302443 196180101 494572563 924491390 710299131 636968236 219892235 188779658 909245245 105932742 12472793 795055185 517711107 93055026 921328743 191920513 482440732 256233333 817344177 716085144 450461736 849441419 942393492 992476922 599985741 120303469 846374540 497598882 999024926 898167813 119840949 235092343 742507330 179241604 614430876 579764668 341365889 641130386 249014862 247811813 687882406 998595430 17673286 535726993 54354642 625446553 95541935 51304944 895387237 74863153 862389819 815568219 784625527 517651607 66943302 666848301 465479038 911476170 163206247 385427908 855528680 810327251 65958529 232790759 179704294 662453169 796460918 943020256 580069850 251778495 366445928 91526869 833891288 803527823 401837445 54424563 486528893 728898396 579175227 353280398 572830738 753795366 53871518 690654801 120789203 876378595 677851898 127397948 587030255 711785209 520644522 367503976 832946389 732953795 300250114 625322053 706594775 303281522 908746975 992944219 195863313 204010882 503040334 997092008 36553332 706125132 946587594 203487554 566265031 284436567 945470615 704120607 233899031 904503932 662604510 837815694 530498265 209720055 559315933 371667666 70060055 874103423 430764014 241232380 6128189 467739758 872087798 888208029 743160341 159786513 244989115 871615447 866301599 21535697 552878108 464240714 567854567 545990338 465483274 781828873 165945139 526518109 186487363 573177189 955194573 873752636 360643487 370892121 440311864 194474661 400974089 201067456 728180068 782645613 786796611 22312261 631654501 709599705 722997334 998361850 375246946 392816253 974919277 191650804 213114591 969216835 75410718 924452811 276450267 834269955 619244140 206501968 367969011 17539250 213004972 377599345 504672781 528676524 843355118 837727762 592430448 241691741 390353219 130793089 194548575 785917982 41939693 486957758 834713084 732868743 280603796 560392934 559788866 684472705 545599059 195120209 341245992 797184176 565107475 693168485 981631113 829729992 615934664 472976807 816399246 943531576 852841540 327477107 536719132 901578167 751693039 422981061 632463074 583233471 963614332 746133881 936392827 47662237 101004601 58027493 848235223 12808846 17636078 511868579 306238526 555120631 973937270 412573597 51764994 141893380 786062162 301581336 603554487 878421750 735434538 417566528 866653984 760594662 259562949 791513032 818000480 766054867 184081078 380180400 596767061 534221818 213928140 365097265 751914214 790572000 557294407 183326287 928377069 119788543 343840440 346368323 656392059 985568423 891570585 368022938 499413078 911570072 475409923 200513085 371784750 810044266 401708811 23955043 891309782 246083149 386493454 304632277 206691103 357288671 387503842 657573178 691933640 684858862 235774957 694102704 473767958 26629995 221554221 410964128 887676120 832215241 202122843 929745103 236234141 986219162 813225077 631330512 289467775 403068188 854154877 330673709 792733915 892562353 307756213 857212014 40534068 313073834 856144465 226716504 138138666 389521488 88191980 123683441 615603089 197077436 75157759 845455789 918274791 101407313 709205714 647584300 753779944 92517840 371321280 111680827 28028852 78214260 43343526 2080127 270492627 78897166 472386573 918057160 933910600 579692237 836375460 286808866 44484670 382274095 125182083 530867765 580150393 238861904 401796243 85835145 976642821 275606228 265654184 378281340 604552248 797527589 223982498 533726603 758373611 498964457 578014030 266253466 743980596 690066324 728340186 728530499 710845223 104364234 988046327 837233124 66664636 784102494 609265704 208892753 24708458 190923534 772710362 720765451 65309316 495312856 904407179 793921301 545595705 26161734 410576248 485155850 996426045 931590225 246131363 718281276 79592059 956332514 682133799 508983170 30097566 964430967 204767567 134788434 535529335 927074360 905830568 464805617 721375116 488362946 518386104 230748594 783812556 482393286 44241198 531982127 332073089 892866230 654054521 180647836 42563506 98582018 697159660 178789018 86768927 395544331 662967565 17501029 28355908 23628518 729328638 264743733 845810570 93532927 800851759 959416544 473102503 91625100 744842166 740684829 534495426 608978572 351026334 654602845 361696285 426391792 12715845 14806278 6867417 370278822 963718105 445142050 631445411 946301506 567927486 702899996 869959019 873122894 234451198 128806639 823888480 276657033 650489212 578412333 503179539 427612147 541246563 653775661 317369572 301449102 67168715 726622711 319027377 833527010 37878000 627417453 293394869 3331397 201080373 564632966 33728069 119299996 259604228 965189083 218084966 184140323 223393490 864663525 869083071 648155153 37044665 903758489 537541795 585254340 138704396 853483308 879785328 886270782 914724241 913251324 251752556 598473823 772908528 875954590 497232114 136492111 438302708 188899816 616701710 102564341 10945224 517617440 478635782 834141158 648170264 676824730 428234081 294790171 447377569 396456430 482089479 680797615 91144122 840626499 861103877 887935519 737326841 365533588 958409472 486348692 689672217 756172742 715370873 11403129 725259688 808423472 13960601 764727222 859840298 686543432 488822889 423742915 371106295 771236220 872945078 296543775 309356472 279595528 713572354 734611423 32400635 246917036 730913518 590446984 798173086 235636893 275814791 571626619 118329177 559626605 203477254 631129573 442687095 915569878 360688192 537821163 415041125 401426535 923450569 710598368 619670753 939568460 201483160 463046911 572803432 510028329 408018793 175628635 687838310 599674685 51275485 374254575 71791360 448571401 412201619 950883736 358222636 262669802 298882755 162964844 999709591 395481279 330995089 188751931 119479286 998560458 220837439 583971757 708801472 509674432 560384924 202447700 858671261 334695770 250957450 338162806 40004196 746455732 130691354 112935909 13990245 699435002 590029311 437174437 495491339 918651150 293761546 206286629 656113571 728136355 977064492 981702918 973354087 948729980 253273929 782554400 129765275 538463441 551265627 238713786 816416576 46517033 391994981 104658406 147346453 675202088 291353558 168149549 110147739 190664466 886464053 352704088 915767415 339915284 960136200 471716331 215204995 357009915 537232484 40457403 805982162 562231803 866532064 762901113 262109853 441138630 670736355 691774591 88892400 515150470 795371544 698471729 783444333 554057851 827686878 698338795 248603337 297995912 736052847 115765279 732915278 162112720 57798825 542008625 981451726 61988610 790267791 886737651 130445554 342381724 902913602 324898240 373366585 541538895 120396035 186949748 325319747 661816320 653725491 639350032 170935209 776903257 405961906 321685109 242348443 436269725 699930550 865057143 619151242 210012308 720742488 363839448 293138393 450330778 686948410 21651189 27541242 516460346 77293598 396008703 2667827 572224920 171620522 303864148 753882687 588412005 686689188 501144096 916439970 827749455 23544799 279800390 776611482 774849731 938481545 598785605 830517027 946175480 972728919 108126548 311053059 233616605 662489935 957637218 422839508 73391648 182341292 729922361 879887812 170014202 387177697 456859469 590890788 266561269 923994774 375372175 955133775 763925528 431413190 612825343 24159782 690915696 434663420 120581129 68212666 802170657 780425243 645151172 290669441 398300654 120042292 267215482 192451812 4042764 731404090 447306634 487500004 820945313 162643155 902283848 431488792 43768485 898684047 346308763 568149452 184763861 401082459 753511113 586431812 676804443 150638355 400868498 973668468 383899976 966547910 850064398 764182999 302992279 964052080 194058504 971331310 217677806 653599095 708436081 173421790 717757200 633351573 73778790 290254518 388580583 428228697 743849967 615568317 115073245 791335195 422124504 608119772 513827392 728724548 937202660 484004033 823724957 27657292 151878842 507006101 793539825 253631629 952660800 121688002 700085479 499514663 790344304 712163160 26417673 967442655 307991686 109637690 142031821 684822510 183591915 151345433 100740473 6709923 480899028 998257824 862458811 258027930 776800370 882483128 776568133 208963659 620620468 804206965 971764977 476518884 866550803 881605098 366855197 702471222 28504522 422925225 926008205 611628585 803048483 203616466 969099057 815041748 594139502 453268995 838314333 928473516 681812161 560242773 981554526 36603872 683752535 954460396 91466491 616441465 218266667 619014191 56624272 255475431 90843986 67972437 794413707 715854660 663304758 118765145 12709977 334898337 294220933 268259463 569530462 358572857 997288529 879488038 951591257 170149147 621315965 301861253 282261315 905628901 284753795 978405129 104291865 921884338 465352655 479533001 280281727 41293127 969054838 888092113 222136385 918399404 488422250 529859086 871676541 54428183 164866487 358796637 23191482 501846928 632556882 555954260 626575888 35415339 75200076 637615762 600901139 990698501 693515935 329244986 203479673 62678804 69967517 76027660 111679094 433237261 557116688 461305005 336584752 432855584 255479111 649890146 112302531 792346213 689392669 882420381 326869534 340546129 749720291 358467524 430486233 402401339 19366385 81772245 783344802 433479422 689346645 329086535 229299556 284011126 674086348 154427702 227736552 773061773 283066548 625990409 566915376 710884947 196033701 561103025 147773882 501083598 513404676 318802688 672550683 688635194 236641282 462264938 119026196 267280324 430044511 444141966 330219055 572554875 509435140 566564963 397065614 318408877 988021367 254599178 139186925 839379316 427366452 820096123 145262114 986400367 743987867 144450355 25775985 670261332 426983395 614644799 28221933 399260862 576057291 892826754 901820998 924007765 796883265 542466785 632149791 583075966 892374609 152413344 783396941 194425764 65442444 660402952 445105540 645578341 925990564 2794195 139153475 318038408 689242435 923061622 959573757 825362500 830143105 820390307 572886957 518154569 459591315 793759502 37491663 70708976 217184931 340820799 530318003 60571010 334611251 49567450 75941589 229399134 479771597 290706424 598980418 909309365 162846476 696756086 147317028 294819306 443833935 215613420 903211611 28248298 723374211 63699859 693700006 848426099 24529156 559020031 765780663 94487147 876528373 637051132 511860167 692602577 214685089 995664316 244585016 149678757 309028570 309770596 396626173 521756240 995636355 169630519 590038205 166029361 710913373 104927482 980098563 834416513 200021705 357036750 280023493 710414199 72486068 547785077 630156789 766328565 60525124 801690369 24143524 197837920 530725996 935907991 745591729 651137202 119167692 883314522 511952472 642371799 706261446 367461763 387656285 883619350 305689796 130605423 252833319 761011874 685573861 93334185 177951220 834273697 479719488 958305582 225263808 477638764 492332232 22006338 865459255 199365583 365097751 140369329 443449364 80965529 60914493 170945498 238891621 242216278 87770401 838926982 914951271 816299957 168822214 551196775 671076935 937575729 171839139 241895999 417489021 740766484 919450140 975740383 610200476 479344508 158191469 635166070 779091999 695908261 666355107 419312263 104083565 133989673 650336382 658062518 525899329 759449247 882084214 138095246 346069117 898678123 760155012 949517867 977872803 543498490 708776726 661417688 726753947 893363611 136784269 738684804 596998080 216109647 55729434 563102687 834231137 115599520 302296060 358593414 188027752 52153125 897698028 315852312 818159482 721822987 233565798 226269215 21168666 874988745 948358505 499651997 501231693 24187244 424206660 530390940 125197117 862238517 626062837 274252123 356223722 951313132 28056707 370638508 756618977 742720638 442044997 136369580 451226733 94888551 997496382 930448089 94185909 356849832 673145405 33955539 458537199 4854628 347241643 304995392 671702205 723174881 589219183 257485544 341790766 603186205 172018334 812178214 649078807 471262712 637559062 808109359 47484293 759780893 709621963 795511423 122019167 171417643 977304116 806813998 853333289 867502012 75049995 784357004 943315159 985386754 502973873 197533342 940468764 88495370 649918390 448708178 450468345 418201495 297915740 350306064 419906609 630914974 424320275 641477454 992893630 580351379 458767343 424464313 132902772 472227606 297494314 705729073 675840845 28792217 435583789 501432489 697091778 19178205 926694477 152650788 973433478 960119614 10915967 853272410 708925268 457097474 45571084 316665636 513109941 981062135 795268164 793758644 858207333 130545843 516134491 138516452 925089411 149305422 433671524 168882852 909772096 587785250 366944083 342176558 51503571 97842455 903846099 557655837 997041627 124089398 153003355 572300976 731625419 647755745 726068336 361288874 634700975 563703727 54592632 770780009 814596713 606626133 278433723 608072127 738435576 773510941 171545292 264386665 748072212 413544600 795692354 271187734 527992462 810144150 608370526 264371040 769146632 622410113 616449185 118337120 928901315 540242809 353882824 75903078 333301423 290236298 944900604 14820718 471596056 952529282 405381990 96464912 997862667 969401570 722380707 74426672 59237418 669028126 33872158 521321521 959269929 649439299 192841475 969673518 409263081 867828416 331394789 84493097 265909532 169510908 981658531 828020666 388447653 760494310 142365551 362696992 662744786 468503177 243270982 576944048 502264601 289309013 409871170 724149761 769146443 553623559 64169208 707340912 331072729 423047558 982407279 609563374 450982002 732140565 246652764 733949160 524487913 718439217 553108795 668606333 276522644 697602262 334827576 952207333 130848081 815589731 127962736 578196562 711568155 779694233 180935328 283511508 665014107 879609471 272474230 817422956 701871118 28005044 984869966 764903727 209733023 190627316 879210395 215776443 102202887 721642638 656635146 670541481 153336210 113164101 505814135 366307696 888244604 452607542 682587663 658136955 937419616 936014514 614949603 824330719 650031960 450665879 84046549 365916467 339789499 166356514 587302036 430501049 477778842 992392579 623644334 139994061 872444679 941807784 438804385 480137930 556494883 264231928 927924588 874805913 329339868 569822735 832315520 510922618 562855444 765485558 886870563 598624157 151834093 989671520 608167261 323806905 783999615 416190567 681525512 688127627 287090473 627411866 534434397 487010605 902675343 236565550 302786771 798864603 33373969 606443982 829830184 451335702 651066918 592729500 459589572 529845291 726702166 25536547 769849073 664286643 72925120 29172404 765931678 263201341 921194472 526937756 359667331 317159086 41175780 635670772 45413515 322365603 11915580 190795534 87503912 650543961 372200471 630629783 929806326 634165685 544597799 863114613 287720892 803861898 142572944 100985928 634022687 722568651 891520957 896349216 899983997 143599582 63667272 672146980 242563442 890030117 672923804 609707081 786053711 912236825 602469175 779606416 779118153 371939746 857781868 331746889 925354595 119442702 547217199 638625161 893413270 394632110 785724094 563310746 982562313 596301129 710733880 399093109 602939980 928044313 222161557 426598705 440565578 190180224 24781452 785846757 384045437 156288922 908959119 234387062 270481629 166017082 295744145 904219386 348909819 91688347 755805290 414473104 889045576 416154764 708629251 580470086 243318495 670619926 449910454 784953830 527330701 159119160 141872044 694881154 505772724 96242974 122508295 362135214 884712013 613752791 506904058 405820316 841599526 963062470 664503019 674025813 243587779 955316997 636534938 646226988 789675978 854222228 458568057 384652848 154398110 357924934 614056709 30552033 439214763 111945460 72232612 557871250 240620620 726260345 336048574 952668786 194278593 446277266 851535792 667885874 851578766 504707317 189547366 522527891 328105160 964512908 979505308 822190338 391234847 41268573 641307528 291113778 88548853 947382934 938982074 425570357 547888654 465456913 746235766 358086403 853288065 529444610 407718815 115976440 443499457 626860285 114869040 920543079 383379284 189036409 43110336 470320271 274611472 799453740 775135307 653025721 37919114 599493570 320036538 170715147 870122782 116609013 752647338 922897662 71404507 806271449 885691546 827954229 616594403 949777561 843801509 649829278 923769788 612608339 49441715 451286531 405748093 875047357 747761815 589497025 344199054 653487739 961130119 280046048 53198907 410714965 73812547 209491479 195720772 585233837 122552055 17804704 671854096 806884258 661781894 892415855 837523239 380992421 235972677 528317677 225269219 231183792 229107620 988749749 112831367 500107554 515226123 621258133 730765909 6047932 470025969 697129641 885892598 990247896 780561210 347454112 244475170 838090781 890288361 1955760 320267360 71102184 368111965 76060437 743155395 266755031 744739876 430481030 555566589 678197077 962171452 727950879 619117303 584046510 904794619 626103509 85189865 368429243 461015081 606302155 541107290 115376087 328066574 328864207 689998320 975889114 741309897 916998790 80598589 969982703 913132803 113060398 572501097 823640689 646972710 89205776 114500386 247129366 122874874 989700054 38277548 589411878 319951407 392163528 856845932 888196323 453794005 747194471 776123682 536508487 944150895 150451707 414724992 235723744 680915882 832118284 954783699 309384109 188055835 839558739 271612296 8322234 927441919 575357809 164989562 11377909 927088804 131510799 835247552 397503331 835734358 968185310 952945407 927754799 435522240 415558870 609813425 842214302 962471588 663378666 964715324 432817548 539305270 137188374 691520298 31992425 170797291 82615639 48532014 254814000 794953267 662375956 771514243 354778637 389547105 646231394 657703915 406252129 364754892 57026704 941868323 179071800 682354865 312753466 779864903 360641772 887061663 257864082 466786098 378383480 112284232 228113386 733821285 484687790 241767967 60344859 821660445 324187357 678834538 157262995 161111290 143161867 666092691 734091032 913807349 813832738 356849858 666201353 278966402 183092803 625794241 104711108 934978501 461975227 395875144 417773063 188722781 773657557 555835144 320501421 351552118 703715587 691629681 473082071 537783508 33172839 916567733 771760486 919951873 32738167 918318353 457346016 683296794 325640450 581955689 417830457 219204030 390625167 194173297 404986938 783944771 400808366 673332381 529973148 250187305 574771672 380550378 138846878 958736473 782698137 874932806 479648024 114817063 356908532 151397981 226094219 597183628 738403969 323499820 62492006 793537858 235148312 358963538 873736316 764123499 713558154 151952835 416791524 39353703 375467098 695530919 307389164 503562063 688441139 710556341 243416168 725585175 814260816 808732666 574481177 567448928 130633071 64644198 374456624 456303057 676379022 514163899 933872217 280666596 654438699 168431633 901759891 989622453 864372028 223510413 148193051 995967079 251201540 338631681 886420692 249095494 911398001 34519452 449052876 307431869 296402655 836021202 668579255 848963786 834571061 751974070 628690832 537034258 689190483 602875914 461549030 922525249 699360636 858437324 17721269 109257341 53633789 225344040 8314940 697478067 55225621 876758637 7606713 6286523 810215928 497747875 351702238 456883311 273212280 973439981 462118145 125355429 964001884 43827532 614473737 176334064 812999429 213773973 551511305 510678303 835063821 962381694 902617050 113476116 823468974 647112441 384530965 188052032 116304804 707000398 931026122 167211615 538406127 26677039 688326388 235230995 589106189 303797164 149734876 839735207 753702097 731420993 445777577 162131337 360728786 972029935 493571270 319876696 539026249 722238164 23894899 199059468 345938559 674349266 197096542 294484429 967095719 489660636 675735477 407570862 265976887 610364057 515037185 910691641 668398892 594724170 355604681 593801066 128424107 994689205 696643316 829258687 261886311 46831296 210697093 420490296 301848000 965044916 232542635 517068947 39370513 791987401 370803536 280501471 907007448 427481174 543447997 197350678 982974292 454447862 359218901 611885696 666870126 220202682 983323014 952449457 409883306 426863782 36160374 149620142 211496224 5046145 354286198 804724589 823878423 955940549 768748431 372363222 439940280 97513770 569704759 605593198 42165522 822671147 396860360 515605322 349229857 670371744 12551306 33901389 290403397 677723911 862283117 620971520 476975813 265089828 815683003 550681435 141167550 301487099 374844219 740838181 482512779 352984728 488135546 590927396 26388945 354972302 194863286 976365873 174424679 110497312 388201611 613894295 513234186 517747725 25080561 193098244 813546867 316692548 974866352 602076579 160662722 873938559 262548634 718719263 674499645 637603316 652164268 208265959 566117926 290029331 143826613 868163945 813674597 97295056 60547438 982600100 587877611 561827655 218690084 303089077 155181567 230327585 759541272 326626999 190393514 337252506 868056693 770254764 303982068 864658083 72788852 197797579 343842745 259999643 239987597 466799686 569076130 1049291 727598445 214943878 933189 773441643 886390348 687013212 400302617 841403117 277692060 813985849 653075129 918036429 386606387 899536699 903959873 773615008 9363599 786924595 107765784 59079188 147209401 829026407 476147246 973852156 919701701 363137040 942161647 564907408 784945866 352977787 257078954 840621342 995887422 515316446 495943248 605311155 919321131 655033354 778062959 467307389 804076278 555450236 460631093 252124636 629607152 818460945 668297626 572340604 641012194 313081118 212155361 229761230 14145456 899693635 139772880 421400183 476175897 523759424 380601323 52084407 239838513 650996396 488136268 278329440 394562071 827852418 188509452 595397451 770163256 592092457 508012890 793366804 616860768 377184769 42584948 388596480 776485677 306732313 539380244 842710178 82666119 782647391 164759472 548664834 53797978 125960647 516469675 637915496 157759362 914208371 284928107 465075708 25049593 450383517 132206109 656306694 113914949 574660534 575232939 595288920 40744821 901945275 412776953 109971566 344407591 617952715 616765766 418168134 58620220 860248311 435621939 110617114 953131504 967133507 473362133 67348055 902658270 854277409 16316667 449498603 754643834 220665501 280802521 538880865 286023891 909347999 192001385 378041638 586028975 400350167 348758798 202889567 133997686 502168382 977785388 814770213 35318289 321586176 253501761 856795394 312532208 273142392 226219317 936037097 505858978 649959026 770815641 624826984 296125977 675394833 348186231 972726296 103679925 66281245 121502134 107754229 843792889 22814691 775100810 394621100 455841226 985223808 471685992 24677828 913883287 187600018 718594807 768740817 446559138 155477828 541614834 978994320 839405873 137247417 294318708 660975777 159344364 733803446 707550561 985217378 132207734 462482003 758262428 432845006 294172633 459863895 746437117 280503584 692070012 807765594 552792305 543916204 751633533 508175371 818918203 234877326 944345444 462404346 447333217 879270028 685948884 860517066 752743326 17091414 374591911 818254227 191093454 333376107 42514420 86016668 94331284 696737412 933166245 95341308 951203734 33498929 416516087 667349978 868214704 123890649 493564538 841918418 627588475 199358311 542792075 414128708 899920958 934715293 531657228 210350974 130041172 362123406 423576438 876457444 309712767 286639664 969362 701205033 266285457 801185697 172411180 49198430 610374520 40210935 888140899 141058249 289322960 401260334 579678989 243794892 578928214 978268107 359752673 766116198 680402448 101787361 179133172 831359977 569218961 212519818 484036004 676258602 643692705 705849664 119450737 451701413 580155790 968277816 229646178 786094492 864438314 179113653 944557268 352737339 560294615 233555130 94026756 221347253 379146654 995635452 868656229 785762039 627183253 7938821 734298555 594123560 668382893 149463695 538456920 924414072 866897844 365687064 907847430 468573434 707008157 133662035 525991977 599915249 99177935 847376772 218916338 486434334 906279123 882365364 350780082 535111106 83029731 241545851 150845254 334168852 383395721 400610112 968112328 121218078 190040198 320181571 678481620 264302678 886730705 812339729 345072249 765515112 170926177 813714052 349151440 154116025 62550113 742103706 689134010 111663885 552236549 581074080 578708829 36810450 613152873 875748839 951703461 301108747 238362351 580984644 2777056 984519307 281329209 554085787 877379197 1704445 75358825 342978762 212065302 882650745 264873040 750782641 379077268 542484116 365413306 260619037 187745120 714205392 181495361 562130328 950090291 174785640 496951862 61441348 271656886 462608211 59243658 758581134 490774958 11521696 624522042 186279365 653206240 572796834 938083921 757174096 106733992 774836443 369531734 554763012 733436478 269766901 237025380 41849239 66831696 478425246 560548041 553341115 598266885 375873870 356349002 994762611 729942757 131315165 803668159 250220533 886897455 18932712 251195883 221348355 565510198 470596477 128023271 891512442 623841369 175175018 173845579 172407934 804725939 350684694 941081815 245804374 676812647 116212906 181762620 613648255 897475448 740737024 106156870 514655820 732992400 205463359 786684994 171753929 784365357 125696963 401916393 878642046 937813471 112319214 261939711 25170097 897032696 472533626 693717293 212843010 336708165 574440342 349805477 19540403 729206212 829116504 84704274 73588479 694199878 298923132 319879415 552206186 189509753 699400041 303688424 144001450 69083286 382392005 176705846 779794674 913983308 773255051 493826460 862630151 509930023 692029312 558167703 213264777 132272785 431593460 207980210 489137403 144851523 155738306 906653956 296169389 150307045 667499007 246182424 591607592 364816638 270344565 579540448 630791745 750531800 588183421 510936815 117284551 941837106 162338731 889068501 162223439 45796333 969320501 244301567 306583187 525673175 47188595 852920882 937666546 457724889 779108790 549841055 690173897 20749567 931893116 187603402 692715023 179824965 183073245 413609667 857316824 751101240 173876735 767610916 778177759 523604650 731579837 875434223 362017760 860130150 564382887 442766109 372792987 61562970 140669438 278751085 220946345 315298392 458054841 329531716 61853701 845587496 738723554 944874560 505374890 613096251 891535687 833190206 266533334 964711736 376149063 445811260 657006264 724753330 430103695 221231942 56138414 575500848 178287271 317372356 298414279 47184519 856806429 518440098 975896097 721752612 389398065 837510864 561534614 997909522 507051312 360995967 170420353 196759068 798171969 108549517 483215861 288330320 440996281 642048003 37024233 397629825 122615171 506838675 412408596 375068754 917720905 717468951 504513271 551716279 436639288 2274066 188659508 336584858 135680277 675955862 875733759 935066801 953832373 246980221 689232592 685738939 181090203 104849007 859546485 777771113 709372467 740064412 534736738 677292904 437165182 623064411 194529231 871884479 206688468 797242269 655406364 7104169 743815728 83387500 448580289 155657884 802854822 169973496 352471741 507838343 489619506 654744882 550127578 450211704 609207888 263028791 332433776 422484311 266417991 911360039 762756855 785992976 900613148 287108144 783762678 362723543 103172572 130023416 856936467 283500836 37819191 373430369 982784835 297272495 920824626 826119313 613808790 235559231 763842968 862917091 596616859 768566578 140519084 953928027 556932246 343768377 610364503 494374146 851565929 779800140 763354450 300327520 201103546 409876294 946455753 215215155 958795243 418170862 442227246 113445847 880057961 64022356 41602658 818522721 576383638 678115776 900781387 621939644 91110481 347100136 595007962 990769555 546327611 453696880 787423028 447140118 910408123 624797367 62284150 887312465 89189416 397148329 992681622 939497646 799094135 463102659 104924897 404061726 735242093 963369898 312348297 90154912 807138040 554055738 819346949 557849008 212687606 384115611 799117585 917595300 394156278 432977406 546482905 801730901 63388170 869065412 459404792 246899784 972224907 317677857 442908403 286216594 688388024 236409779 615286647 994069449 624855776 4876089 488879392 628158609 600321280 466391855 785594293 179562442 770049926 383698019 207702498 529700497 705744516 375549573 52174726 480999708 730191420 421849653 919743137 597122826 803235808 933668443 638069533 827492733 284254279 91354643 32205788 164332215 299331504 680876464 465296681 18384125 112194461 41133213 199409182 782953361 787907399 921510644 267834755 308964168 331112528 892054338 852771065 155079765 815867093 113493048 961977581 569229220 243670302 877793856 410475555 490659647 381695431 390494403 863687593 426555140 807761497 159022064 659471425 526637718 673300416 538991178 48455111 921886087 611111074 881887901 245278559 6298824 100724836 493577981 902503162 880207871 569471287 37107710 603336380 864685045 484888446 357501663 992043672 288664061 300627671 958246351 380605941 888995878 538277132 545322983 365734617 201335446 729753634 588153997 270715145 964608623 169313158 430939685 725431094 43077450 753767590 862004443 973234253 656478359 769987927 5624925 914224738 16728553 34773094 980586986 772755124 382226642 851857177 988729042 215884713 106388494 243280077 524060837 17774404 226233840 674821152 607374940 189794680 356222075 703042823 823261571 429094212 460203976 160132590 204021381 412081820 857663487 169309422 799275607 153785515 137463620 98517061 503168244 538961808 515123853 678888389 432094267 512951323 154784681 307536494 264278210 58999257 796661968 558322676 104588870 518905262 650620390 773891910 606551076 136902523 921436836 407212229 95495559 275230952 837202173 255846449 150385468 695642231 627167322 715705439 505219882 4309261 98716309 173413852 8344798 796326230 873447668 293858570 945921513 827074061 646564360 101316607 900277639 845995274 606814986 576913498 12659211 667362820 625800152 623320714 944865277 204546332 3010189 215360986 601878207 265576587 115153451 789330458 461833710 84304022 354498843 640918201 836269014 611557776 267232344 641009126 411478702 224030203 962182199 131249405 906934749 623009929 331501847 520305964 800248615 100005493 135794081 630222001 931766681 89299456 495904547 537135721 637199985 70352395 581337933 981188517 388398849 731072326 883584782 756942521 327587912 751612822 401680276 367403221 123455449 362129599 426804123 514728183 321298255 279378079 802716916 759501940 33709952 88833113 765161411 560448389 858655156 247129977 615369339 223963345 695267470 104106901 62333732 223799674 233885522 971089752 602999221 286436289 436459067 917751652 751137383 930361319 736609350 71821922 149587576 907644965 327586526 488771800 630065730 389311715 743034204 889952713 757224601 588944645 485769153 232366636 314179531 221319601 392948674 906622342 19526110 923562376 667850858 749318619 313744157 122484692 188969650 245345556 632718266 945921039 816438522 216483649 5687906 670858980 347433762 472535421 730257021 490461026 593888205 116354619 763362609 213241545 957983219 683076929 550877062 209481405 729417942 762589356 566469751 821314907 421642558 993646372 2746051 266714101 923627132 653334266 714848454 512332923 25055263 731576090 306870544 89631668 113545143 195410890 644860016 54032654 147482649 551711200 111928706 395248566 257545812 755248643 410887302 879435070 534377762 69134355 523328112 784455405 676845547 339375675 18040655 303244492 446989077 174279025 406442595 905466694 293762449 367590482 443168947 401604630 279430651 426421020 750600766 842898553 229026599 170769842 519082684 198093737 502741418 756340631 459350033 123880496 163856259 608367004 311766240 409322886 777304629 32624696 680769186 412448892 107122592 841210147 771266983 576287807 108140441 394784312 218999693 659811789 45408898 316725728 13426684 672161337 632990933 158368801 264025814 702983450 622710431 534835710 954016509 950838383 624655621 821910624 372642748 231575272 446642386 172714446 862794163 206584158 159878539 950615251 748951800 593121496 319716166 631785804 747975226 525522375 514858589 592850262 988563048 516866376 550421301 9812816 600982435 364874717 970114833 853145577 18791821 76111920 887779872 668135429 719741694 150348697 166998512 636131166 278180216 456095937 816333599 940981870 44671854 850065607 414684351 958576951 289012187 202413940 122091912 149454877 308566768 189250272 44214207 927139034 733982835 975533016 316370187 836521729 890916624 754487284 940485085 510016341 529068920 420181005 577742784 835215280 551248601 140612678 133988258 741183802 267360923 311776975 115579112 809150737 286027918 346959063 429472902 826327199 4310517 134594958 298693678 294905183 307777971 232821654 784708511 29606606 721352852 67228673 132863160 436306553 959483587 119661253 351729959 123993408 70598871 570274516 673162412 111272960 880946957 34604962 349327245 962928952 880252493 628385167 979751380 993636089 314417899 689532251 906675893 168953692 175541768 681352565 339560658 431775532 619725359 788806866 982891520 894272609 941380758 184297661 789997391 115454024 185295616 702978255 866430007 267102834 140609222 875343238 630777833 557314672 726809600 256174349 210612492 321185942 433456557 631095465 224098182 351689828 179682403 895078679 888707268 185636997 90605495 104065542 700199490 825414524 24729634 221077518 382752051 518656539 289761248 980841940 46868843 586527049 176066457 593855111 377454462 728304856 533055633 416017207 939960815 267624171 457193050 839797931 717285826 23966135 7140050 910872976 928991909 577932045 969352157 421592794 426116626 921773730 877831536 588134156 623479941 879300220 967714203 146156173 792551318 630179169 470354870 689176879 607791568 779929350 797929380 541232526 628469176 251784721 90046024 718796533 971578387 258244323 396164074 711194802 963627214 473542568 46619474 560801564 333486192 323081073 273825257 177088203 540007622 333986756 433544109 625891686 872225412 249431989 270486470 572872149 187282787 728874714 975487117 292710263 920205458 601397826 788006612 630246002 808120528 791416943 998397577 765870577 841552208 99899203 559415610 757570989 125163026 995395669 27973612 570711529 604401228 889381028 197448769 625450857 666976339 133203820 342970156 59875808 820579848 255360395 805986569 732145438 733457839 943836113 890835103 742485625 603219884 800455189 537663369 383468428 803898619 527129242 573664438 566657312 713049478 189845789 53088296 796554355 530578966 809658243 942534051 30372880 498241033 386313596 514598897 118003026 756510882 215871321 313396762 263176575 821170711 121907644 477751109 531977989 514705746 187330831 886292410 218792855 641426423 893081178 602288366 113799696 444432652 120086915 977532704 812809804 944514953 300280011 940834605 396125885 898983724 532789336 601282328 179921378 67589325 177623427 819270708 908353207 664580464 965774620 798341210 238122700 759832413 339462510 684372664 22524996 822684107 554409694 429646333 99977175 555758773 862200658 199368267 193717935 399485042 323867516 255217591 25248312 358938385 646106156 203698326 275866555 901604874 738690319 242114756 711771536 927006890 385214561 56560719 533190804 781181838 130303612 138735832 426217151 62800528 167051992 607392164 693937143 544091854 64213011 902291519 499388674 426291387 684570207 176972468 971344154 493480091 834983800 590856068 870173879 891034688 801430534 311604447 611339808 117052730 878157327 105180780 687420452 454105787 797363789 43656189 1271893 235294024 691372852 954435104 748692778 147118732 324628793 446142325 908856367 718799155 796194808 74819786 355166682 537675387 788657172 100215596 819727150 457965312 828410347 617338152 799932917 435053936 425149202 386640665 592190229 980297015 306274000 811576305 862301844 414025433 298779538 839301508 141966192 815087212 949425954 359976486 441429780 884946193 484204795 428909820 693337160 344141260 899433826 10360482 140701192 699003671 472015274 546455763 620665501 868209882 491620128 740723674 284657342 671719224 153842833 661109259 847609943 957560929 548314477 886981315 657996588 820616630 191626670 282111683 143728197 642859990 439812324 904655632 928618478 952636525 60400633 631445106 195343251 241118683 81939577 743113029 107862590 331908938 441617599 661720783 844047273 358460130 606970810 215994930 858623511 692130142 539994078 660017734 57677904 430847304 399003899 596863561 818024638 348042950 111279398 894028129 104048335 207570412 748748150 919074455 108145125 575798941 71541496 29747128 452055429 727146198 216513554 973659733 984476081 300015440 230225603 347907850 141155910 198777391 368405762 767972407 610590795 368629378 891581601 707813446 869726230 107262231 103861999 835088826 122392893 365387551 427395466 872146138 837771756 597407747 200555902 24074149 174063699 866459093 526033249 688893953 224151900 566863753 308068779 554295913 812061938 260338670 717743715 851978630 705826056 459963160 488462979 166767875 734699515 141931688 161752841 588841994 331961382 364462164 987782439 762996044 666233485 637445162 438518761 551455232 261459174 536239617 242956998 828248293 797889854 40659509 714539544 625320202 631890517 797993010 201956584 365244503 472706853 619737565 600535953 473615667 578224668 293577287 362819399 156629519 369836406 860297199 735317233 8627069 83805435 648529267 815863470 128017743 512557633 144002001 856185842 421702111 70450409 364735883 318333487 839652094 612244880 959222707 16454436 779827653 849118343 882293045 507601568 558723886 899207655 761099819 866347198 512303206 79312730 347000883 964035905 635107483 359906797 438386283 732323460 532940347 400313140 841485173 939586973 483754120 436449593 226777548 601016478 553680095 587510296 339323758 233661629 179017450 205926030 836488954 921397373 694993073 97590164 537994172 659671796 694137126 176817994 427250581 923356183 932621993 401337222 319098673 72223366 963114641 410569911 975169998 996749438 237157137 965712138 943760655 331358273 689475378 531080238 201086052 469358295 136683167 741733656 626402188 995382421 125828895 597397333 349641372 90067073 552153096 52670590 662865841 757549279 736668115 996245779 936442575 636550726 565329778 479693008 936022483 114880276 747931989 618290838 762256755 477504553 583109411 746451201 473035434 468563355 312078729 165140716 980343699 484483525 266553265 37007404 294619534 716295198 595450321 226640999 697820905 600920908 403459359 976853002 996820407 38964527 997364442 303753046 81240186 520067319 321208000 249690566 173278778 960618813 860094870 508658517 72712999 50623060 626229911 730904633 964372806 785058760 341437884 590539427 668631399 55851045 355492000 764499386 286630898 18940041 814971936 133720361 185047612 277325963 389620845 410995149 197587597 86905861 589518464 10814958 546417534 325291460 435562269 428408879 956762275 589882329 442450292 228372750 930237121 240096503 162533319 720307654 356604498 965099908 50570411 550135071 740050027 833795936 838534049 843409279 611338062 495261846 344908962 834913446 286141082 251331595 929028771 107007614 187749275 527343636 315538063 916707904 783491616 657163347 646405568 713826303 565081872 528026754 473357768 307989199 642696844 865632685 454632017 785981931 596923405 787478568 381855992 3574177 270987060 456517302 152184000 20228617 84027897 833517259 351773303 722825415 502361873 255317983 136496530 687410170 202914595 345696780 532450688 15840069 287161300 427158161 578384994 86169594 834692309 2430001 306110817 187528949 20689214 193133755 714896910 868804271 589913419 306924927 929652238 228010476 398871797 43823689 28498358 749614708 619525350 916736949 624140951 161812193 74106417 151983216 195409356 49175468 73852321 970906749 171572424 61818566 373332666 25913319 800491550 875892456 958549615 318105497 33407391 211190405 599667537 291786003 852962043 94585834 406886514 725642394 217110771 189281426 511501470 336788003 27256944 992640193 116704593 62949658 341908174 428324509 921344187 750747093 507776111 756854161 564501194 260268103 843920280 308538632 353026249 140644672 456468702 996975156 500179200 682955495 255264498 377979416 777794940 184035496 474587592 558412530 721981252 192995867 718210830 714737462 893796892 385549658 886848000 248283986 227560565 731207114 148583084 601657777 76814296 274872749 33911240 891927450 776665370 833989193 915380006 606343048 792247847 315437558 905170928 440486894 325046263 910734097 828291642 343765324 41819726 800077490 410469893 109262906 672070768 41639408 912246512 804511007 54257250 106951108 969005959 594629935 558617045 404057183 787122564 695312610 336638013 510135501 701087731 555659129 105196597 329121469 705097642 248291188 246770014 729399896 318386057 940241648 393293778 353242519 14811337 854371153 802296943 96485330 330655298 484034247 525528867 483281992 179208560 539191902 564651924 375084087 634152147 51728602 897798524 483899189 413147183 318440006 46618750 472931470 458480701 933668405 804202398 726847081 787669671 201105093 20879436 278604783 95806110 203739457 565588984 156274273 79675013 314915951 605543300 128862884 104704068 607465224 97289160 762807541 761875535 41468203 459677113 569633978 521839045 699977533 318128341 744629904 355690683 61968712 196085960 827482405 834255498 699158873 341491731 130829334 745726450 270901598 701323671 873485510 338296284 996220169 452658747 687601193 93466363 954033884 469352400 767518320 307981819 302294536 783768427 734133922 234578051 62724523 466876233 158236218 652171368 113397685 602583130 412980046 154450659 799927344 430336171 828322994 740089045 128937474 99693643 229571844 182259198 161396747 78374561 787023847 729239619 7904869 862869093 208393884 200057907 33760048 209440092 261661223 826161640 571371877 192444786 28255934 572581175 827703920 309476650 198911840 43376449 742197926 884492616 987089816 716520237 190870442 367647410 415166839 87498346 969252425 824324262 468104181 918159069 156114330 25561111 46467725 741118447 24468856 91164282 681142147 41967357 435576710 598948298 340786844 192379594 241397683 77968669 148741149 562491459 605758014 775732323 596276316 878115348 240916386 243134945 912040303 601779808 10810856 846682650 883910297 928620805 408061480 55607638 61429148 799849464 221887109 718797883 366853520 326851703 556653868 242106515 341597382 554936037 707700566 98325171 634390638 604856334 289842886 574505877 799178744 324579688 957235285 18864493 368774257 975285359 864356485 134955576 800145857 316285180 900633279 715374733 135598107 671372045 825481337 802144031 883195440 641208916 115075179 217828698 697478841 542330189 193567101 456269735 902806562 351698731 447265273 502167960 409198985 309699930 572297953 51384802 130137354 105219608 925633971 553904639 666638537 576654762 683949247 261889503 636040755 169954641 281639119 212343537 458263214 47360181 877694769 133629634 544750763 433211916 900313187 490132857 991067262 487040638 653646621 802488602 847665948 164791017 92964212 890284 971476561 264095939 913016524 224667393 930840366 58094707 337290960 767079610 784473713 486303010 755325765 585994581 592848645 718795839 277985845 354550715 378677236 441393297 781475852 65254969 159782858 723049495 625682612 640205401 514597671 91398135 859358867 322302715 722082192 967344043 908086597 106122210 548732831 482265688 883735029 749103903 243588470 712979376 951386791 769184226 435718480 507104844 678824694 936757709 360834277 40934331 640544656 482332542 126218588 929694725 534392727 806899087 607973350 394030666 519811716 938231805 902389287 122842204 512295597 575810579 936661712 23033504 65839395 84235153 761441172 673175010 465919221 248038655 717992904 929092378 786009953 469670914 143601658 328688601 96329146 97018134 88100707 94532021 471638425 665744977 761556681 288476179 907322807 49385135 696960075 679038492 515224577 625413606 751877744 132544323 911985940 135066363 145386281 106885330 778431710 206413658 306862406 767041708 824552336 330495875 838792890 637061308 815099268 552531524 225516570 89918538 512604941 799420692 489910070 951730490 675161729 861357379 821484666 817025444 661503186 272127975 701262950 504043655 202123580 732417458 144319663 604984236 806128500 922541820 390720465 947759301 755666291 881358565 74289413 373688895 999612065 39674570 755415761 465543304 190941303 135503745 544068361 95267852 131243522 949180885 176554685 612315495 200809225 848574992 991076208 745100085 598610218 974803638 617342376 986773333 334033409 800283740 74301389 174396350 213363380 419159988 337598335 697522382 284947256 135203193 730046704 890484885 246993215 903032780 311295314 613978792 413819476 602729214 647408833 468612452 392457287 131028010 242072984 774152088 402573125 758307324 210436271 374877976 998573666 700471233 179587304 395060730 375471594 362564072 227088767 685109223 129848555 944157555 694834215 718834175 718926508 596015967 937710949 474136435 355999630 814605736 94296532 401566347 596432568 661540756 39198056 134641022 766483980 258418446 822473919 613989886 607614156 191911377 612591122 995966476 464800335 629952442 490901293 250919644 221275652 514418606 462497588 225489045 103054394 575246903 47831699 886510091 805697784 789362222 865114058 796872202 982674097 771491225 14274328 438278906 140895293 97290876 761778324 834587588 884902221 552992479 267343605 863183878 652463304 106653736 243875481 527593479 922897093 55241761 90244057 933072075 943106851 841171143 847194194 788821591 456268939 622731194 80644278 664167323 842914416 282464698 524216861 548685575 893013489 416786027 453309644 804618403 985199170 86571924 319625902 501609395 144919695 186147395 768657869 749906027 785033268 110958615 153733793 587461639 828185952 424042156 870309921 224148759 775218128 664091051 731955741 340326765 290127879 553565418 879479760 603769701 242859973 450917470 555347399 478762715 385329684 157580062 979706248 642113156 308396620 547238042 410730691 934475496 891649687 185126467 48759073 235725393 576444492 917461299 398565727 526967651 47721090 738570020 334009973 809381171 60842887 115554330 420829235 4594569 764788668 483144200 581798717 417513768 376536137 734126592 742905773 243683969 156716180 21480293 753153509 199218220 9544798 348405813 988110297 636744354 110487163 428216193 958370344 14610388 230723027 910292018 8091712 646556124 802657923 8320358 195119470 621576639 671615954 787326563 600747714 650101995 46599738 382130012 112065519 800326446 635023092 166746609 469344096 320623507 379835335 639281440 235536740 559015300 77367334 486933675 812053088 629282321 802735686 950547547 52881121 235702748 381284177 339378968 506935430 342974838 379012624 981486606 842122007 650810740 868543324 363724333 534932396 261018725 866750535 930937726 160281538 579566258 318695532 727391631 552239571 723844980 109487640 343422346 834359974 700700382 912378900 13294681 730021477 21051805 370196534 148452803 187096073 223301821 42425923 323646295 145312198 800924949 622482622 465793573 657770143 544684037 875623153 75878311 554410268 527590358 212001838 896246049 820582176 374260165 553681405 464731907 274972398 876949890 666157143 747946101 911922328 279928847 677654907 373240609 969398271 977170798 46441722 715768835 56062006 421176291 485724478 642639734 404770888 276314619 789178920 756191275 139817455 469512777 309651058 224087066 465271422 891863773 974149136 202604723 850862964 789656636 453747140 857042447 413968072 392447099 652918156 872460581 248339042 259227928 476762420 786144025 312662010 270345968 286116873 551792174 461272816 108987869 63319673 415875523 674034329 375550751 820429746 909351845 221604576 984496377 130473358 586291913 72814522 424678729 370906037 178670606 655715935 630032406 945608590 77336546 619435629 131882707 180468949 820466421 285320947 452715421 667273051 631991099 179447110 4458038 926893371 446423170 76475783 260247938 863148561 473454299 75042308 363321753 244726642 571685990 165470240 40045420 140021489 799398299 446397744 373174777 719524250 98731872 503237061 336150466 658069726 229238922 404503214 85928778 488566333 485675723 886911589 843122276 724763105 304381890 552892106 624177833 804639947 5881953 270943281 325998156 179319094 283347733 102929841 231423949 781983145 156537933 933032169 818707831 954428561 440021434 706826127 675306597 226575551 320274374 960555366 136320018 176624454 561062184 900425560 777552344 293940206 507707217 917157376 178234375 165592431 201495155 334742168 382462366 647335097 245297751 903019135 984538931 349951693 968279766 417597372 80918532 377695540 518723307 144825605 869037878 811102785 551523188 118282654 651065721 157088600 418838102 971728131 278638639 477232646 237326651 956137443 216025373 484780374 594031771 910674978 720122279 772934816 132761746 769165389 296692693 197198640 318911801 574022269 493091255 336034276 247412788 941641136 458655410 272383733 835887242 540392167 847124937 82288646 867500513 432916967 565630374 197991142 888494023 748673313 630390021 417154882 224595340 785989764 123937766 610688419 535430130 538143825 677874225 477835614 585472774 780462071 14837969 119188495 503660260 432803315 227187301 724447257 343109598 880059922 898495630 684028012 46698134 274046058 462134909 804189579 911851358 357625219 134742924 560627365 682219839 563976513 756175518 52016617 272142468 88682452 830766604 965984613 878535322 723871485 334193100 228868408 61245896 897223235 101968719 774033066 307600237 847249863 817687396 975497665 84145545 386562587 145847197 26299734 910174943 213704817 807992302 827602743 602542531 555187805 202255572 706715841 811807928 38071058 330427094 105469926 834903214 993571656 899527769 464234520 115649976 290283271 354302035 158984183 407025526 112746172 748755410 259109878 344487830 597718156 54342431 654988687 452013380 313286759 85271786 995493413 492448153 417089510 384690431 87493130 426698823 805725559 550164698 605946591 560120113 294067788 680036317 432717722 431572373 510247587 975199373 989675842 370215557 417063414 66556579 303409946 750406034 950206216 138081820 128368889 216988037 249316985 360431319 892900698 769311483 244417935 143687560 776580071 740994009 41432687 98489758 697266024 173110258 22766711 675588233 558562999 655193087 971097147 877609812 301336197 210383305 32814723 684803536 167715963 493632107 846788272 729021939 104366301 258102417 776030980 838114007 97291395 916575333 427633618 388942973 857896447 145423794 601617729 33527923 599708949 790054050 128521378 686942649 991747491 143963270 693958229 643364806 192333847 32831183 711271745 649826658 309574377 242914746 641460962 333147170 499828714 611264238 564162354 401677569 449210449 546772522 951267667 404003148 505225611 594727810 424926435 961016058 837063468 232015677 13761282 736560575 540837878 718289655 586068833 406158272 69718206 93872927 454952650 758898817 640953024 639408952 244100090 387217845 390348026 344323332 884317721 184481660 91757608 133396671 625323573 596216740 42868974 746549655 308418018 183477008 661477867 445645180 145811087 805053662 243358531 431408597 556665486 967251594 62199749 570856085 115097002 264347389 230680484 286458067 607762210 483066850 613849542 126010175 409545450 565690793 558375422 786438288 487359320 822304365 372295728 532412728 138820950 512603939 23675951 929100483 331436592 700816636 755235695 18423538 290244360 888520939 911051871 827516741 227358540 778216685 715382238 483143795 646435796 849559203 636932172 285680804 21184843 372537017 319068287 333789736 885885523 114865401 118827026 514426558 772956978 46738108 374025899 329509834 738677553 799115782 449018737 827730563 216961561 423871736 277927605 912439254 508221447 552368669 531572551 890839756 948351188 303375008 286463877 342841260 789092995 960899827 702166051 630683557 230097554 381262361 499041948 169446689 555422850 819311221 166661136 947344344 106925625 549613578 859169268 148402689 744115921 141979934 465233183 344663152 496008246 766962559 556652317 851457826 766124884 600071464 435505744 56521646 355966790 109571079 719962283 721230299 161992480 842820668 347277343 373620837 428573681 869709790 573585118 279410320 122765348 645761184 635952845 549592998 299660944 975042519 140319783 930953143 739082082 725424503 729210285 315561240 984890409 225587320 974476746 931252098 245826676 360398886 104642603 739867139 154323268 662194619 322025844 381239227 148703598 726897250 398670119 809903372 496890195 29888735 833135558 776881711 916843324 809224741 378168227 42511951 489366176 508742263 747427260 381557535 793744942 97411833 212360791 335684228 141400625 200655374 675088931 212467477 628738934 876126264 620908261 641711825 384914625 966525384 718289564 846463521 84747524 32695973 166346770 981400568 817811167 760686469 722328506 333686363 987296172 253040268 961273711 616991070 849201472 258479824 311916584 228208876 187320059 271102341 186644478 391965359 165589956 343165444 513327808 340112786 666738108 200563100 348759057 392093021 146415593 211044357 764396257 862346520 255977339 349037017 704327036 741013506 251981389 678454452 404438061 290665903 893967608 420432296 640437704 752115626 40496505 34206668 744893308 609559714 550655456 235620083 472744894 700402530 788979367 332827554 867746618 596999983 591152310 516754526 15509994 672733888 682290638 207701213 419464498 814985597 523852380 370800925 79370184 444014478 148347344 199114788 990043735 637116250 986629551 308175116 368337746 654990839 294122977 718308901 754726076 666677717 428633957 571468256 214135154 425845964 875282205 171874378 909455498 917374841 176314873 185728026 774501676 811771115 761215967 72350949 461913366 208672739 137105558 991026322 6775964 14830132 632610952 311355671 669675040 690851440 403793397 474414450 645743086 573166728 760911629 46404149 330371832 299286204 294410264 40859010 372944050 766104840 376413661 286031741 142492657 105519391 744875565 416886270 424746672 432376841 544630738 139093778 646430421 424693946 980127668 412465395 278974705 823495965 229603018 284487674 596461079 959068846 242556946 596935584 736469836 241612087 401149263 853965594 41476041 659548589 225262513 716477432 242330894 539357177 450891985 638816473 564317282 330416615 677350830 353706114 793627328 413839527 608865307 596486222 148745905 53946963 613235094 886374698 84932016 369496595 843069463 3887803 502048736 632745689 711867515 620255969 872808286 416195294 354388671 898549467 278024664 805925817 519270429 869653933 426005079 568987671 411158147 121098979 916611561 451382326 308410909 795735022 239536703 598406889 771669590 776599201 329590223 625425255 248127718 171623010 831161292 638200344 753403028 699999937 260946156 567007459 405331877 694001556 498547638 917023268 766436980 694976260 133677440 356565959 850062295 581709157 662675909 920359629 539574948 262336594 26743303 93850104 699160839 460486540 832823761 862433933 928688426 17068741 97944793 274805069 238802352 379225039 218010094 288590881 619692373 591124604 309080217 800057073 14233488 125710452 892942114 313816775 984042075 187695023 752573346 340397431 98148688 223738587 73503580 649780668 866678498 332435713 878358743 549915695 736839074 816754328 821648727 781009206 370577707 166205524 940551771 99647302 611411771 600648046 703923209 417824897 14827205 832119308 666371090 143618270 792767770 645330225 288381215 763266949 540925151 126476758 896862523 100684140 168708467 5464995 839829228 525955274 462913910 784499638 58345347 165629932 682032428 228622993 713330684 347402360 545116661 328504891 440323210 529102876 451183919 597727087 248750642 666709138 250830530 488247333 864476922 491910102 443387641 584796363 94597869 969535087 49190739 687436240 478149447 138867214 243410119 110700594 637196518 317055647 556813458 131416845 333781036 546794974 614777251 358336827 170529358 527179052 541964469 642239514 734711614 248060277 710614235 744207167 541789627 605619716 578552901 32899588 526360200 385313092 798625918 710555500 617405288 656039828 654416135 55926645 716002330 752815598 870868082 396660696 914604915 358464390 684405654 612857190 666442500 643210596 738550352 928615427 26375166 650898482 737244510 766733462 705319752 800008593 16285216 585934414 75148054 144294224 981817565 784844707 904552387 514431693 390240268 207504853 145020167 312389749 62573370 333830984 613942359 675849649 29675169 854098102 529956670 663231145 979733007 615034465 654934888 97059968 62761519 736047366 310506205 543709118 79234622 407069908 27393555 510472058 637374589 867540808 80868652 14489395 769226936 4817206 977706194 177131668 858981024 463713697 298242371 393450547 123759371 308587877 978377929 265677840 593277153 498991683 19718403 683466300 961095552 138440300 922920986 476041807 237634046 984734557 406776470 992864059 497262737 902023613 860444945 388665681 587152927 848123494 146102660 888865391 297561829 775232002 718185556 957348627 887525736 645825732 509584587 99094588 414922062 320739752 526033111 401416782 363534005 893719161 344475336 982172345 955188832 698671519 962278964 65616943 247409416 881634551 147040593 583118314 420077789 772148082 680925617 227095787 201391799 682516549 522401071 824629661 859953800 821803168 53391011 456515520 812973557 871114369 776717109 635582225 876743371 535095124 434743307 929220591 817653641 656720026 968502761 573857435 812640841 931164250 143096938 726047293 841971943 538469660 963602213 769410366 17872874 382425366 575072293 656563276 894017763 773347316 141716126 84207346 135044430 720803121 76773701 760733754 25139408 986622213 955873680 988933319 480215087 454748712 695470569 13864280 781345865 120625861 891848044 238002469 410477424 590522983 548522388 99383130 344340237 589193764 206165349 69171169 141888344 232398661 446659101 441060684 342755716 993915672 746999086 844974693 491752113 385311312 642976240 618938311 107731441 704749046 582829825 294144422 452868381 510739672 679604554 628269519 331826636 31102284 406382966 659056744 432853925 178332561 858408065 278489129 972757195 571493370 425648201 938763963 422923355 646680038 471245279 164247545 120203346 928075074 147389696 129872497 516555753 324181905 365815988 97720211 717637642 985414175 192744804 885105374 771728671 279883292 472911518 563638379 541274143 403954642 397328627 675659809 868563499 498117004 862913192 516865476 232240754 407559488 941274449 428831286 193693053 221681082 391672656 31652954 905389161 288409104 531336022 945147710 579151281 957175242 84600039 699907751 40717205 370191289 269061821 936070459 964873861 296275905 436436945 647897790 71014608 71146078 626349608 865731900 378093498 28664749 170715579 664795349 650445391 628886056 178317935 108273183 620822336 476398012 404846535 634507865 424620007 26165071 961287294 719188570 989848008 593493954 390715255 356042931 589884761 936096244 596610736 173236394 656671304 200938839 213422192 439320051 934651649 604297427 520215801 151133795 953330156 102890109 989427002 520098213 320505274 996849705 190603046 627151201 139629175 546952763 411369633 323446732 415719525 723122253 633307553 20674837 576895755 618044573 285898107 915691836 941304802 807885714 838952300 843109768 307629248 593448841 454561662 738312695 272546381 150462041 296676553 968847825 652198623 741046058 805461222 950434048 296466891 595293538 107087050 445300568 577503260 31677524 140967205 129729608 98406987 797347877 930096317 779589580 549039230 200168938 198701842 195609905 320928190 977701561 993988340 830232048 766726842 385222801 192920897 62399816 968365680 793236672 218032046 940078489 303768381 114500329 455945968 478425138 743185704 574465139 91222650 268297976 108387118 512078501 279947703 287999290 461013430 871836076 734331837 363096099 666486044 94227545 55309785 749983886 524264657 751998928 56165210 874541839 609911902 481955445 57450911 695460242 1590838 449083661 178709267 930966239 268244925 712933896 719084808 973506966 856882429 42586091 49626197 416225027 354094379 660884313 823200411 211260556 166975122 608741506 615308557 114052891 442762574 749368569 81195799 282413612 687822439 419278039 834561444 806227626 750129665 419520827 495740724 689969534 912998927 502591839 176725006 139821218 275063165 390270623 127139062 11848565 68305486 493293621 361740759 537280685 532350517 913839488 564817748 697489718 83242070 842939006 507371230 704040182 734670041 197834360 90740475 192971402 673237717 333461953 40175921 775482687 871843518 213640312 116405898 832797792 554865802 425084284 259931526 670135573 791853950 739564372 944550348 987598795 453138334 832767821 856559679 772943847 892530416 801091099 947712513 800283031 591820365 190381926 895748999 803810718 233936169 365704585 353664881 23556529 291401789 467035226 633123630 451564430 136173438 733588692 263140335 967511349 127295622 541655214 995550139 656994608 714975882 226380485 902320867 519990008 250867164 845037080 944503045 804874966 281213723 665176235 91545020 936769792 607589391 223042381 713951143 298069156 996668317 154043153 312430841 269311926 940488890 662799725 799390574 437544562 336418901 282211460 117888428 78394216 686459908 811594496 257175826 956890982 152665739 969566802 683618601 813072339 671184820 118945755 585077497 370257066 603149279 820646366 530264608 596909880 122688151 728263015 29335864 733029720 448821118 974974289 432065597 753721004 797893092 46827606 637384348 77848491 755227135 603308264 251750315 468401385 564037809 572547680 390747245 817326109 558275676 889215081 682272048 607596340 903549267 362050616 153858213 577041229 533403461 461030077 461495762 889501246 210648822 67051615 173376605 556182260 781931230 944311035 741995917 952141938 936979162 538645978 506065051 642052620 275392699 83184509 137364460 681945799 370349426 643049086 719529154 199582575 86367353 930873258 954705688 5138650 723502473 377235265 619194030 988504810 265751044 701168807 83324266 949149623 100054343 253253800 84639400 585106587 742931185 271037177 188291019 685664151 976222551 231465486 689449873 394142854 325163893 167082290 930349924 906600136 8671725 845571090 754434020 752231903 600598430 283149078 460669421 755817841 125905507 660543080 672284679 149254696 526505200 432979389 290427181 897149810 425529275 982403921 150034052 173777362 877548445 331482081 615626714 153531729 228867771 356983695 252304868 685356014 17030701 22811366 649855226 71314339 853403304 423288176 288646648 694611193 844167178 176565592 263755282 889532867 857855446 689557086 147853386 431262102 723146638 193104506 294838454 234486787 228919830 700240835 254189978 195737558 218526672 110048023 557588232 221223965 131228836 759322781 994348066 483430786 37635219 137000691 729345054 414267289 112732637 201555896 754843299 113006757 525650346 159079529 447893508 39492192 154829089 706454519 718947295 605152907 486655488 103483262 467047402 171408922 794878424 730669157 76162234 479494971 41021073 345830015 240896588 363004416 432875339 648923540 989558511 57827479 932846218 461647454 187857576 340252342 22476540 8899589 44470058 987669616 391605104 773767954 389339366 919121593 277099163 942929093 675777068 958468360 353516778 149046434 604655866 915968686 465110002 324407223 997097267 735605865 706554853 954658999 725740848 927590200 631757525 499803722 711571020 617700280 259845897 260844923 60443726 997422417 628189233 774835943 182699708 607464414 915825565 374627818 74424452 62906870 666983714 470719850 795050297 255547291 457077050 430170993 799428927 489026159 909759725 156828242 191691946 937818976 919976027 791239567 915297581 29611600 591508241 707980737 675262286 318663114 852120244 617867221 676032907 477309211 245579173 454294746 697710710 296573256 875945050 550281597 912840180 460007089 375727725 827301415 290257499 270116073 192550597 390023880 580768415 653693936 982536057 797160537 866684095 948736971 226458737 153563741 460754941 999170664 845164608 951475527 692282456 632775726 624683325 48401940 132520479 455477293 376404633 163744734 416815972 286055727 919181830 661233125 852495098 193660722 532378177 313294610 743334221 343694184 632381805 781662418 943665261 163923452 17559542 92787107 708267852 158522548 11807941 327295083 307906601 150173902 613469696 174939159 435775003 427538675 798718755 738255361 116480432 58816802 797570938 77520967 311689569 370983249 89835354 893557204 241601393 116795593 636722300 496213950 531042420 277951525 173255005 342285226 458507910 702073800 217746308 690507878 301969367 355118892 203271750 784218067 133830786 603387694 627002430 378827062 970360422 297199488 546729676 459636931 776949989 944440531 93007879 804177166 645042186 708107052 989554081 736456320 267129463 831992459 485602623 149787337 910952848 663976505 620336963 631007570 881923811 505268233 550491603 964905678 67123416 886723466 775188054 91164478 150458573 387075284 339860125 637974828 645721595 636197919 29325675 243291864 237709657 135298390 454147196 715247575 659774969 27632248 195854358 654923067 380487300 314066527 503496395 880533955 987373101 396341438 620343941 273002024 588815374 957782520 786890402 103213501 312918712 474029038 527161132 576947769 298872470 617702318 961344623 51742352 690061096 701505766 547700671 567335976 933652851 771228799 966004797 593914183 141338794 153025316 967403570 205907049 382241226 33568910 361546774 665489294 238587493 92064992 822489527 946882115 678197001 639086639 172191721 217296276 880538509 698031659 707086769 499392852 124613702 210843718 68078457 549680383 522111470 332834098 728384605 10546159 674792148 531599977 481224840 683362710 858488376 137359746 889426766 3528134 520021223 684170184 44774885 580753683 332438091 802516506 12142220 928994577 648477249 831415796 591281353 568491275 327956411 383208714 933740461 359046197 716551689 845415047 687601969 208946404 658475876 589799430 564793282 768644618 953014670 863558189 915854699 33700335 631733218 22912451 698746747 451280298 340181353 988477265 24347386 231505021 570118306 501805286 954693085 730345076 144960702 868014742 545211037 805951133 513303708 195678488 123834467 25246559 864305720 794056383 731831669 301104193 864487819 569779830 533676380 454423168 826639396 433352215 22214792 522377102 490219289 763244383 310132174 196672670 976748528 538733274 834201575 533733661 967374706 506228297 23924389 565064328 712274011 840841699 140122232 829983639 93063751 775901718 385427357 259664667 522083623 120258260 374305484 559262369 576770084 971642300 384301170 963629003 314749792 231154504 442907461 840323829 599996476 861859816 793587414 471728302 466089004 63452844 116581231 711087629 415683958 775240805 507638379 877604640 772413769 532783263 530659482 847717568 732212284 12467538 534154388 832643490 632637856 670217812 266993199 916040392 276762049 900955181 818670685 108385934 358327614 931867320 420888139 106045694 268211669 654237490 38997805 935774058 630124201 932383795 859073223 990477642 18375428 632185652 939150863 340751980 636992412 874370341 450320816 828475338 92547520 516138567 484091185 14062247 456846569 956114708 797505505 937424969 205666222 752113635 340110054 771747977 13031100 486429024 966013520 20762025 585406220 420090033 293102612 242701752 116445574 381983075 452758036 250517969 985579899 188220604 829644413 227504424 924969508 781214064 104455235 198435280 789809979 281564302 360331013 314202298 257268338 656766208 348060538 563666747 365302233 690854545 601013545 542066090 719657605 451014908 946857896 251139214 302519887 537157811 615080873 99144145 923120568 819975262 671793767 789832602 94469903 567748425 912295575 191673521 22350952 462580997 355352280 630643636 476373342 417888450 873688722 474360713 771742171 882908642 355379411 752833702 537256152 215273976 844307648 879141 155816377 461774495 725457917 926087055 378189232 997586302 766653749 314233124 537043180 822655538 467808586 23966860 967538455 750774230 518163198 175958462 214828476 650763633 135466602 791397601 626469423 890345774 664065084 155818383 738858524 305092076 425046858 932485050 122433620 435404415 79146474 221521764 457860183 602218871 180724739 835897653 669276592 457042725 568814458 998779369 817707223 967134629 750248079 171423332 73795294 791115052 221234152 192102509 655764188 215256822 874078512 804947974 860173252 58671079 778985255 763513350 545329971 720170779 786129319 439587849 609655170 404623287 40518249 627870199 561820481 877894634 565403543 196948352 653741620 82057937 67505558 203478657 624526454 907653524 656823645 952900346 806270851 700449437 807519101 189793143 65443092 728720919 931443096 962080993 947415883 429997386 867941288 635650725 528712867 940170783 656003292 60114477 194019811 322700401 88863770 326526498 920482590 911725151 696900262 45635504 953852286 582113718 921552464 360523261 795195592 501489560 328991491 517117262 666412828 800352016 102700056 919878386 243532707 363080453 305492838 511755486 380676578 359501837 789757865 963356401 290800825 180767122 362787191 554066341 206390067 62879408 161100971 529686 1346945 810934302 766264759 368509974 941840155 298572810 346467463 742370545 240568793 403905052 806732695 124222275 558979098 371174634 981176762 118922504 841940172 461958318 253772060 939398921 38201691 1418428 744153814 479984622 44469043 593984769 431550221 300895767 329178024 253219695 658324678 401420862 229130256 243849227 95906669 792413528 933787147 866984718 930917389 273906372 930141510 694799520 52635086 622579473 178502408 956025624 583421732 315538229 636925687 949052347 291958534 472892876 151937137 87754777 553364032 724615824 450932357 851103969 626584061 221176863 108557319 15213271 459191145 170139386 134287055 554111351 527165329 561798915 272965547 411366314 255325482 315436159 191423300 610621136 875739350 394613333 134317269 476462452 898397674 761393758 378128683 927216606 243949085 252560506 39311972 988482184 640109360 257422930 568047180 837966077 548672539 75765737 766716922 549903203 340869881 321209700 408076026 321095535 717391737 310833050 681560516 277987628 800639488 476692001 812724674 401960161 199633007 165766934 327479267 889950155 880173914 714309145 242155959 737462128 673214542 8995670 963007245 438306004 8663734 3295236 55543340 811667432 255032357 982128151 216995135 919254872 668483764 788832970 436427685 911758394 302014111 141755244 449014728 750394584 291066002 117865690 128830952 899432492 441218006 765676536 259912331 780470140 238609198 532905559 477516209 159175772 354112856 996291575 433542087 996938891 493369599 748734966 613928964 154974822 812558494 937192193 48566739 638369188 741160049 947081433 264769301 429594009 13815863 693250775 704864619 657449561 248692333 329539516 885699629 307918219 683509643 868491866 942558326 712486160 194023819 203164756 956262353 262020151 595562438 194984919 918273683 723093783 185087299 529792733 320569702 268778852 687811934 188234814 364044779 855291569 975619088 891195730 899873738 239394103 285390318 712087260 249804524 158730922 263869721 449937787 498653645 212069360 625734073 635973350 174985298 958028151 705269851 650571574 448296504 126408308 245158981 649469383 694217653 591529485 511266007 911955936 363739382 151218328 90741891 998060700 709346272 388133550 670450798 227759246 297289095 480415735 842645659 687332757 432040959 54638189 610221129 215347000 107562988 250137618 531231352 280309207 981869714 282283527 806419298 17961954 615315507 772845075 311598939 451932325 204238687 591480804 914188093 529797234 116808341 181524639 11414652 56792693 596051928 972483237 326629469 309030271 708741311 430821078 340268310 841898133 157415144 563477143 463732228 875802679 824359456 789557783 533354854 721918482 218761312 430086698 397560547 364243008 185575766 272660571 315193285 329025930 156279037 729223933 865801907 175751486 147026372 511571307 5893251 322985132 969605572 586429569 719581976 369488284 772387792 469877679 842166234 720642218 168622385 191953982 660106929 289362288 470976167 583351058 391260216 451103820 647237891 294516945 573181066 761264720 731420008 121116309 164511114 504967588 795413573 657047615 70881812 89652652 271709796 528553486 845387499 119607891 384477356 196672243 294206527 315693504 395646410 24271139 707012464 218763113 973025989 804466149 388401042 710439486 618303743 863648018 116985701 864513189 653931173 187092935 660800543 713034394 404401486 35057284 872317714 460639799 409746498 94296853 643597046 882469778 326009569 865984342 322655495 381392731 556315 740372663 947658875 811093282 874048648 776827181 67648726 591299288 385317251 560810222 762319850 757410399 942512903 894151121 383475254 381965605 407363175 59853206 129510469 403489935 202838214 622144780 786776942 677265078 375541001 82308213 411926550 722243118 194664060 118545373 801984348 784140111 183714035 495368052 574596485 430177015 710358866 74597324 56096475 782721208 987260057 494829823 983709029 946301238 629685537 455651155 689099692 888679764 503119095 76126925 584891434 686200615 427428859 319488197 952561659 563549059 314052441 48160503 669470306 383084251 633136 326234128 149893699 788894706 54345879 460910921 790438302 90725138 643452712 434155045 659956886 115830519 711461912 520930853 800158050 182188019 76176620 302832942 799548352 823482666 887783852 868477397 967884483 793089175 978843194 689097222 597982911 599049964 34711987 817686126 259229814 197894603 306484759 830223292 780071988 483129229 299997684 735831213 814049424 510681322 469675599 314048368 728216460 507595088 433634434 769457203 491715873 901865615 840192840 411628169 530228966 804804314 263908314 743632617 850468242 953849073 187770588 164973057 756871422 726924449 270826887 98713956 614935355 60076414 271782694 432464310 597187838 394782429 898370236 689805759 735187416 853674072 999195276 251726162 705397681 104601506 85568034 610585300 811165359 997949005 888203450 486293402 154766668 175559906 183086076 883918889 859061467 702719364 443890407 714411368 733872572 173689309 487887432 548812978 82554134 118942496 243428101 190973247 444344880 23344412 401838511 587233499 748382884 299035874 514452185 406971078 141837119 58378534 632660255 762761487 768298315 698360881 741611709 42666434 53846818 313101720 271907543 913493500 132391775 527772020 274343650 224167073 468019725 124799630 608763103 533051957 33368684 111621925 257794572 641761277 610742428 716739762 657031866 490469179 679182328 313365795 531102558 711734529 288834325 991754993 257604261 853371795 161782156 484136761 431032838 576880576 160233464 711649096 465033041 778393895 675253138 658276632 358714025 554550103 479702595 485685407 212425946 15606010 228762825 400005843 77764420 130118593 525619035 588366463 654568538 949688591 359396129 176939265 440178578 804699774 685560767 474331415 339218063 391887095 681458040 237586919 349255854 487700712 330795755 43731359 331586764 664252732 759070173 404978327 798057649 289520132 724776631 722611145 394172263 743687766 367249776 765895547 964530152 127849887 356152801 583490066 26498395 913091612 47879301 467137220 86424671 80669580 374933164 981599795 567861436 925057761 201224917 84240454 277225032 254612841 771336212 966172940 438609891 759423558 707666133 452606986 895681311 484013404 986605806 885774516 725862088 439034098 878821979 937505046 120084242 667943389 649577216 499957935 722407930 310515389 875699414 935783499 124158732 769967726 688234892 999871215 631412096 780397696 677690465 803247776 31098109 749074923 37590854 261346788 341446946 250234373 243809086 792295582 156531183 324088955 31801901 713311394 285810612 91397936 619283446 776835701 881283078 223461824 996289488 892199595 189527752 953407590 733688254 253860756 359935539 257920444 587206104 311395114 166839792 42114802 976752752 63589610 475051638 40159112 355811230 932464177 690045706 37416168 417680694 628048316 861117960 844394929 160142947 726989662 928899494 170051295 43603135 356372048 94907529 59555406 878865117 549847631 257010051 185109501 10114690 856596608 177763365 890493207 516123969 207087712 697251214 59841919 355684892 983346553 228143099 855502924 118069972 53224935 629774313 450987236 711484118 255015964 856669823 79279441 36763129 948146887 746404810 279440923 561550534 23671837 823922814 457667635 25865785 131939372 370788791 980252461 755749460 992557599 239775261 255971551 532413794 591935080 853929865 424245794 974105307 437200164 686721814 674946075 93923846 878158089 965599977 534760496 988563526 745478963 666250996 242324049 244643645 571822234 461293431 678349958 300530304 930386922 989852834 144268474 383483413 896234663 841930021 904919582 345205366 570909268 492778501 901270519 380833715 358140655 795913313 267561359 324605398 810553116 573483499 437923280 326902977 985615745 981690118 745495328 889010278 960516455 155921387 176978031 122970680 234823339 362592219 902196580 458315565 746590367 229830557 216949863 934180517 936440087 695867513 84515616 234906234 532823873 243669038 595829668 248207073 965930958 566192695 719589924 458876686 350277578 556187037 16286049 676292417 285393079 532088358 93895901 220224340 967794439 893228369 771492889 654747413 811368404 737318196 784335402 541276907 933725921 387013607 825868633 850001536 990044714 662299184 544638784 665658833 891891470 902425056 627101787 616394929 22832131 230746647 983710018 937584648 660696786 790862838 57648926 54942383 610357267 918811922 891797897 128972678 329177073 894371811 249487217 396585086 532574606 476364868 649855721 129986658 861536984 90166661 368011174 389176241 216314884 905862111 489488709 305865482 891027123 505854983 429725443 914898524 566252327 893220211 867657875 394396740 623856232 450146733 862500283 73982939 354592254 686048884 207762051 247148206 555944751 12827467 59437872 437417110 474660149 187106880 691435745 144030705 352052928 161220719 96536596 760660220 289529618 861178780 938462976 951314018 329552047 208925750 249021257 525659531 251638933 267534623 250558766 617279983 609131590 139377705 219894983 826632805 846870732 697322903 858346057 791762729 860714379 941737751 682616339 164597059 698381745 21574799 432247698 811151821 204828707 820198407 561276778 969577035 514873713 608419289 662631352 440218665 430530972 238970924 302637955 170804793 453531040 298818952 92860086 988779649 309824016 241119376 557997324 651556044 397806818 662995387 654323271 704314868 460679300 584945925 302602890 580835317 128610259 494555400 927700552 674855252 545865108 177212924 268145958 999572391 92678845 844150460 329377452 282494997 36635161 145975804 652375816 907638438 618185299 177111616 219392604 887613727 724040018 288863620 643085343 954849988 494262705 533577824 443008608 11545633 313073138 170760208 201269411 317772365 152882756 902886738 557508551 20448961 646369599 958694682 276242199 652638490 610843184 248734570 709314815 917510729 371390009 679360995 177664036 491461403 837005369 334659521 777883993 159798303 795407253 619215248 709050495 671166378 325117875 795926748 576765588 949570130 805636756 743350209 600803643 831637304 319447963 278185941 296449455 815120768 983890588 775385791 841981581 633618453 914114294 215815754 58684872 277452242 172175305 981853065 479747756 261955640 773435148 575735780 971465003 45006678 23189892 630872579 848318019 521309627 739520133 705389913 249524497 163462235 445128935 455754758 791622028 12217014 3683129 607651722 600497062 830133970 515783939 816744834 271313070 796191407 901856760 745789798 897329728 375967982 403092621 729566596 986597256 263688623 842538216 588039101 347155354 577869319 891326927 68390550 450359846 645925882 968345645 858837826 260096166 552688082 60625186 57057650 346080640 889272292 151471784 822944449 611619646 556492457 965830389 523791725 681725387 727831822 506153479 756995302 206910684 519732079 137100128 851497964 606143337 628629258 931632481 218166479 185454403 994365794 58695708 147779647 362456436 900022994 925162167 424205378 993034096 266001701 335990455 938890414 242212902 67597312 438025142 401765955 600012161 577610284 862763024 126608603 572951307 769335183 690569811 137301583 2064139 454796999 211247006 898390161 353604127 525910035 650004500 685993778 168467023 342499145 871465925 152858997 497568566 583677057 194160525 651480714 462787108 783244764 439786631 392775823 924690611 984595324 940452700 393205739 422788348 415687436 899677617 805266847 32447145 326693674 50464217 984200507 75546876 393999244 561112272 74612266 512965657 978032050 222707508 947376926 990174669 546507523 51207478 894618580 873231126 772732759 420336310 412532460 429269045 978074044 521754849 144716798 410406661 654601113 16063452 541937651 468076798 514300938 145998160 784165114 153462292 891197669 530490140 388288311 630054130 865150530 467914635 458127644 527300850 369090987 637267731 736532944 78021417 472619039 483147001 853803985 903931353 756774455 255298326 597677574 804637809 200913877 788903532 63147226 209304375 222269453 137364380 349240237 638939857 707960649 935437631 157713845 801287761 124882913 315544927 464663028 661125085 532408694 651288087 93732483 124461239 73726573 504219165 515125169 640849950 203468325 521246098 875644840 617760248 725233908 323454877 548153850 425514983 112736245 202949633 189493914 685822460 855779388 533782323 151913783 751740771 316001640 513857074 307298697 631564401 990592429 898109370 481837690 37116195 173437064 206345820 474895239 702976857 150437726 632858282 365840185 225634954 712178819 392552709 645073108 880517812 205205527 251981029 385727991 882169034 184521597 398108179 895718617 622539435 576136097 636208138 488473817 80781106 549777128 533988642 856118913 766348553 560353290 819688578 303347533 319967872 376897867 143019104 773610680 971836111 655348925 908725784 31975625 408183928 199894620 66836209 626000166 634813172 746614712 119911542 256392710 49637407 199236253 546897030 798634418 792745761 678833193 44518742 969996529 65832771 827768700 711009755 52616958 673457663 342260738 662006897 320649 893322954 653666431 477630366 695005841 810411093 46010261 198475833 943348496 237838628 232408214 109573388 718082552 308088398 379899331 839717070 91744454 774953768 30178878 727963221 100708793 691396076 874218698 924197251 918625714 991155202 210955006 102121487 612031832 181212148 209526346 954058165 406690769 685971087 652506987 493320842 618105903 292372492 692561171 981587373 923094985 920502780 588986732 847094342 390106914 585373749 939602379 434844947 992936747 307403409 295142581 491903514 211258756 87904983 718138573 43909555 221739768 741737344 119658403 976656034 543569965 165686519 753669683 639332066 612199683 602100405 92708289 335474890 865485446 633292284 513271727 831471683 210157869 814082429 990225368 1731781 915577396 430459419 354310229 259264375 97100359 34874565 530498198 880565453 700806068 728499718 469898276 530784475 729715787 796593580 147665593 838602491 947502657 663159546 904034186 354359940 327448286 889222786 588316999 751581281 771551809 873008361 47882195 508375284 472433952 687509477 321548508 858115704 653361935 257674268 271633095 57909646 857402746 950093124 642351938 23016064 194951868 884671732 736979813 838322665 628038236 103375098 296132596 944738576 549883664 786543640 380019722 838014685 679365457 76345345 216568249 546741046 9751763 312470292 975073247 518179293 261801127 768989563 131210581 897764304 698142732 337978074 805205211 783373723 396238332 229472156 679123753 547572149 17197604 510758620 994944602 258413675 174637236 315943261 913507354 940451491 234927570 996347748 800722216 737188023 511602574 437561654 955801230 619130457 54170766 5250007 641484618 989845338 748537617 862267702 699758618 316348827 215500495 233325137 912092846 904502715 597503472 317624367 937511163 757734529 74663067 601374801 193168117 677304375 595840159 592376849 724720560 717864276 912304542 811491520 198552333 525656353 639365566 339521305 696569174 414435884 893993716 638466160 679058751 832457981 361406370 326371990 549784 105836533 815244031 669751454 799382534 82833020 20801247 57219353 534412704 300888909 585647160 634929992 83583584 953374853 567880745 995494057 508928668 317975378 253764861 47074415 921500588 19308231 773849421 221482254 273233491 727658896 241803729 68123519 53197966 297175672 893349958 71181727 259986637 800301983 282996688 143744459 238468879 563342151 378242420 361900948 458647603 133273729 477022178 612745268 36832618 951102795 146492442 14847562 332863709 758871000 323898440 1304546 402951948 907652424 878648649 53532490 915758745 434710821 735829594 406711746 8393755 10505329 392639681 272265007 605254091 826467728 47394512 761117443 766615744 925249977 415555736 832286959 862860209 513596183 521766766 856921140 583325323 923565270 789353899 597712836 419573905 376109595 498809258 872448731 321929948 910171767 19840819 736637161 968872826 277172815 115413649 196105455 373489857 204198411 862445595 740636650 195008886 237553305 759915208 883997151 469067102 787799517 813250786 563673564 678310423 196333003 215050072 472185253 193459213 413680963 438492966 334391 625559882 872344274 535807012 427081130 256329934 855735726 777561033 187668218 428055770 450329779 273913297 488201507 642084435 11979113 730236355 70064604 516000070 160563157 388724693 395604681 950758366 252617862 383018123 232786415 35145175 843836440 262932610 546748221 550879525 375877145 342753364 971415035 247336891 593802764 187004299 106093464 231594289 575932311 410228605 147919874 561644862 799398607 702162135 802632008 729479764 84844763 258329837 345849482 811619101 771019901 195888389 617073194 267168945 331585527 268039860 236592252 336386834 249629696 753634532 950821608 833227391 417833630 447681727 213397570 517591746 477886850 199448018 679662869 542730086 450974246 836203698 757446453 961144482 542411828 780835790 532282778 745747649 418920140 269534114 917237301 578395163 673993737 828751010 814084854 964510855 688923607 427087231 423363406 951319957 725258820 56284231 668813270 732121958 126361271 850774221 478750510 852904976 905849852 830583458 562827295 919434796 261054410 487101702 3033684 576755832 318692738 878683922 310297607 966817619 918849567 419575215 537898826 335426319 750897760 440383246 380435743 34322612 525250529 347038327 41289574 969514282 404473570 956673903 351978413 448675072 427980319 46261207 485843581 810328695 342820664 243009327 47575080 73336322 731967579 950213576 136478938 435804795 621390214 440309584 942128694 337512312 109832750 533250357 690370275 409080781 679330204 324122829 947163328 196768270 94605057 456999525 894580846 984694723 607719864 209822228 979156863 288570133 238306299 559763614 699093612 137593123 429265425 355273432 646390181 936881987 639681840 994363319 925260395 372847212 58820754 887653942 121448378 856373590 635995143 247076670 414972472 939642715 408069514 821124060 636114899 925221630 343853669 461627916 569780869 833120058 437050962 182210276 85609545 780011917 163840399 766439817 709118178 660279430 25535892 110343651 536122025 625879427 67564673 671423208 403039254 545740187 573130553 229967969 476124818 944320982 213236971 364961268 982010607 94826316 325337047 942850856 637225567 254288808 440356355 814529491 241573039 703247621 802894139 629053554 923653012 37560893 404053977 443300309 756115173 989314235 169444572 815525503 425850082 194897047 398162446 783169052 345698550 137889978 700835755 63886563 772106338 274568042 977709771 436809470 581862941 842307657 136484164 458274869 669356102 6978136 738910372 239500027 360620986 36995568 197869010 686356256 744786014 47371531 364503409 165287829 598841855 560232412 934614365 842586266 876816187 582203243 583686259 666764068 443135610 162332224 400954285 463165908 207353894 133837147 75874756 366458102 842790546 694892266 938211085 708673330 450752050 128380035 892789308 641159296 261652509 824262872 160552422 492413709 293299417 363789906 792584493 516174788 934912599 87908068 124972054 961758730 81672304 404287254 299328554 528881109 68776 131168804 20819159 105310672 299365739 801292285 625664080 850570440 920891409 72221487 903913123 167252322 884391313 255869299 305259855 135059822 172849783 481711379 974014590 143863160 41683288 299875340 241672216 791822744 540293570 40714482 910879317 597337721 217051032 733465342 688221611 216042764 776456148 545171868 883714141 201542443 319936563 241237224 229311914 441273370 968042305 99869592 77509768 883509684 599809610 706726296 868534444 304668650 707252809 519825539 169167357 380813155 620354579 310302170 944133086 699054094 977516069 660469287 368015677 35003363 11925737 365170417 947320377 255982836 37294957 888583041 687661121 932842643 305912388 498578170 418358168 952953785 147231644 41797628 420012721 600048428 195495626 646947449 156853885 456167370 312587366 509263272 730089406 575611555 89121508 22934685 129132221 741997901 269104747 627800529 130132365 95250031 593024692 969470437 199493319 943560558 542890559 418689660 604417116 660830393 491726349 34441932 168876096 381086842 471420174 456831670 781365128 266456778 277272531 13014294 813481702 513956928 690776733 27857531 522764244 919579379 59483928 925352976 759587350 487726096 648212910 573541570 374669186 152650088 718289546 620671996 373614580 644236893 909941334 502903419 62967269 110158064 469716251 886958866 777669709 825140058 577782854 733279467 749440025 894593723 11864282 81813995 203304390 324587837 17562011 201367719 456739778 556123237 586199374 211693119 805897608 120087637 390012386 227236866 978553513 173891195 736176425 199048094 984005027 286647791 287969792 440155917 761627719 842694791 653981429 189258656 356605276 920525043 548068768 500795255 257473134 417050749 994230625 70641097 727873983 838983892 31606752 326089807 26007721 590154234 753649664 640774407 14642541 656903445 993790879 542982768 429272320 820332232 68673951 553736510 843735406 951085450 703812611 22182351 148466675 699452862 144703841 649816863 202115030 570446126 316623222 736081267 165521596 920848640 687490627 364658104 911589419 700653541 587318621 506626346 6675403 424200504 900842408 519931282 438309707 143162599 659255684 587258736 621044687 770747299 394017082 309288393 441271570 753328237 771159041 957000108 896602993 956594460 907129531 518504838 937707775 514199330 731054208 827731726 603815753 842253940 161708861 375085589 871004866 170294300 199997286 14941231 955321348 813355442 174279192 569667557 404704038 261639477 311293786 431994546 46303043 722002848 327539718 233810167 154118784 92745103 872930348 556430041 38790662 169620424 950898502 80767715 510319956 853135069 284539958 333068577 9403232 448290415 604006202 690733294 624905378 819875040 460115638 884168803 641479902 291321260 929767007 574838680 752517216 410891768 703879020 826818102 715739377 259275294 61945704 513653484 415962823 815307713 28024189 100787748 205392273 340062351 354320233 150087247 623855636 142098653 426277793 337358567 77196556 632648536 146923569 908726694 917526462 580429482 822053661 268745002 132945326 60867508 479781994 115729747 726691838 627300303 219488106 204440497 258526928 257546837 150439547 297870103 777872255 90644689 829409361 809291141 322528267 682524306 202946889 644550999 55161820 385132114 122549534 438381702 48902466 560165003 311012822 360853328 475421890 422620611 684841276 278836116 256310208 864961202 367107959 223230586 503174790 296836847 797233902 712156634 188135097 835173209 581240929 578321722 267379602 292375014 349224060 92842971 109803308 95424720 971902514 311636453 839056846 235087527 237323562 890778598 956078113 610984431 445393916 739020473 335293628 931893021 46456537 380607722 408442595 132093676 926927837 989269430 508057960 503097387 71078745 738740063 616357296 28861196 368163560 626021955 927576997 963410449 326251820 716066112 490134102 267132024 778913370 220594510 236854575 873603547 38236519 604196805 445409969 291447319 982404335 23392212 664004358 764224019 638547868 243619397 890678207 724364746 811203108 776059111 9119595 616287494 977275423 819189702 688790838 834785126 305681871 957761932 363185975 942272848 193993726 783301347 543085021 437611209 244430885 672990864 462992314 598717590 50972777 79472909 287021372 146240634 715567030 930134383 343192496 256573428 919745326 19307748 764657352 838217777 632674290 515599071 795295446 171821380 426818281 129053130 842168484 33925360 979804121 915109502 143729270 245293332 504860301 397931651 343592711 94582734 75955010 654634430 501762778 992645934 850904899 436369508 34802596 548663850 236320148 856684267 309434123 465594418 228942648 134318096 137266795 913906215 675960052 648608994 609728386 58086667 500356668 562735972 726117429 195179607 623743751 869389370 807285036 992883099 256993156 999301080 388683172 98039190 723968052 547782327 677639098 707092187 686495818 316263934 940750833 275824318 384265002 681672122 384447247 774536201 27301423 555106922 721753322 662299087 813732100 617755395 147699072 784131398 230920423 596824116 235225875 953471336 8535200 418963433 192282598 359518451 80904877 655496766 302101204 434345496 46852550 22707019 326239169 134588274 118250326 379410206 955431694 115583307 38546017 314859847 256628192 261757275 853582875 129783174 801868815 184456417 915420488 66060273 793402872 118728937 966467418 971324676 256691046 349520881 479569880 461740124 652368866 912042121 655594655 765302231 30974617 496185714 458013851 620700230 188018797 512529962 87569787 851398567 743958338 784681916 632501225 387111143 835463150 549898613 932516991 980846837 198005664 845126493 131647832 7474179 788502391 884286188 434619992 910360797 713691159 85390306 369601611 424532976 837522064 857308770 601830414 832124117 322057242 183935236 693707375 737137236 901751461 65832440 78980983 925776382 589068033 981077763 394086228 775276750 610831415 820159143 425239080 730703900 110329027 701783601 592292867 105660915 870524742 249583264 365020076 330402350 415210239 392168380 651963886 890865760 975471520 972970629 72446517 974570696 571651450 476677558 685297952 949978061 603275247 242030817 143549087 790175226 605284721 256357660 583584082 239693329 587523314 790555132 206882221 683268928 712271654 572987122 293829614 621477794 957629011 315762322 183140378 914874126 688775615 765504374 194492635 155996838 740585840 875035676 528065495 287604340 936136977 458667671 342222892 815754617 30305868 767673777 569811003 391368895 799136219 112404744 228291393 234031776 126830620 707935122 732822225 583303133 206935666 921044292 501694773 992530306 690203035 450472340 496033296 594156142 26954924 935935030 91001528 539629032 406194609 34301771 316969466 162338655 754116702 873588838 74913556 274210422 600057313 349442194 960435432 972772887 236093893 128727495 82622814 750217440 193395459 215330585 667616892 610858731 258419303 881627702 413085906 712422650 398779609 82683610 187534539 168385773 286169127 809040628 270373531 55789507 35361486 804660679 140435192 24028990 421316016 98503975 398142407 844043087 274703217 402124827 561962546 667410013 458845137 338251776 691306912 346589029 605001060 342229593 492710830 266322274 436902323 859433712 871663462 170292257 193184049 310961759 332835097 336966389 432896468 912851300 422671238 916368901 549042913 571349474 551840473 956633624 934727750 292815400 860014721 764929286 708295707 384821164 679523773 147536207 181186576 570278146 111440635 90458403 904125412 244035256 692247077 753514601 961473551 819132721 226825587 330668964 975597120 287452060 841018811 77095428 630812189 884813026 700769376 664910654 799832500 699665366 173909914 906707399 913649531 434233855 881059070 874784920 381067981 297119572 882796041 821151955 310640000 349664596 209462187 768193630 613801737 919174504 257036441 156420938 624412097 404188830 473964984 173056451 365557136 927481928 352455594 997688280 682659137 252364047 685680597 53893390 224995349 480574122 779077666 511315258 795395563 15867890 744529174 912791621 548180276 616976699 503088124 646240015 212062098 837649167 954468527 71755029 811155101 405600847 783789467 78437987 497003380 931710020 971413114 519142902 370260657 999636787 813654624 632696962 529889478 367414756 910257217 693729826 583346973 166962833 301309588 526433608 6250907 662590578 410656910 396995796 21320497 383057474 629462601 519266779 961590893 264125962 184999444 331324872 716785442 128029975 888468916 770474807 436031677 531578350 187988658 822524834 395102971 223570449 110386557 700329498 203634577 139476279 958848114 18688487 84556352 20110951 938244238 51758065 559728464 444186556 304078241 671194370 187762641 32661688 733260802 748981747 945654350 351627822 577344559 416457207 494614263 930654928 792049983 274598668 853019599 633576453 601050574 145279302 508667682 988130926 445958923 613517421 471067141 688650577 33555403 496172756 458474763 424432196 632061580 242904936 710198456 977820815 205255502 547446960 409564060 611114152 17665722 148841270 735041158 41671542 123775560 51544800 968377861 729056574 105603107 500843704 965332164 316703891 241574212 830254218 358964101 921766910 55420359 322022094 938905738 76659981 247085395 635953354 239581017 352463564 974273238 661212875 798658385 835838507 164285510 53522063 348869790 499879478 911231449 241550289 163385380 236777036 400984488 720462077 520401187 786105349 196901817 726281922 630229719 863357056 250173215 383927816 828565893 281593764 267598703 121955768 801306162 369646899 765497652 885838490 601359766 295164582 880610674 802498188 764694691 914679385 805596190 209158993 355097396 723679641 764532121 147143759 430354935 942267712 265305235 987569160 253098331 116709532 866942384 629218225 911169200 951328103 30661347 810311370 640180399 869285268 263462867 643575274 704536126 22249096 370142916 108642697 472610634 363966608 807872386 174871841 593839633 437540027 467900199 92654785 469819426 693546842 763495486 268950446 379292323 825826356 83662486 437038210 377942964 809529297 168695892 87870213 476181545 206437173 423385927 548666452 563118446 62531626 373694113 349740558 379016537 28263348 466896886 827601999 632378525 487997219 98239172 678983691 25612141 25919550 829375423 891388747 496655845 303910724 879475107 481995787 525923790 150308099 717352592 411282654 79275984 576411359 925945058 944693276 112058888 79395676 574783373 274988213 899335427 151154128 327908689 27656758 92202973 748168651 976412474 695644243 921111103 161973073 53949584 371177139 912227656 451595112 619594047 370206299 629481279 770736441 958699277 278867642 863209903 748258253 735509032 298435953 468763035 392319959 736838138 990267801 101195334 253494063 11310758 137948622 894393085 150380257 449000101 668092568 818707810 875325483 66423958 197626251 685198151 137993577 887988902 100136313 860631487 979622016 424624387 559662760 63700319 496766688 952514702 442446803 555800264 120884148 500891193 348532 369567208 223537931 662837289 668350856 717141518 178099227 148963813 863113111 561673604 793265690 181243794 23009745 928435549 118718316 957314571 737849818 190575934 878185898 61571479 820866667 67482171 543041539 700277061 666696509 124200106 102582600 703485489 222941768 629151577 380585990 107570022 52425780 907812501 235656609 544495818 375728880 424957881 286461578 968965694 996412295 843831416 455237699 799888093 997008014 720504580 466406030 382951837 535551782 475683133 889128862 478726250 203655484 199939593 224146758 148289166 623404999 621536228 977343280 673845638 110604950 287689259 488784166 283529300 123623296 993343598 563774553 807087455 736425117 196123591 441260541 521764355 93113014 852151148 889182223 726767815 872751266 170480102 278363965 224046148 370768207 948030742 697183129 268994403 387121783 292004475 199421664 591811354 399195606 728915335 888138202 568487946 992412319 240549718 79565703 338698804 614889336 202999749 274933712 504321996 421804899 329187739 953251656 796798358 39309988 669864777 34839360 263719923 331193643 157748654 248467499 791086447 12217559 960135109 577014435 501661273 492192109 889822407 396999929 524701146 656619450 206982556 400371673 907729632 893712794 382414862 632674825 596120955 73392816 543367973 666009706 665049590 335218811 214354036 467107246 752606490 346794459 934855630 706894501 225461078 721397457 452117289 313054204 228206667 26915276 81732167 300812655 782169523 419961200 635348175 365498425 199419408 860322606 934403256 310407968 472878459 888773414 626765690 550726180 355716358 680243950 339776425 187330256 756050292 609816239 199474709 849167802 200369388 498369342 199173857 49653306 225376250 324682876 144872472 485180680 97760885 788995615 30196790 817869872 436705841 583499269 732895728 737916277 204056696 736201154 334006232 923117892 447860299 473255498 260401814 17205408 771921013 886109281 997924418 119783025 101380269 946440059 323323792 198453397 535209837 219263196 630511151 510193242 955347596 679756109 183967305 106394861 273366772 911704564 741804456 136269409 413802784 429413624 527109406 634193150 519340254 132491158 428828696 388758908 879638621 505391025 410587312 541943809 493797950 496987071 538932831 159766504 590330381 565187045 733917080 907284583 559861359 636337610 246607537 842482516 908378450 692727741 751153421 589675090 117833581 188216774 514000836 986555242 275110300 948964721 178527126 742323673 182987552 471672 354209374 408813448 854435566 635431154 558952347 912912401 579651086 534466439 525601299 531922798 750763240 164025571 505704247 769517720 320142855 767816354 984242286 670069325 610613541 923551857 107003165 224947031 783966866 836447072 957714631 988171791 939435964 262721452 614245831 923211230 478705337 265016904 400039272 663725751 704811455 720707135 469092382 889253685 954096777 948664783 11758088 222440144 19676898 207410625 875947428 39596521 490164379 177736096 890356622 628146687 111327733 534076998 838381139 825461437 935083306 388241401 927173795 502484745 239856971 605650809 85571763 146569067 51745579 396036706 301874560 443114544 905253006 362620935 151816564 277486561 845643814 156440864 901421561 814078751 639053671 174691399 596385574 387300667 491323085 598214944 95307207 937811404 86516031 776944930 204539386 511057537 487713428 364844442 632676455 724759307 118000947 40858794 324223155 188555111 338025188 901731784 998125218 930996419 965837109 188764190 904255754 150602755 789662431 808378500 96690818 670619558 568034882 588055809 25495517 275517752 796288492 639351915 718803976 499839074 221500195 59569364 498523679 512436002 519118062 297439588 415931266 328697188 809194894 643138977 566451767 265832873 552259807 390179668 584146711 868748621 491840085 399479036 384168442 524288829 346192335 526693647 762560098 529287710 138189675 429932628 19316448 973304081 804833026 675643713 527105034 792582794 627918954 868538322 637143688 593732787 101686788 309604140 197878795 522582648 982519307 223188426 663305862 911140322 335747537 312806761 3838372 663949070 488806640 16964669 65349858 199958850 609956632 441589106 387900212 830136428 8521580 770118613 92454192 140484892 74153787 985540410 546694296 48038214 272072283 293576560 278717589 403400360 800153188 10251339 617929990 328064579 302044272 812694194 146635134 803672184 897782154 179184873 496533512 162494868 681622002 892518797 315981679 466125764 795588785 337425815 600987953 544065760 227545408 650308930 651461084 405437649 76166680 345699690 185155346 622923871 98581465 939446146 242195268 683691718 652372688 231405801 65643128 773227557 898802192 815783820 401400624 162007100 836309104 177645123 887940263 755648251 43010961 842070579 903243843 2715201 242843476 566218271 465725951 476969859 7272027 513263574 766781376 150753753 923598830 564900170 273180825 790445110 150506981 497677095 624310544 84994712 381061478 113354019 876296788 382842287 184365452 582416163 953806202 58289206 413085716 310132181 465871465 25032197 250399466 279120985 524378505 297646105 176631892 493567910 916492554 140618080 183558617 235652884 802148304 900895572 551222299 359106268 463310975 296556546 88532106 795375478 699290129 405403830 181588148 149671892 487360334 42450855 460713396 384358312 906864895 128968527 234297965 900126184 729482636 446433446 658438900 374983051 427728659 17389277 173060428 816490638 929834602 245125131 212361818 135274689 914131479 461543650 241606906 951213256 42993052 545288886 741651555 835417856 988946799 939083274 178375224 275334916 111512118 249137984 641928872 504520320 150553863 533278718 890509249 328951958 191404804 595387483 358324257 783306450 4328767 522854016 453020558 343800496 731153341 841135179 729120762 74707920 737693194 766391355 413773629 453528953 180887942 763425756 202200639 222778596 745978316 5753916 42230123 754694930 744424359 785186587 774693883 673593119 309897814 95529851 354092374 834605878 477086516 548799802 376229435 381069670 620763915 106687504 911409090 64098374 964299365 954110906 276099039 771041048 424315689 292364771 576965026 62719237 971449513 610809443 144898141 570557155 476841902 143980201 827515810 455328643 991872609 624263857 575177563 205376750 157809998 337680934 926902984 83024915 393129476 186409399 587565691 902966564 129304908 776926678 776974115 674431177 270571559 517272859 11429434 449437361 915415333 111043542 943301820 612888518 168825521 580020168 671123937 484208239 107325841 546662123 743186212 874544232 454617528 801705112 957968482 701188617 95363162 266481735 649470346 712014073 320350993 797430784 148655386 717510177 982610705 726265365 853571062 82633705 588163644 173849606 540023948 172719296 506744761 514314675 172561293 50729840 601598945 513799284 470833101 85595091 146464995 904577331 410236105 113175422 545409720 712186945 252407819 93076395 613564199 629836332 551822205 370101458 481149726 161324753 137788645 928497464 756286013 263494437 292297258 45920405 561670939 421055124 694069316 800812489 683281189 805435761 484947582 940881342 991610337 59528876 318306673 524079834 290302203 116496680 254384935 856817510 996265286 156600669 298861250 967988235 314988279 822259449 461211633 62960314 756416702 477248066 395714887 461908714 779604923 386597584 471787994 803270959 896691511 669677209 337075920 432518581 500376301 84763290 836036362 503187800 105714422 939123590 627752946 771770481 493407630 96998703 929075067 952189219 649065470 820845101 760800982 690655547 477478407 996801889 639938373 510672377 69076246 724260437 655885725 427560834 81349929 727546430 143488500 53370062 760519785 938693298 435286768 478919936 718831003 282230454 96376296 703845525 865707143 733455673 198331177 567055796 22192162 830259817 708059472 330447749 501722228 413831274 941143991 835324994 861708674 7207790 495149517 334860859 968069274 14165198 63316287 96870327 505627938 998889881 891332486 961221813 813841628 262655878 4805049 389567899 504025934 598001880 180766515 42687051 285723462 420160385 853303046 960316329 394286060 40947618 175933456 891973233 30584844 826012356 953227567 466822359 406680904 447509220 127617576 7180652 67761478 616684334 520611859 260311367 183818227 327331259 127434942 305666225 227999634 532057423 593810808 453431766 754540795 243427883 886231359 780238147 915994980 814514936 961922633 708949642 982522782 532492619 450603135 633414669 452803018 122098085 471303783 867305729 604063482 847269680 631865281 996854290 608808200 707334564 259855310 137226670 742886810 195077147 714812955 540081029 713949514 778186591 330875538 483720880 147526395 88253585 905285332 433619189 38876943 403818848 975779599 563534056 100291417 56238008 558367500 986375104 298405913 149167863 771629514 911417071 891868610 254677260 211723421 165494597 757024637 770133963 217707943 514154822 982006402 828462073 454115960 738643408 216245473 298884469 962422953 626585198 585263623 257816127 158338402 69564026 483780685 232204198 360009974 17939133 517576323 507522699 23949863 582462790 961645454 265687556 199452267 164107430 648614199 505097825 227428649 702079712 435009972 434996040 185711626 121604924 634901088 108974011 736510518 365807501 315825189 312254375 200268526 509665299 994146806 198885608 114007461 700645993 317487451 327160447 574110042 412592553 40858448 50586564 869380532 771420361 995117902 642877915 653797054 571243418 65416520 685855281 722988584 326715511 95831924 826638368 996428875 650144077 783280132 164615708 560539212 217310356 902983729 93026941 842681690 249063263 653013961 318916543 999984457 253355691 39305314 193066974 827140330 627489284 441268320 845147621 956330979 334164957 157556046 396579047 460071637 695391944 830929409 963779702 7700409 372751562 561437470 204159106 593830540 383408016 96556356 309832714 65861857 732198542 349815426 700242619 254066688 346263486 151290251 24591223 679723195 27297771 764660131 533188785 887517817 426342495 834958832 979629596 411946165 422451698 49268380 751438609 74245868 1061833 44547134 48991031 222270786 873568765 573851888 213272419 470421946 544287071 720358468 853985216 448557260 865687518 326227663 722033789 612821827 235140229 866054728 942451746 686220573 419506341 987148990 352777434 980052956 268041587 900435264 146358328 952721972 170577618 350283974 732167757 675080604 119234514 762492427 512906060 841558953 171219020 873306310 968909878 789084119 551691200 526583935 300375289 393261991 857818659 181857483 343498065 885115814 263872211 543346381 642425411 160422110 420505765 690308268 752748983 813712024 968771429 242862881 57563854 187985997 599393372 598163176 492028974 540257987 575384480 716689414 584870844 827927507 121786938 524240062 625944628 125175044 868403903 629639531 546729393 57748680 80673100 295698598 785921738 710031997 708153057 768397556 732481713 419232638 226417416 482397822 842631403 793050926 148326461 397102332 422964076 103436603 334919791 377783287 922900971 247428023 840382198 213685370 710701905 103016677 81986888 863703704 340895395 723873229 861610978 854801716 494323920 448910472 657805195 436355318 194816763 763181558 627369604 665210282 786145661 317680248 312598331 402225142 589536559 81942008 124866376 596149364 735116617 203750352 290179225 895719765 934748525 427602367 497712608 716479040 313620548 94709679 437075251 344340529 719497729 82706560 971042320 590781965 83776438 839815581 51048297 603386856 199534073 226854674 651810323 982047658 932528640 377573950 172385698 401620315 413708302 594295968 362599062 173007866 962865138 548377567 163471332 963382795 9351924 257186440 530102277 848503145 970815421 959773047 599943857 22359718 859465287 630365499 914370840 496324599 860757663 953545584 908174205 40678206 510222577 379646134 905954647 844957093 3041843 809946704 346206210 535147933 243743495 173397709 164612855 506006256 589507048 242622196 359245362 2542036 286673808 269160970 16689185 71523688 16475692 591296225 160093585 57448156 66315329 483179351 367579434 70714242 859208863 939615290 966930598 4204038 486848490 943603847 479796461 278072947 347623173 267056033 313981623 443249492 997322081 72584584 381966543 432508221 31676381 871919954 953079452 289263653 922833966 396137589 446144987 393859863 277849052 830757087 62414262 227235326 35871726 704197303 98590701 17864874 624201654 304994153 184729704 533763576 962390828 365714712 657967517 761755210 597866738 783118252 290396429 789993007 577946918 774473209 376380816 318020734 180818858 775369336 566278580 567022724 471234690 146828947 814624565 174401930 620534795 631830588 474374779 924394699 622847519 309118395 161763105 668080640 303749251 908269253 85182212 256409924 699039144 663375544 839915908 186381723 688184373 615665737 402837038 467533433 782020950 768858364 940745852 878024819 364973455 628850274 954970118 505447512 922441192 337020099 985295422 907618360 755956126 754104178 449350906 538158750 163466101 459969135 866773780 993631337 34609542 60437528 196694658 671227061 831986042 7708347 7607440 657726942 683708451 921090585 191705660 418408466 33506236 566311754 763500523 490947319 680836541 136073589 749256667 517431685 725995360 285182735 959186394 417876008 305849804 593306083 125093954 341718521 367194799 159720206 78670268 993362036 384173136 583588250 462280204 208848189 319445032 383700732 723759139 455616949 40062233 63428770 643787319 427820628 161845302 220527271 462631246 616764577 9797614 924193463 871073118 934815788 246043950 34499786 684362868 576781247 595713795 615819244 35858672 54643955 429445632 584079431 717652822 606821144 604291280 649339430 919515877 336022973 943422232 559341620 781478051 845559635 569703815 92070336 737499525 443531238 220094046 353419331 342981639 613974112 955043591 686039827 130094571 348128667 610904588 321596702 30745867 397035667 789034285 60767614 521061355 138364038 359273435 135219589 569658022 216993250 560501678 386337119 920805224 886324918 349210788 560865533 730078236 270571776 923586671 295411032 439441506 771801564 442875744 632280968 224967595 736688502 77450605 594780707 543911811 614766834 141053291 693975588 633881416 95561132 56092975 182242058 287451153 411857793 204720567 103373008 440725225 696703724 932815069 128645303 802473015 752125848 501691758 799591364 257038612 875219321 929355717 776070569 606201285 222954330 677771937 391389262 270751936 235368232 957311397 474036392 318393102 406250069 149500969 394726000 866423319 865923571 308630421 421078475 139218597 377715467 176711446 338451173 82788048 364978336 800466518 456832747 766441087 186573546 484586413 149690991 929949902 278214334 517739383 368410588 128296139 306308854 397270836 44184277 282960114 649792840 990761826 715378149 469517540 716461826 536327334 330032633 628317841 426269102 718127662 732795945 919464685 267874617 84982628 320499519 224250778 868790827 667926330 225273186 165553262 63605340 969433113 508510593 625404235 642100347 448994043 734192840 761072345 699264927 107917644 161547391 216787512 719569579 156658141 654539011 502943096 576347723 528024179 868179793 547063834 937994046 867929643 209991559 260377353 619446531 333396566 105598132 889130428 969074657 735295573 864024359 276183508 631754810 307020113 348131625 104570751 314579082 917370310 48470346 223346789 448948289 636002764 223816689 510652557 349190419 847748859 300934987 800663722 886490273 198385859 620374870 93808286 438281044 567758086 81343963 745796932 656223194 177711981 745051443 136307481 47412193 630337825 379556025 507827695 567357243 22215959 168204165 249402612 969900809 566455203 840837399 694946168 795721219 300274412 783929024 693656394 830894423 32260254 560343231 466645565 44308220 228741206 888929670 358207873 818499230 615835768 374078546 958362319 840191081 420209783 645472628 318095161 720779833 454289083 65008689 64959306 655105292 379613520 810346693 449736206 70860002 256282214 583311170 310942625 846325079 2654921 377621208 399596022 518751471 237509533 50605658 50176581 796002433 3608334 445768158 1038202 993802916 870404620 985292977 953952848 245438216 234885266 1821077 7549802 316652890 843112187 118222972 345705935 708788572 127642906 388987208 48180527 355233681 194117201 628242121 339703620 852726365 921917273 698854905 545390394 203318706 177495924 426330427 80800808 512712887 777350592 269929300 370166634 875487593 956627402 142851147 794160510 868745940 839928593 99361274 454837677 85844164 894522325 990194089 659517523 110125096 810118727 419778503 983598462 432259382 24970776 530478947 889253222 727869125 277322899 782934033 540387349 647887212 508208765 862226384 279792941 222586943 814107176 491174599 962237895 470617544 908474591 275557460 772986322 157949967 387559760 329009668 285372522 263866337 556155168 990863961 531288087 941586437 203279528 615658691 430838780 83126815 819341115 123637910 298435603 194984196 892233445 352928961 853196222 549316374 623844843 78137638 892788745 656527429 419256213 537167553 51920915 384572965 692063967 921938261 600858057 572077813 37368613 233409814 936703392 844246211 117828082 473957906 908179102 717214143 185236281 755048220 983207543 444925404 758083436 133118633 808010508 154615500 523671799 326913350 525355205 275694334 581441926 687142773 204930050 867059144 429158460 572824626 206972858 758105261 309125936 915253154 247088019 215093106 266743225 660452715 305557656 499316644 878386 515513850 31549484 421731116 642029231 518069569 692869509 456014941 495340134 482266466 256699216 280296625 963128590 730743151 650572397 574258367 58522601 637713171 304457169 297259140 818557210 860409426 56997401 276440334 30875578 701578617 533586114 85249250 899689973 600532691 896930999 782318576 51810865 892383026 84562319 43411480 309640442 306393690 97541508 777458940 564282694 185494000 850358610 919836350 529544602 605974166 483275608 918097023 413205836 926971594 781491296 870160907 410074260 406390083 533833832 59193153 122660466 37372557 952640367 265563625 538945707 639761650 91038584 738628487 964185048 595045336 716834086 661555969 467024105 342774357 362534619 62065736 905739926 825692958 632432621 813496545 554145738 565423594 43317014 631873062 321944587 629884945 957656974 1404356 171140815 752479727 136049642 393373586 22452463 234025538 870232081 75300448 679621320 67835774 60371128 944643007 822421949 504233946 352547812 304840787 333955062 156889717 402548188 864846892 555105632 118354541 886472869 120941184 465059807 37335589 193971998 670021625 492284060 195404362 206975932 946828311 859862792 339409593 559051711 548611074 29116809 153382104 518767513 178324943 851364733 17126503 333083078 654666118 73464905 976509143 69514650 215437830 688150551 72592555 175709934 989458131 230335172 935424837 618693058 471012915 777430109 834284438 447856400 247996679 239623653 218808656 946194142 518137265 661153563 955199438 149576735 806182961 896125221 49079730 931312771 746615667 378187461 530426630 418992791 201821890 534349575 385075934 289536802 217557604 509877531 248256683 355750204 789928872 539560661 132127446 827564782 249891061 552406614 283372417 665518583 102909951 468902259 275584322 717818581 626998651 642590598 173216661 581383701 754159840 791591883 938680437 554378685 33833856 652775427 399468415 120445766 244392388 95445347 265449710 841826518 779657007 144802534 458732506 48925274 318930876 739230421 666536233 648403572 116329239 540510858 995286128 244602658 239320355 541949246 356070413 695737292 983203426 663130862 274774014 398165983 667798221 999336248 234081030 375591885 172045285 531899889 731262935 94662068 655910762 362615543 233358924 270520999 33095560 764653211 70097038 805689184 126197377 667131151 439524775 99697265 808205720 828839272 626103680 910472743 622410134 503594758 76301210 607088473 651766059 83068827 870011682 977456332 602039128 967564013 823482175 442674700 110508243 875396016 606627173 83476603 504796632 963483612 445711646 836854360 111889565 52172682 11617913 755084775 769100409 267781994 974045581 554026822 953795894 348810798 704056922 231607403 417102834 287364539 60084008 484950462 349217384 647856224 437173640 559894101 992144102 185068739 605420125 459499051 146061116 504085584 376757447 419673753 972777935 899688381 781883427 496016169 113608774 13866176 578526115 613082927 219643637 290007696 102972009 298187776 889750463 49831204 490861943 733700594 109843156 375809962 843827217 337849188 106718427 550563508 531712656 762890951 24189177 658396959 530066391 272654644 39351388 973310577 873947484 866708016 396095016 881334781 785680470 592373795 478317132 283884399 783516688 128736502 627015256 605470408 974523220 70572857 929772498 703387096 749385232 234756251 314227179 702399940 245179029 44774706 982467876 547485785 227362402 365011253 600924081 217706741 235411116 790255215 745554227 113271236 997681262 108332346 188571104 539577729 565679424 24900750 19874809 78304130 629302624 51502154 245623186 826647126 791588633 622875386 39671908 823602031 373958696 21532088 932770650 24378385 798673675 24537620 450210570 46006887 284401937 773539089 356157677 522625273 223559684 84217621 652897111 83071248 571282531 720652958 558089685 613272390 164112323 935840561 267141549 892767783 738980730 289439959 788033875 963373157 899342988 161828998 291993233 111023212 768865917 369509559 175997456 73062630 762980871 252811724 46268169 854147712 741168038 25574176 714393657 702624830 588630834 414854766 485203798 40212724 653207689 644743475 820244973 950416159 510840013 915081010 852287745 264301972 233031810 553486564 451725833 706327955 963586385 980418120 124027580 117386998 122478883 426955067 137849751 974457618 170875258 544281246 100467260 805342571 176535711 962265920 874391739 870820156 319413918 480417490 995212519 135373246 711677776 746671318 766593097 193742380 889930055 180554946 190631128 931702591 9224884 787912597 61664640 552873550 616264453 733658865 201903103 710637253 816299999 274204335 141028976 435548430 123168196 320798147 975780714 413623788 705285318 14281901 49533736 351660230 44452652 649100538 555409989 618396668 833420322 822911752 205940750 548988714 371248431 756980768 552103162 112223060 642238898 126776665 783878946 738586700 541335572 335097269 528070836 201543933 571190657 431033351 399081302 232051690 432412112 209749741 171541009 449560669 767175560 782417709 289950211 403446663 721829461 81066378 864458434 638502353 71140389 309239798 967701033 79632884 621463371 596863030 275098564 999912137 531565549 334479645 541624247 148734463 782199600 111637843 104429668 922416078 24741994 844218964 542977841 189079089 92891666 81648685 747019291 872403947 923893013 262491642 744810031 538482744 616819345 913593689 201154966 299011395 737306118 962488626 487873248 173703286 521719192 814400920 4507000 134891687 523573904 633802832 650946346 362110706 79456558 575949014 477044273 341815101 362959333 266504068 102913820 148804018 530565371 309075824 347028742 461761314 387714425 457756664 416616926 668930245 497505300 839970002 914249201 816906677 738278591 771463349 802298795 759652236 297135150 345374222 8287188 923054548 679719418 222810593 610462482 363324983 297357140 362814946 513772701 845572624 751001857 134406151 1939468 694709031 425765683 794369347 224335659 410716657 976527007 600741573 253123445 700325811 974912001 256265301 290225622 430848600 570354284 927797986 159425810 6196651 666645224 636616085 625747055 581458418 180684750 594714094 280190941 437143800 355779557 842038645 520777379 452634103 405493998 127660051 96406194 294013850 250501268 346885709 54860900 476340600 622366923 40626722 123629889 400512410 883821022 397327668 438937429 406465415 620611214 560608947 914775021 111666196 26369702 223549084 408353187 987646431 951274417 310411320 380225798 222707727 4228425 719951097 335531464 354800589 307310789 383589264 989403062 234388476 55254438 921768299 618723466 685832413 832706474 138472145 151823046 559732298 495493292 952895961 654951876 602550446 839887579 352857340 207137407 368199323 840415197 366645407 393749975 357457595 804393046 103027288 364196400 144096700 334504166 603411726 869910168 623972061 439490053 359301784 386337618 78053935 177710000 514963397 654456841 996690678 799548423 705537656 940513957 889626861 308560580 336428559 540835686 984096895 314006808 113771133 419292876 995761982 348920207 133767906 919578731 741507951 620973525 994987344 763421118 532794338 583198306 840015539 179005948 204356218 842400425 639670574 949421840 790807029 703514576 869924174 518021694 383052087 943339235 181910763 800700479 646518984 766284969 381024902 605679308 769260726 319968472 802351377 683666426 1727365 348936896 492446708 215699800 584454084 715117017 640418160 609228392 937083184 865007472 415271127 430003861 227054854 912159357 619869844 344592134 778776327 622788033 885864065 624609992 953992235 387877634 840214801 308814688 48567841 973146833 253195515 119879995 450130442 412091216 444239481 784181947 189321604 545192954 88751352 453311302 819964632 845995682 571126311 31992472 316186215 898808548 521608722 761798996 726121937 236045937 483107289 6034207 317120807 599952282 802528141 634070670 357738187 138552292 940358994 408016937 360817698 108456008 210298777 144647742 192952893 882532940 387345206 967206835 845225937 795298906 659626398 998003928 995339950 191222735 872451724 779628765 706568308 428280190 696662477 900439313 32976159 110976551 994744646 519853937 461763969 59568982 24357329 225133412 216357419 453111781 3857944 89596216 159344045 68431131 336695568 224122805 843907146 271453094 14028103 379050250 947944527 402592339 57650244 766823750 65100465 877545524 885281717 498038648 715209112 532223704 369664264 593937579 546989582 194210464 902320374 252343446 436628263 597518011 64422636 915522891 770974825 785274712 785503480 553965200 667305391 504196747 375588537 979281524 431793826 1764032 10521169 120844924 125841101 568970734 86688123 338618599 725075814 672292019 407133523 411260920 583353149 555508491 648712683 301392215 949851661 194398083 300339628 295571828 609505394 74849053 589989496 379039944 995371016 299627052 398231004 360450644 640393600 274611924 448133443 729839704 981764669 263594926 974926679 290130491 365449698 516390122 229475201 115743434 387184979 301597399 581353196 25627444 81622837 733305880 741036238 299150128 174597642 470570146 65879313 531352132 811678451 540133881 457259492 46082880 431985166 342645532 943708084 281612550 38481111 986489322 346181880 855933806 203042457 342380158 798481073 814606011 158315245 412983807 625497223 487954835 127226338 97962955 456286079 274356348 211528306 573213079 732756777 669788469 832976160 572632178 332430976 802930727 59124304 58598499 890866357 894894261 391762463 311117286 267320510 697508981 7477076 627859710 998234398 385113347 538783812 498278262 262011145 277931736 254331033 295377824 737823266 452124964 895399276 914862119 595465892 625702977 167662482 693958762 926939638 745464026 965594009 753191583 566607530 767517898 62769290 170540168 122641112 867434484 925207612 121873094 870151910 904579333 590468186 575450279 913738627 469798694 460149264 154393277 289114322 455212324 524620706 82341860 296587605 414376545 971585846 655431197 52466224 690774809 612889278 318321923 286127116 119072574 166225209 324661613 853670511 181149936 218916751 583738769 753439443 691441848 750891471 251287598 310319678 971544436 298434262 176621119 677030853 526587004 838041534 753420244 407125417 939675204 244682207 179297039 609370023 712426075 7623950 890660873 110723061 737196713 524387409 533836769 673119692 326589707 380222679 870170997 471353896 732507391 965672444 362105145 518128590 333497916 110959673 686312591 355428346 591762971 134669115 375902543 798163607 709672440 77684341 635551509 895989838 697026793 463587617 641043900 943239878 499133610 627963537 803023403 811757469 284864413 481600220 237065948 603579155 377763350 951515376 323008961 347243853 801636857 326499695 527801206 196878070 936718122 972593808 904743070 78079126 227857618 859897582 25059815 228365739 489885928 468328073 205592954 984035010 243490265 968173934 125848384 869213650 271126989 814841448 870061284 183295372 234482366 641059425 637487845 945962669 60657974 400108419 299838294 720733453 205144695 543933140 507964389 553918659 383400803 459566795 109183946 855836963 741458787 249047191 361000739 555886006 238395436 166408381 622753909 421385877 895602575 481833124 605069327 15539149 180127401 851318211 604567500 621507492 736945324 364853991 380124581 256783540 109012127 510252122 628751560 685769006 516015825 464670039 520561710 240945110 444394646 243223306 476160717 877964357 503669722 193262226 357322190 825965155 4278427 376134022 44466849 45625004 968905042 572966133 366390465 589638279 875201425 804082174 887814171 443539004 515448050 283802629 878964937 99900253 649862235 167893396 60334838 72230441 127331844 814401368 90201988 992105176 5183909 887894579 206169849 23358384 215971110 271517059 737201411 283598003 425231882 778025742 348606195 981570368 135882073 9818309 123463693 258895567 138938891 607252698 699405479 203818727 33897789 616047347 948398264 183078579 191456508 837434467 393218513 191418798 557256082 896691258 302535608 602255808 364376772 926372275 959345819 890083366 778663694 735292828 718890503 901850982 617120583 646015873 247617357 918896235 82852304 970383616 633302900 305592278 940036157 994726696 626373021 742328463 656163250 15806577 966031506 304743034 992981392 25486081 573203343 360540305 781050854 73552067 273860560 354107085 800292220 232319845 796989833 231552230 414283220 944510272 891410008 558473335 92904958 463691020 804744375 34836759 781694846 613158673 962808129 6046560 622999818 875383323 774789316 452138335 117818779 963103822 153570646 458851015 462304777 164474199 715477076 548318908 216271649 160718299 661911262 110819336 878722172 991201014 596047941 387133649 844992726 725215337 847701774 779130924 540860236 637068656 627194658 217251727 559932668 7352383 970625815 461011020 941695831 505252824 915867655 770676128 925265980 111999271 336501725 419337137 791081367 559877285 240118154 818002117 940580416 67381687 348286433 709706483 493077977 965003122 377676844 785058415 406439357 278245885 687770198 994263614 465790971 628158543 944596798 225618133 731118385 282641692 882959227 257006557 136704649 315102628 43435423 486998062 584327497 550620974 790784883 631730328 133831608 293903069 190836520 562941868 247244519 245465202 981623018 566579669 473803296 901986075 792891651 741306730 297480316 350494889 480084248 971931617 575089688 714628995 477111507 577365150 842563592 319013208 140606000 710232880 868348089 590884659 661524328 642079368 626970355 116798896 592074342 631188827 370177947 761347393 729665372 909923843 865472528 929936350 583811488 895782586 885150707 2736800 191127572 82679202 68099104 873588476 321891942 784878915 214055266 733439046 907733476 194222068 42658305 531206695 976404891 513759388 67492870 471889461 702129915 804984112 993836454 580713313 32065728 814593067 553643898 392000558 234399041 775865953 168770988 821255456 320155239 584446693 816096280 203589402 289511525 946470267 171660121 664982064 3287158 641947567 768909727 335868705 831286813 983643713 155259805 846733753 291379643 409924896 745693281 480678232 673160468 301267828 867327602 156610948 447386199 149297621 345447929 10291600 209352125 485788771 272413994 393531662 681336817 736095235 740149026 784613438 246018344 947920336 392593548 370609771 9864514 857007821 567172789 197742686 391233581 806885158 786612741 435614124 219744585 116140778 743878344 243623190 353558486 698233337 999113946 925943735 809650972 960640395 606720510 503259572 230423846 403290979 201882574 121843537 784175181 384674583 731710347 160224444 303531544 104179413 400958766 284544674 565792580 320006971 119094316 850677295 851020846 717474024 365046628 49217847 296101608 517046433 773599775 260708928 93376669 167027855 964409652 404547996 488394686 719043249 719653566 889466989 364717187 94849676 398029796 898330936 356194758 267211381 801252904 130195800 950863744 963528367 642616089 683723453 17178662 902227659 901752055 146466034 984568203 913463312 923909163 713221495 780697078 674746223 626189208 857395371 491539172 571797952 620507216 275571973 172185651 646952391 219750542 365330998 417179472 692745011 968373692 421022998 884434174 618577656 998673617 325128056 386861009 287440413 660385073 644991147 230943924 572601159 497943311 544172046 684944311 299242454 724942406 760335683 932574000 420984913 662411334 424726729 40408067 709176717 359021424 854046554 22663576 581558842 152043786 56965687 381804956 740974047 943610086 606794065 98547893 118488077 887174445 669136120 544176325 522258815 78270101 13319468 717632652 439805349 192645720 531679127 107111666 20251918 326837964 129620252 649748619 190197806 985591378 352762120 773256224 565965713 744161484 485751230 711794959 193528983 76875764 795483579 349935554 521551999 259115828 522448733 369466105 562976626 201835509 243533750 836494255 103718044 589991524 880060779 506846476 961161352 582963680 404936438 917443611 99834944 810839392 623151665 44807178 187079091 209643502 288983441 180755629 545657779 375757955 724961014 746903527 415879313 94357878 824364189 600847596 995253711 820126896 998120996 972381261 954315557 308695631 469218151 154977307 391610572 342350412 100513269 589807331 513884590 75198451 244080556 936376936 866785317 406647011 428492808 420240787 498415204 241348528 42073746 811552628 173600717 605782558 644699834 503355566 261559505 801908713 425686920 896280069 807776978 255251672 410120806 416672171 519278112 182255677 847039159 235784726 706760197 565462770 657719182 379164588 13263395 906964561 682100055 822501073 904683597 29616167 328875994 898276822 208358677 702510606 884520242 372932954 669024073 121717139 536899417 146246750 530586998 951703719 301264209 647943509 779733840 561771983 197724756 521824162 456265032 759294805 250275591 270353901 420362015 661881114 926479059 699617821 815284406 309888156 813040588 885145020 267267672 633776943 298487899 580482542 969597239 694352031 786438938 577592475 963600584 116277451 288138676 146139234 278759589 622129969 447820016 812308118 365302222 258569979 729188847 13903178 97276558 644129748 811873595 924668549 435461655 919016242 772414188 282504724 606142646 159971086 530081619 388178949 887617578 612884694 694374539 840264222 763248592 988184913 647568728 774004546 347975226 44912237 253169454 933251908 999991156 577468835 368458927 979283206 762476292 514573426 677288468 572772614 152393375 871466341 38625864 23148739 522297809 591166015 624719369 362301651 277817343 275645235 661645132 546533 420831612 201710541 747629810 68198503 851178443 27912108 921911841 507212174 787955430 985113478 93767704 245873226 251657683 579139654 510147588 188974721 812408894 178122964 688338271 951008273 38137429 40667989 980798310 671630791 263264617 296826016 942396941 900058862 25169690 408473884 160367284 731573177 374511248 256301210 514782603 646764429 556894141 619035614 229353225 282230287 917406894 432082372 884916287 665379731 984249235 89860788 830755710 229546402 506071625 39430383 459340605 643308012 978478487 749932731 797364524 385221404 675857480 534808364 389319634 504356892 12883623 815500080 454053400 786396860 71387071 849142682 971000515 550435828 315127052 248003098 977311655 552107079 767351039 64688145 996713505 986395307 703503768 698544092 719172346 201135863 493177258 322848875 508233754 729152802 726406523 462753431 982966064 195550614 494423996 683133721 373893039 438817633 643038667 283680449 751470465 383255625 702569000 578499769 882156388 616638282 129301588 740879058 463507697 647084975 195057556 351022914 315481878 366722244 328479274 461977384 743263074 15321191 382724822 775512229 14312040 156415466 94552062 201676968 964190708 836433096 857566255 289087044 940862213 412628123 690360362 840404408 149403052 508696873 360937131 731622979 936173019 240687612 960118945 236558118 279488200 193619691 590968469 288779195 893626797 537574358 218591647 241672675 829948459 602579772 568035594 604983975 962856286 723311159 6031009 710077686 898410375 577037564 109094159 342435992 552805754 978463952 768131792 47829553 742769055 660345631 806797675 343991940 43282040 639668059 374874758 547219735 837141497 586824638 807228787 53304943 247282189 780573022 132917329 48165882 941507816 977672116 265732259 161686388 972001336 935035281 113545240 383685577 733016926 739559538 881795331 495090574 610228789 781880844 211197969 432099278 394002976 766554090 804942217 736914467 708225647 106868922 530771494 250280010 579085724 258475444 32529130 545556454 996974713 944224321 862470502 68358118 114141584 84509694 916233065 767505064 99033192 752278344 938929243 336346400 311483462 158475431 406619842 765749176 503890924 852677073 493876310 340434118 345879142 423382133 295355540 655202378 764448507 370417094 780210744 649519719 701120572 932226561 509341947 171338818 925311765 37968507 757087011 195711857 966365692 240042441 88218135 113639786 251243778 16352037 704490051 414384353 506098779 253434004 295879872 952405001 307564014 762559791 733865508 784513496 335298543 676763991 939932627 448344898 733871372 21102191 627313129 755837740 4907977 841077733 125709306 851594400 801981269 438007439 124120938 963385085 567054521 602746660 89307637 111144162 318598196 195226713 54946420 655983784 923847313 556790098 188472025 854211585 259681289 712220962 227908376 561669557 442820504 797829960 732883986 498434588 721463308 420087732 329614035 744416839 30724647 578064713 272784171 891996283 142093257 973903020 524052300 22714192 529838069 641667109 104347873 936209359 294000516 370708221 765734127 704271879 459973653 367251488 663559447 209543204 16800734 219933807 875935936 948785458 391144276 671033026 630076135 508647352 82999707 430524571 963096345 600488500 145091913 417682771 148671953 67595323 702960588 373428637 941635525 432158663 277122261 947131953 467605165 95467297 950912662 466545324 619583523 418636354 955229946 949314172 178729067 614658513 141155723 555334827 920759791 457642835 458847930 669506528 24598251 917411736 742895125 883545720 971637323 616190975 392767844 369759897 139688925 823848040 437176108 141404339 749073788 857747635 932567928 539667738 60679929 282150499 335164215 865321082 870800107 997567698 163740560 229141559 612605921 540239164 252378679 564542056 962832686 30480254 708439895 816818682 693856087 321814357 637279409 748528896 323595256 128688939 567354754 63323845 94727510 649558053 915078629 676413505 56342157 188647919 2663582 663003451 329450988 154188070 372843468 951958913 824866968 791642066 625122827 985783771 506939109 385344922 369396751 988207876 757826589 828554757 452878455 157239661 571225140 993007717 288554887 84409592 927280665 372445378 182987006 189004898 725160513 279840280 662493645 533711583 192697502 780719175 23748980 461482234 990634320 158098485 733983278 604338867 744093417 859944341 579750644 231061409 389065711 563323446 214154766 215049046 712485838 970971710 42677945 936274553 388268132 32079772 230148669 936600476 464782881 914999255 391750210 128624950 572177663 591058115 250014467 441910045 161030233 357553016 329080145 180047287 609567299 479895436 537750961 613102073 105273566 678844483 493169994 216652519 4406463 591533576 204090876 681832944 945528622 57126421 797101986 676999779 826654529 824988833 3098155 140811401 852691347 981497482 363432419 809612649 654109036 467710559 800754250 36041219 327419873 194231635 622629892 956519796 489415835 576726873 508749952 952350629 631252511 38647650 926182576 779845463 741743948 98346565 909000096 248800855 11116858 964090709 455881925 878143745 582097511 893150661 470153202 450666375 894984972 839653997 321468290 702782165 684557153 56266789 744590477 846850533 2285509 402411820 383824227 585388037 851139865 457483090 658217878 286851685 85690660 982813881 639388650 947438176 916029871 429997131 146773896 383010226 641173468 613311241 408040913 927287830 8376728 559475722 239158260 793920601 864024751 129230411 158377942 285431199 71379205 13411179 21876004 451850006 456380779 406329791 920222003 406699713 800631520 687481118 316547464 904815513 168630856 784463617 92553844 757258904 990658537 241156367 439876550 310944761 354656853 414104650 659070214 167471470 69045944 934092719 78360637 914905251 401529702 761893836 995964508 171202982 407825157 857444959 852056434 993454090 72485143 902410045 940937140 539119381 352949266 779372030 825566073 924167514 95351652 96519392 638204959 56788236 945118189 874681674 332960999 992981162 199841072 447733224 988502445 138711116 542072600 586317181 411317922 315601097 209064001 944538548 809798519 10236249 9399712 493591803 677425133 364426856 893601358 464950277 175870566 182405971 407330216 622554841 880194858 193897498 161828950 136164387 727326120 845874134 567262747 303883144 351999153 369855004 174425988 308502224 547276611 385246833 644754266 779501448 382372267 657621871 5681776 701491732 199261748 902156547 363354929 19772670 776861996 328490624 602122992 748079973 49224256 463211713 675247029 830892390 300430163 636974103 154077116 212110775 42658541 646003919 278829759 880321959 385867314 997809990 666969655 856743917 337656938 680663501 580593023 909045767 974386081 954133828 63767317 268150316 612848113 685034487 602023721 130700143 786430602 333372527 523312607 198653895 945038748 926948429 606953035 55043451 61409019 217994677 833145964 388396293 641680314 908515367 463962511 837564833 413838792 557577223 242273144 174607526 653328552 52067356 795945123 744341165 515252575 942060461 553549947 426233356 678244329 442187482 975411044 254618314 504506055 685293387 385343523 894768112 817132162 641840597 947518462 658090420 893050040 565970466 130262506 968375390 143573548 560483026 756329737 274089080 759518818 892959433 186092285 875717216 887354657 431506434 320339965 538323637 912857571 844195669 48419694 525544658 573298333 146112423 948853630 80716143 485018555 510533322 447636436 300485639 202894001 258016719 923958998 819379716 832295098 305228670 111878233 66875691 494391940 357838822 666762885 251316175 243786195 900156028 626465834 268275696 659843974 57491126 482337391 205673806 734863517 719484420 734897687 23411131 47499902 725585468 777715965 40673817 223187500 995684495 740969565 836676232 853806784 454426195 377225292 723459341 112602079 296709220 368496757 496175019 573185487 455410520 205273531 225738694 174676663 199821409 262358178 240493268 192549031 896882691 538971655 165081560 530269781 363539372 977230671 655645007 327760608 151442658 835656499 748756325 344285487 309649784 985128876 527303653 765905743 462928347 318107185 952597616 916537894 337719595 381506091 758189318 964353340 273771353 695016672 274008573 374733403 253674298 755623542 447488533 977498050 574045618 276449240 202387550 53673204 829533423 178979845 855396655 95344617 759282674 184232851 931744484 200076056 179729561 960084198 843192756 295513953 806147859 590126701 175389158 515188962 178069316 899947681 47428002 911649991 371718582 386053217 17842193 761552932 799765597 667300415 359773208 322040362 998065372 717165132 463714641 689791969 674191890 782891343 158934613 737775062 968502962 695449445 889145103 312246579 513797584 822718720 674069411 885524255 954225818 187047104 40758426 531469843 195407755 635256049 183930652 747874909 581791077 409750781 3608165 786645946 993924444 600905518 334725761 937222901 781011886 182122874 558022679 678258033 227197933 738305671 610817765 161436413 974835631 788965083 908253735 847583160 70255883 429747289 698042941 787871531 547644206 878468291 454195332 650989363 481834371 555739379 952768704 807820467 697348377 30998702 77134270 799845078 305090669 733640474 223692148 141921874 812987920 472687515 12313563 556787977 778353090 928635650 184767969 497415765 951772551 335449388 962142633 756065335 883241678 91183404 824606742 89348226 149724819 975786819 610644628 515624699 6041310 357416958 980610143 895238057 514047766 87709043 735754885 922954995 436804412 131776731 345077954 454062175 91385006 361976946 370855212 938111655 537617656 595538475 730595348 536485979 491358460 143627268 792940317 279423806 32578842 601334748 675125808 175512090 424489223 676158629 785002370 459520057 817497138 17257127 573747712 105368875 71312994 240721597 427710130 834010353 485267520 166433392 137966400 692145491 646949264 116039289 75116193 634195814 66972840 810461427 268813279 780637296 714799041 32297564 987036350 233109956 991852066 717735601 851797764 347882890 509583791 696672951 97968746 632507689 574591272 74098459 140591111 649415471 928309800 130422025 481092252 436339792 898032993 676892098 312566768 957845873 556454756 184878914 660609338 862554658 147839951 140828971 654894919 90733798 745082907 705941168 115142004 285400080 863933697 749847336 398605567 961873895 962223718 658091078 715624145 863870079 804280877 466620093 345345912 83589258 431338362 969651153 124825497 363387229 397039206 293305172 763613523 112694076 39259138 339400386 874633563 653039508 177014388 96444269 324015032 679990560 215162172 906323809 3925157 289636862 514501787 875951618 810472458 858793207 342285405 652023035 84180555 629015224 477140040 809239806 856143851 704945423 959837179 421968226 970599761 848318615 883775164 703397513 870072881 540095911 338018003 652897175 82853852 397079193 165872291 362990827 638474739 812815073 401286301 119700913 416510520 819497364 294486971 287840447 959593449 25581683 909146913 60609637 625177253 837744207 525101420 715675980 614192047 800954578 431306291 230843853 27544200 16950051 268240118 795099266 244945936 223065536 11150412 31912122 866778646 799140549 775762871 183755015 992752616 429858606 985342019 949475921 331832466 85150516 385042053 160396982 42108058 969607569 780074358 82993875 435190669 483483298 13433105 375126612 827368937 228791437 148554864 530289310 655687469 263259198 642768702 695753201 971650047 673121730 819701782 904531410 694031523 332937482 161303295 101747410 308832433 790228057 495788148 210225401 460370994 885390746 527700409 377262949 541105550 107338675 141654093 684180448 585837628 653463009 804787302 821173500 818173992 841980861 399934036 513110838 672500695 195946896 373807008 786691364 140151932 277450954 951877583 106166437 79648550 710137485 29215674 408007748 795320464 773204918 501868380 948506081 514781902 751412815 306763587 917538341 102434929 554459950 622407652 717245258 120626607 187292702 895208703 116371665 383823190 611393674 236461375 496141096 527312041 669965481 566769071 453219934 325460327 312541840 113189685 490895763 330375431 440427573 141833554 128249501 734792433 235530643 902478295 104510686 849282217 162745024 234662842 550111806 31373608 458557580 633035248 928917139 91637186 136104060 28512556 274838748 825127571 481399453 40223384 362249704 637801802 541617345 509009475 535432344 686236707 178309480 656874644 437296025 377897237 661150697 910240709 406758567 391421605 172597661 737687881 395971170 106537721 689065427 800628 146279387 679047260 354743514 620818350 842939675 739568737 922258786 487084661 915900878 564598961 164567433 436222491 368996233 956808806 709451296 672311488 355582722 83062334 711324825 458650428 721271020 156752396 897307461 410424398 181396854 860887288 2921612 32533058 908533589 964568935 206447798 811793661 815876065 136789644 726062433 230163540 843472972 329393767 604838390 26612981 399359165 133414230 985424139 671767756 514877234 871826394 614476643 162435043 681038919 737674621 652543575 369785853 219452367 657721037 102400544 21537212 755972913 824660173 488244947 73637697 419473685 80191170 562284879 577155478 712920383 837562207 818001573 462669238 530949193 608189947 29954220 352113784 505952362 235660141 715867284 214326288 890884744 376097738 713333035 529229942 6988227 623895170 576264187 349873900 46894976 733103184 339737478 360051377 557493376 416544999 652971277 322340064 943029031 629155871 31588467 680514032 803789669 746112117 49867133 674820471 557474240 159778344 487050475 930454302 831393775 932813289 174964903 858657758 514931602 716018509 352074971 28383357 327452210 67481920 973905151 205288095 705391483 174868294 292672846 890276787 756358717 972953476 900253658 664411044 324216956 151874120 244011987 592867146 17923073 27870759 329378526 189724637 166520955 441921191 505641511 25930452 30293930 340540038 47102667 969112756 836362779 795697408 437766240 125312686 439240890 566333713 28742451 956224895 761615793 730842825 707077310 552433082 841946065 301341802 967333253 395587634 156515643 487620906 893830869 2775360 51002554 920753571 664553749 579732891 163661988 103694446 463060725 370537617 361850260 242420353 338310617 80729949 715250771 285481653 775815731 80151619 526758458 389958188 875763340 82648816 754862197 485042172 845714551 174171098 574553794 389387276 613755110 129405973 185096334 120609216 948360111 376457035 523693364 351001987 73101393 966967407 135469398 264745674 874577561 822933468 976388479 306937394 615123855 467680583 621099099 330898292 776014331 947996061 665376423 355059701 851792750 369964951 125326716 813924362 661157455 988007708 704620903 828379350 254410889 230774033 803188359 103730120 369038068 718130155 655635943 586941176 101172737 49584447 419697764 855743100 842504308 663428476 294530256 874777919 362521124 32727720 903504840 856296785 333480791 434795433 255192876 761661065 743718603 890583574 535209761 334353447 325914833 582268473 897497224 997707056 358939304 417444146 126729288 842537463 667906182 351751858 551876870 470498004 806624252 235209834 897596233 523555709 808421572 933309367 835339911 649537463 408014984 956484022 133048562 153955764 13397972 383997233 398306696 213266081 447392759 288213661 448152321 341062385 863547517 82511325 464893250 518939066 91893736 93638596 425982986 69767576 821321380 592576438 263801833 181833642 259498084 459383728 952028342 989788975 448418208 115161261 677534360 439198437 86658251 980154254 867860015 76702824 412386624 221942588 345044662 681480055 299879183 10804379 285861488 617641283 863217770 944316123 268848773 659847450 846176003 450122172 526176783 818534663 926469597 474914353 234905144 730848123 599060820 929150150 296649623 142889771 737913222 528518725 574893642 729334108 983775969 374599472 582094313 922068888 588751464 212681208 192333987 89265384 619955479 393573271 366137761 910966347 530846766 268847231 997030788 783817176 172270022 804466894 420875539 970069598 711945894 693291826 623674642 110335834 338109788 647543863 528960527 730295282 882999340 461555698 463283943 174985963 271534787 114438566 792567106 522077465 34731250 122333477 122137425 748434601 330488613 717578963 275629035 324092299 752976315 705835767 489408943 657529820 106349319 578868375 491571773 580319773 129953557 434410192 790932567 518237701 734939983 267534089 363903230 518450658 991840478 322294146 241416341 417447875 320893477 289705476 374632508 203759223 245145146 24870911 398538515 831410471 878834158 934600706 363206971 705753249 910258664 910781485 631399952 490049219 318931315 161236449 939218351 642449942 637310287 985069731 23337100 782217742 750926150 126689458 248209992 256296869 502304196 293154213 356546130 101517492 637500336 319819887 28345189 871153266 452284769 908129316 386500391 546136797 233595034 771456510 954029126 457872838 308008687 827283616 673449200 401868904 782105013 837854287 733810749 291593258 841651145 954067935 393626526 660095077 256157680 172773988 713773150 130951998 786964005 518421686 854362803 433051169 444157104 185548669 384608514 371219291 274142629 85583390 249080987 338062878 718079808 930860664 866249598 496454136 678154888 584197593 236398057 753999031 789836986 567931015 626107607 412127779 787645112 781681088 999703196 422699462 73875725 148702018 537526177 476699711 934701431 682757655 575158605 324427846 153784549 230066719 746522901 106468607 954077808 293579170 931056872 757356207 105313556 672223097 629395014 633260616 237621173 20841547 450229172 593253246 843311501 371822944 937881251 367679265 845292517 918026671 628173028 979911681 110052749 461892569 131010738 218917367 959556838 779167051 584601266 721062600 248752839 191323618 443271314 155259848 150778820 573828242 182051761 156924815 227210611 167413603 536749678 722742907 412175492 501040942 175620645 571504731 255776718 522359681 239341193 761106265 616451612 694058621 587840918 802869815 387990479 419324125 333637094 914499610 554111698 490731521 19495715 307946290 370472358 213402816 370363426 276117426 539447789 459449747 126841939 998745825 98504579 967402987 56825049 303149198 130709602 364643901 570018525 596472044 204607296 469993362 946244032 705051010 819771227 247898145 803653907 729693593 25316259 489978301 786597102 206940721 538648818 45800166 194333808 439788565 160620585 724909003 306588121 307707874 45706711 65640110 543407126 694281101 475533073 443412159 836848174 180487753 855325220 387859891 478110510 129832861 624570014 997525802 247621747 260525972 956165339 948221844 996579788 818490206 479346740 409725471 614120841 43957492 140369802 118150688 536154525 319707321 352076945 461488670 161995608 332823127 92515027 73314387 164271 227130867 179093254 977659431 268287531 310788595 530895128 80431125 465246076 746328557 998066756 461173394 903950266 463792169 519058548 717545160 770028946 944759503 937968936 153907482 121914655 723716097 701446564 369780238 963827354 254520764 217401936 909584377 648786220 728105273 135052702 44381109 310566342 856045308 994133901 115079062 138158001 589731573 395069452 619371611 168983442 845145379 816127671 259022348 845607142 617140956 642227855 259654295 836873746 680194022 439749656 231011640 760978741 198280054 360480806 599966408 195532331 733646076 189361256 721828126 771287082 540216431 57292559 985197865 289952660 215346122 29626787 683216731 191680835 547267776 714906098 306322649 73217929 256375379 328392650 737870469 840695393 195422025 341742634 75652457 628286597 459142230 840553233 503503070 367510453 230174131 559183561 238093370 941268607 300264361 126378907 740955359 937943512 489557565 502175113 593319194 258589617 836773069 139994161 785454800 255459632 298969110 445329829 558732377 234198983 915266750 406850073 860637833 812946842 527433904 668440023 962623620 545688539 493698263 59371620 233577855 842148159 664378099 300998272 525176925 15406111 454720516 432307816 587908893 557052493 482096840 745606116 907202935 152249302 514919733 450985237 974632993 710248171 962131339 194275000 526329368 410507506 220326774 993341152 432954571 494998144 437925741 235334677 659653481 831667378 394712424 889490655 257857487 92580698 145435348 29894705 782088511 443842261 695617268 871355366 635150322 509977996 353661402 204685662 126320992 997968212 409492773 715640739 786809932 602089840 529924528 11014142 399656200 947563617 542012848 601555207 615913186 63641921 846424490 827119958 772306639 784317804 332999768 986079340 739985646 376971018 809105397 44550852 990938761 272141581 10441984 937121207 796573947 7095710 451089236 341958504 607717815 181909399 202282455 588398876 581455116 910752176 607699523 787003421 764691857 147157092 70515869 789376162 906777451 22313741 866413221 749687815 406921713 75292238 143720426 786477745 507042078 224720846 159369143 86042963 18474346 3443580 212630294 781128252 509003302 26930539 140477036 921545561 475062183 830919226 754327247 976007056 902663533 201007462 816130701 760804257 73012047 119505508 109839611 490768694 199806940 933647452 354963483 268216775 959095781 681311952 530198904 253551639 904675873 482244553 88674590 102227961 830719481 359711287 107493171 92518330 965844448 233338136 791566525 852384531 79866805 786400321 326874409 203789139 198437111 434586382 719229812 818068528 549139309 867673618 470349949 8487465 912116536 142997741 584336303 997534918 908464550 909467415 516378688 564919164 372725056 801733581 668097356 491737702 50912439 598049274 656593447 259061183 900818812 479866516 575507552 300133773 985369031 856214836 385409504 583758476 651515249 891837179 779147937 459701679 530540955 373982897 73883785 580509361 935789581 118906305 28937634 713141070 999075090 24299276 299804493 24731277 607706469 382319329 258926221 40531808 769745562 82586147 308528251 788529610 432453702 978006030 65869311 155049768 107049739 392139277 241462972 898346054 602038348 906447402 733833276 720705636 234724829 508376146 491395871 378682818 530520210 637777656 41501446 636804842 2537328 857750188 552034113 9288325 602446090 418046783 993297653 934991457 276018799 427683576 340638550 716556527 924316354 885337621 179188636 274184724 901880634 31619348 360481957 139827696 706965628 281108801 202301419 79096643 933731295 942532830 437858615 428983753 875721208 341907107 558789920 824663342 13263722 532459623 386667758 765673507 967738807 668756621 493766583 922487611 555830020 956584329 752877314 367073376 362442182 303988100 183792323 862080368 970054027 566462911 678446569 953470310 815070552 241189808 467003501 762354642 244974986 59883840 831518612 148465782 607605797 447225495 70504341 544019762 973567433 650353485 717273498 565411093 999718350 867055569 267835166 219699143 40574380 534192132 196797500 390043755 230247222 356661840 656906996 959704025 835772603 357787582 556303227 248123547 666922129 281186356 669542655 555606374 140601431 88557777 667201058 846481890 204076367 166802560 150371828 125150271 910934165 450341848 918356912 426554663 438014715 730956565 899616808 164669686 374467644 168600495 64074712 587392651 419317048 663698020 737029285 752354917 797820340 955811369 237286073 601328343 411947783 134901816 52380466 460473106 753762439 996394983 731433218 934590794 579846838 903972948 687985191 472319053 436373690 334580956 564167165 843086024 197762557 246577514 857992294 213722461 556286773 82471980 577329508 81525006 466907591 902380776 714381427 602277917 743476443 963822754 128168510 158617871 644486317 740669157 103430019 311141218 609448718 282986030 648723537 906000875 501927760 974556624 656852703 474520248 137790313 494068650 880931239 270173185 719449646 865526910 361883387 437725794 598951224 930752686 648043 523149814 667708902 349259174 133976610 2565623 763574060 241697049 551096315 615166198 524728620 345718108 377363359 188379090 876511944 64511559 263486628 406528483 507983539 848642392 479637402 363305528 852148797 765785670 522070949 41419305 945915835 939520455 270990800 149691309 580137637 643387037 48554973 465964805 914347744 590963733 62158637 403820043 896230436 721265129 133019099 444855117 301795407 141087507 779607629 993428735 651679519 201541506 965809366 347306703 43031539 14562945 204081814 508907284 368958027 657793751 723423355 451956919 910014424 984711378 99565658 372130369 250201045 602760692 127485535 985404843 414668528 464261777 680276853 712689771 493003194 201708616 145668505 174084375 187083214 59972143 591940890 428532587 445363462 375492494 573604220 613222791 957286114 344953694 50343022 719638458 258256270 651523055 523121219 471377773 74848759 699619204 774303102 802733273 774450475 83234749 640458779 687820017 791533604 487737502 328487476 665602675 377678312 390273542 477993167 260870789 840907482 431433902 914592515 299728575 164991197 963425459 624004893 216672730 619975628 484831172 90919943 659315121 739523071 204640881 730014001 93651111 281445174 53451592 283494089 459849518 702130052 212957468 873737219 727236910 922206325 25220445 203518007 541393450 509970250 544913324 280717329 393568793 537389451 164484990 26972900 360512022 22061605 106016246 181952874 61478301 375599568 56359432 292394543 684341456 784553315 183527053 516080380 167528224 754429765 23973393 273327432 881500659 927380112 806660665 801376202 312984112 358471910 574888168 835249486 978081072 714034618 896155612 366413279 310445349 819119318 789109293 666923593 247863312 559966945 107862690 858712045 129217445 957197106 497815481 769706027 733149285 73696522 86770739 345552429 394696944 326035257 416707440 941500859 87782638 40580803 270962685 60698807 932087610 530683006 36416130 664831167 726567664 292174032 423534784 700630770 322072571 935671005 780617983 622309038 934367587 322684114 738609058 600253877 433464830 484493037 341944221 772710807 112586070 910868886 984848044 899175210 45936091 467108637 575528925 297150379 488895497 749695544 14571986 484647859 175314038 437587876 863703328 438764476 312513203 658652090 785873497 887873197 938193808 34287124 860164701 912411810 578152391 108902131 656845001 704676058 474224059 676056994 875965163 761465932 83197819 193787639 211216979 229023666 152141557 352236755 223876152 325605687 663864237 832849143 972113599 942985343 138465819 930684460 921914192 924265274 795778994 671481657 127718371 888238476 28920969 172811675 9380139 954549500 642173416 806077696 394463964 164575380 369788215 939145150 296684700 261312295 296394474 30382038 72371473 997937856 294678750 918378474 222077045 672480366 723232657 890711337 924130327 403732852 796267146 285289641 367393436 646942822 842433738 794032417 579736633 497310732 966914097 173269321 449582397 496373638 930386519 818521091 602081708 110572657 81865899 507907651 132409115 292712273 12670930 881174913 174894081 655957062 194989186 99945405 851276172 464643849 373492664 820960568 651976023 602725005 671352042 889443345 94087213 347738634 695869110 645621808 286185731 257066730 445924223 834070455 39005769 710028002 511114023 606664458 429757027 317718813 740538928 269757381 690103577 721963477 307835547 126679953 670452451 482696702 626854645 793270807 855544151 119801784 814136874 205315718 481923545 795208491 348494758 781127515 260207860 837879218 602998349 404950236 370655931 503110666 524430245 930909900 920281897 655140271 745802592 68014092 433702286 19445539 970013280 470365538 491562662 776604690 88274248 539174932 317739249 619001147 318583667 620987899 774306112 436134759 108161190 950997939 794688128 466074926 228751508 240588390 322586335 16192629 873514964 772660240 659655024 892628778 15077336 464326624 14895567 743972883 995728076 612032837 672669091 220030570 518020543 302441097 686742838 167899186 646631149 544763422 400259319 691682398 450311495 391800541 501141159 149693923 444675203 527618390 616358797 373082757 12344469 961095062 429553931 631291648 476202604 78881571 848446253 157408751 222895418 54936557 831309677 88177401 961162910 450093583 945061125 488937712 762058505 807761140 421101951 445869581 254877779 908582091 611698867 860895879 469517736 453646076 785124732 425156915 324062074 133801726 182050852 641010964 583851289 591176202 497616215 745838640 837734207 85967113 92079063 765078833 9754049 576754685 76290978 550795029 535405035 649325302 434807580 647359100 508044695 721969349 38689463 8369181 915265203 971330383 987654761 613050264 425902663 359054069 66971702 990528775 795670892 81912164 943607300 316673661 204337815 59240367 108274149 456522974 395780511 891866795 582909174 290057529 576647368 92783898 226212162 184946099 774581529 208457288 308327293 522938539 863613351 279793687 119917866 372418166 354102010 294775169 466156419 743010583 77119006 93087137 161916601 504586813 186806984 868740778 256684684 429650262 194707017 752235730 587938076 91610980 477913470 513315873 440888011 313456501 136675836 511735572 504320931 779536914 947217707 10913936 915934132 644733396 515921796 773611925 675168530 760998567 195753005 700799185 440721936 595740318 875113354 292582061 565094840 541856304 178649511 840293256 515055612 949807956 216871024 157254565 514314146 495289265 209867676 105741983 403387164 874066077 73994294 620324506 253745063 154588481 987327992 877903688 396657698 573056595 299226511 739499770 643796896 932905832 640829000 847263959 125344348 347340424 734350758 503313806 259227235 472263474 829212694 598542001 576578972 197916836 802612674 510011688 104052553 713486189 446144171 907961165 851447300 853384363 752394107 833226981 137952161 55326117 974793165 2656718 330698122 612456572 744029740 744110153 187995869 492739302 77865038 286217708 397180317 14338970 962901464 37222055 181537200 352793818 222622603 381727975 539231896 734582437 367246560 670070748 978027714 102609828 302978814 40186212 687564811 954368366 842654620 694237608 761951141 584958623 819031691 508444124 335482744 777653531 929266138 549338589 208016783 594712018 34113214 933035720 428614027 460612917 616458322 986063502 467947283 265022587 575746049 9397567 405774602 133523536 565144582 995685028 288564413 545857484 749978263 312427645 312562971 234259981 919076210 44844953 167957863 520124638 29891727 397530029 559726745 439171661 596829550 869187535 688457576 552398382 237126551 296812755 387454103 684692229 468715243 683187728 355783611 6822503 425100164 415474700 81557331 186144508 330283763 405834053 639968682 813174010 151850970 791096742 860156928 727824640 219270347 817643916 476925091 386294470 50462527 118558468 982243085 92294288 784217461 959867040 151180478 348066518 417605789 914963942 631060442 964488645 578841875 995484380 379735956 795989511 140117441 247378045 399370176 944087502 508750721 506255005 810002902 772693968 555348522 38733276 54516140 439138371 208317786 197210593 443648476 969883924 49873632 573723818 515277779 296309479 809968959 362236312 265478934 969827651 659759714 163291041 325068985 642885386 400842930 932413379 806208005 395815395 934575742 681299273 712856078 202874265 946485404 737919468 342438721 935676594 750083416 921714732 13307807 958502493 538382017 521541562 975721123 273327675 179036944 315695763 995648763 948213787 306132847 830947241 369921064 497871454 613705225 860026772 310051870 750722196 122577496 446320203 766808613 626833807 100639668 704818084 717847380 948599189 106002907 879288922 729002231 339070037 702253512 37029202 256081924 79429470 612507498 864818333 564384394 707749623 706759740 295120983 491789048 803120231 574854603 551722991 611264628 401048284 886858806 958886236 361425075 321543281 897832646 563582781 404821430 996476211 249595407 667824745 120687649 460083312 351542412 556261432 188660567 592991520 999228722 589031140 555428143 569755543 432155237 585491281 5869459 957790072 854346630 942599011 800868273 952758731 490839467 75379194 785019614 233548024 229521486 485445304 952049247 379735363 178013517 991125900 208064640 12303297 60621049 311211057 166624881 413670635 652464951 57927605 407408729 88413760 680195493 723422176 533881708 615330932 924460161 473882905 858970597 417382312 178389976 997563070 229679509 499023619 391244699 809590096 338513110 232429136 73222693 802221536 902494485 906108412 132124851 257827110 429191523 306571519 650239492 756343199 914754427 690744343 849123516 719465296 663268922 692839584 67286073 983603510 273418751 694423717 329804786 1997561 31182380 933690249 501970397 221733221 35765452 5519825 114379554 395399740 36021218 607965618 225534229 968417907 256253299 143618248 918982367 530947517 254990903 855217405 635369367 220911163 48540006 769611820 158135522 346874591 97235952 259346287 12381946 74111485 844538590 829441787 663884020 829870500 548526132 909495096 987097402 318602378 824823096 144265049 613261464 539950186 661961900 950621792 798221584 218859022 224317953 229115087 569436966 818121860 660004703 168432374 4781339 16006496 856132767 587469995 240697901 474251189 742413048 418946122 254424200 952737906 281403094 84796619 401619199 692443842 257014713 728987095 607315791 210544835 755503759 93150677 760732953 225024104 943423481 228955611 125130782 761554628 475767233 519949788 336884524 429591378 100183408 937561563 14634507 302314348 22662032 587594986 677806886 311637374 824954538 120197169 219229426 234659888 237191596 801362314 948048777 258138780 826514698 901204250 528078160 704271990 232988434 771272787 200151926 508726656 909422521 113886825 988817200 217509923 238152014 145094002 892154130 394425335 928842658 636694290 939567329 488092296 878049814 355010827 565626939 356060412 367764111 372009219 67033911 884137702 994894102 270964723 649106121 201393924 496540408 865680827 801587347 228233060 385096733 638304018 425611759 849441963 13360393 562547083 973671331 299773954 895966325 312201753 397458177 83779978 310572631 100576729 325979112 820731059 516345823 178121359 347170817 308360163 67937030 93085948 527965416 774934262 626646917 493145692 472749517 652850204 789416380 166573070 176456409 441995612 746373684 274918200 877151076 877831655 777330989 641261146 211848093 773016396 71321178 35182900 207847366 428633833 907482403 142460183 137460556 201592052 499152920 720428557 647138936 363595564 30251852 339366096 634034206 945410746 586182358 787852026 160137800 572324624 456231962 870408416 743659907 555011499 859075978 724347610 273192663 58603520 107912027 128953274 102104663 207995274 359514680 965391751 693130066 729712418 774085557 785039701 64175469 736284675 476921279 368021209 315137354 627803902 218043270 725092294 91664596 216136103 498791158 803144909 57594875 186244411 297658026 672184458 23698595 22998418 252158822 670304631 948449952 95692784 906396525 520440062 450679125 162582850 427783008 772544192 564727642 605535336 843224486 295343701 631393527 153467377 501546240 366630226 400465321 576301866 840087617 699277739 811808187 473396609 337696832 779501049 90081429 732566411 11729588 33171210 783028470 242437757 296682913 343589107 231149746 661271613 755517578 545724122 6723972 659660329 458506864 18918967 161931261 449597619 34787726 320007202 990792016 672615353 719878096 162037341 419978906 308294247 819903634 911578986 626690424 765625307 890603830 253542071 399104935 192777278 95960254 240697725 701022971 218745891 675366632 569114205 532649143 718452260 259149317 802720213 435451069 716451036 70298866 185205379 403878939 475923865 542342554 244846172 737850971 430903823 215161136 149011089 599346294 867188715 90592197 787215479 712873005 603257791 717220357 300775763 138231867 885010984 792316062 969075397 929052470 5287821 400141833 315571698 434054287 390786877 366390773 575434633 834746730 180676997 526087521 754537907 770767020 427973667 572931754 81333904 52849282 482181739 887962174 965436378 222737456 204621849 994842100 473194281 101193574 462693656 467449128 780865146 960246319 926748266 9344647 21762622 813344773 461520912 113904953 514150375 762264749 976132979 175427387 369708104 16156023 363277822 287870655 752011931 586784468 317091610 374529165 478931562 416111478 654039317 107232490 2312260 865276879 815523672 159865417 253927990 99543289 611242498 216384919 637385421 29878084 265217466 207279795 481202626 28412557 788658394 272449453 121556897 304322469 929002353 972474303 758182972 390265035 819727721 808392281 176914089 114886258 137332067 21613685 415984242 879691898 178570752 330132294 122047814 467447219 791472660 957112344 828869257 594165487 919421033 121695656 397634913 625603387 756630774 543528512 675780327 610536461 351190801 204211860 313214846 382594061 54330202 128127898 47783673 610734720 931662101 891837538 587986265 515715162 897509749 103214382 885789437 766847754 804245298 394984958 267294004 531142553 426907240 654784946 472850251 459589829 461567638 6633285 656364252 558298348 359226199 116979499 875492487 733694115 714714077 4654373 906237866 193063010 288890070 500943970 813473317 21200331 795071457 515335013 334107659 880292042 879845974 598668275 178403420 567365267 806699075 476615708 574315824 62489309 671593232 424249848 508742016 222148564 707568976 300915709 704973897 135441880 931077782 495625037 177031071 715054630 423105340 999519424 57243477 593827588 637409721 143487045 988360014 831719648 154284892 843764322 325788834 677387599 874954666 269831768 765464538 487027086 610334839 879174219 561468844 3258885 838046181 166439406 525823249 116657543 813785843 6840956 595512128 613077465 128644346 167081428 803353851 795369050 85955379 121008611 999411044 390037412 12071647 680123431 443140962 92583899 303685659 123496985 226570399 571975779 296268084 55933181 110259773 354011033 489979872 884731733 46664535 977780025 730583357 117786164 926922176 278563064 321363918 893844039 286869706 394748488 22051854 102477078 95113718 573347876 681727118 302983055 948311768 341415695 417427520 611275309 35488887 980646178 118045067 390228972 843497983 244725235 570026339 301465094 181743936 568103054 578710396 655157178 35571837 110154057 598474068 295752410 388561223 290104252 142601890 873782317 356451633 88285158 821954768 147314944 665768829 332674249 482873141 294430343 911808193 335153808 626870898 909805357 967000361 626731874 597334569 670902097 5271130 882887379 306736654 152286848 559087898 601916054 749001397 750263258 776871179 165327009 746242344 835157448 91724809 480377802 521064279 549361423 386751958 217138533 387160185 971475471 75305057 595280855 820860806 341920688 152283671 432427452 428285404 373568758 24935034 333657140 641050585 144011127 150933126 884016842 864532790 440460290 927867515 346821685 275816297 476972728 369067758 119719267 135139467 500341670 824313463 884159477 763805545 440743654 259684582 343961325 878444921 569473150 236525752 406963554 251574332 189224208 407454081 85337815 326289024 362917096 752404430 804240102 199079418 560298602 823932949 508759222 986303510 93027014 632295666 224999977 330550531 995271376 937499978 46202439 760815654 838430052 211085707 591079906 217380490 172552708 140152652 944845235 451347246 989889928 311385495 32615697 740748896 998450555 201215367 530351898 837273082 520835551 183612525 131494999 772228282 763175179 966679604 731003091 444528606 140017984 509181093 194984197 163408668 888780906 420932756 658311946 32719974 386001588 683185637 235842347 154015381 740421154 621834006 584458030 999435185 633454650 638361243 903916727 380809212 567642407 375891905 611855014 231361950 834514425 510434997 573218489 895598193 888833342 672451790 225664905 879853753 843515642 642944190 108539817 477771994 157186679 900929322 500368369 381714649 527430327 792302730 743827908 153619205 536139142 39979090 909354959 465121362 948758302 484013354 908755018 185329941 264619051 783181086 984953375 170199348 308081321 815104802 7259657 831775901 432770555 845246395 649924793 422893720 519414977 176086237 889930990 265047932 770338385 298465820 100428080 236875615 451607119 378258083 271932546 93569534 67017847 378399 79577270 73257344 496388485 179193840 998409253 745394045 411484824 139179408 517358774 211688932 591710535 440391698 335774100 852465922 203226138 752102469 817697838 529393358 121040484 660892096 167872313 435872809 153013319 267101809 634863324 689653437 328702844 550077940 240861286 423109234 528969858 216256780 961127311 246359573 338982384 987660538 122217817 297116574 962279410 529198976 669290378 901465666 529174938 446909184 724450569 392171190 143282771 709347712 698115768 897098184 218946199 158710501 218021044 590007951 530308691 575958354 827604323 371022331 663798101 513646774 359802152 241057092 937990299 26145523 380993816 700305905 741212360 135690380 960403217 932323754 518375509 111978822 757909 752714146 916616362 813661558 491358767 460194154 991547615 671791646 90671115 867680748 547799549 430034307 323503301 700968205 631145245 657218604 512854888 206413314 706972461 51638498 813534361 201549851 107454259 726838606 863042806 493536647 827352176 118271379 634769904 234659847 633067238 698777553 153153280 391184052 36609679 474941057 972072659 152032121 560306002 902726121 379850731 596087267 556722611 484776030 978908813 131963374 239948090 213975192 118490401 280786254 559824810 59220927 114469382 513150183 576035485 828106494 998410220 211302961 30749638 961390831 81513014 182183766 612753710 666371613 410408930 112236687 442463441 749080699 136058979 634101357 512400634 445312994 327673754 592919219 678391909 124520648 398055009 255461077 420516911 251733742 280834782 50598084 14360593 673072430 633337335 896875349 266204940 279231100 834590192 741236545 391569983 283198415 301722079 374316800 94996396 910553759 242990676 227947532 513170923 62601766 506606044 159939021 766860123 474785865 208452185 186434841 355419719 657573431 534050158 334837862 796189471 849083835 658191474 828327555 503594730 511289260 976445603 260159297 307050291 617070345 237270912 349682168 392088419 338075617 175734234 209666676 319189211 298252563 310929756 613875113 907524940 846839242 345064867 488002771 120090752 905487332 995959312 601230632 916608787 711568375 918184075 610419528 675051965 320937395 461805755 782654998 118993525 384017518 785620757 799928267 440690301 800807656 573320186 299179577 573159807 353044525 725590190 86958866 382539333 280315853 441816800 279806350 827191430 805129803 888970690 424587422 50532749 329703133 494261181 542284333 830626370 43986170 653577910 160995034 608490942 282251401 659414261 118296569 858097995 342199898 616978720 150618428 285459571 55947377 108164159 689096782 528317027 679295597 577980259 783760080 248917806 821693252 361561862 669505983 857406899 263080743 594765660 870480051 990373784 544381814 739655244 272217638 291577174 518797320 721771114 291524294 393159126 965498149 31450798 615578221 964818422 842921085 464993730 759430541 337385884 923312175 883675559 43750996 619924272 805981948 629835135 232624424 566810563 25422264 815108964 601458890 539715279 221596070 815146445 915599961 885405533 157449439 926829058 498513002 276854567 721460763 755220881 872628100 370359939 203127256 173164561 257335756 612269059 635229716 556946156 826040216 153477833 52134900 881814540 658921821 204820819 27524959 128374493 865519637 623431806 550101698 735803755 617084175 477870045 606844723 250192530 357826610 271438312 996738103 767154844 30240470 902399016 436089952 245146311 644805620 644453055 378576629 927713048 62352531 453766760 880883540 965550366 110121448 449320119 101268407 961347405 917043184 868282794 716876066 558147225 156053551 59900458 433888752 834898610 313321608 658212962 567447915 496005397 589782137 122082585 164413453 442565626 640943772 89256924 975125441 207456082 368212497 225964337 674327506 208072982 7172253 374209389 488833660 150806496 707132642 460986861 976130557 238525839 379089194 451050483 828968244 952745382 646234475 514034693 88377158 965495406 924526655 943728247 965890404 883553842 285161426 866583030 591992114 381441329 911647825 306375154 417038028 475268012 439961001 1243543 362044735 573804542 97842433 293889183 683743296 374601376 810874372 84400511 242730482 136276268 469630713 459119306 666993037 639428671 148788453 547427834 594005430 493248328 928578933 437259778 385160616 214521965 802216299 964880988 673685727 248645755 571978350 616433372 716695208 189627838 650975514 651941308 342255702 162810991 219321946 508505758 201336305 570274623 204680598 646416747 847641759 501127800 635519767 854998337 157361568 142044241 628030653 753883181 234750989 530712837 206897249 454194697 478367052 177517618 605102344 956576478 793652029 791435030 483241924 306691385 592610474 921867538 967075938 654313840 159657347 41407961 68531884 939827486 776978338 805921369 240655157 315184134 339716965 541433962 815628172 63135024 372558504 487207191 42489855 566407268 920924129 633415811 633525317 695283345 360176707 362705208 417028183 623680547 476072699 908221510 618912994 724442474 76780152 270262607 772424973 801016308 511016534 161032126 319313596 980640335 844795428 939788667 999673115 501931460 402233744 679077367 819779721 887016431 159448748 301380983 810174338 541424266 498118473 140563667 935313249 888035214 829508599 984374533 372913590 666263447 598804521 561206696 892044172 589379762 32765443 191927163 467785674 936193944 177012426 291324595 591268055 633261737 999052297 128045233 232624339 823847925 706569225 341417737 686951655 848892962 466917334 425557962 520285759 137096253 817285713 829612170 695854144 719537417 883010384 748754323 642713162 284544659 521813289 427449107 29024426 666412311 361351882 640371533 304445452 209880489 120839267 28456874 670463156 305500379 406208764 169672646 92104197 125706008 949786756 894887473 498207507 385532700 904992988 358622299 985382708 283483022 213651364 587847871 259921119 257767961 771599538 79091241 806146296 243727323 686477343 735317580 867880172 520730529 442850638 430850512 588636976 388756462 58012716 294850228 910944369 711766837 925363934 916803307 249465799 931340769 209703518 699267638 699892196 637258925 191074297 550086845 294125101 721697430 553671705 624353839 906621094 969348528 415000935 836974920 677650599 383890201 587277040 753126949 762906433 982151737 844967735 721443452 805645305 795918358 15676412 894487693 275684265 290300854 547584061 708669731 897898939 842585005 541545206 750594987 669422590 43994411 551258225 701059584 280255347 623810871 954801076 477164538 622027002 683749633 369678815 825242805 584720150 493227210 688859530 170400301 739594308 574946344 719616346 761174114 823877443 704954398 59442497 499021678 809169272 298544718 872946841 716687093 136070080 716050150 534311035 418273079 550503279 52970134 717440669 619854861 423196037 896963165 185821749 348261828 845574324 922567426 667128484 832367723 103414045 430472101 896168062 932562129 626953045 357987600 709538514 997237612 142191891 218116525 633199109 853710400 15385206 985792847 341494728 641194652 611030986 569924614 571842270 423516990 37577449 147054075 216899490 48713696 6184438 172091546 531764775 287061976 514511971 369417773 13804774 61859841 300430472 864411679 879038432 149397344 532395495 378110508 828440624 966668911 287068048 868511228 782345267 80177507 74511744 857772559 194277280 265167910 563001566 370406614 486397137 705701774 491107001 353724203 768621450 821173605 739570512 158049241 657995417 243531132 803334410 766298465 106635958 774205523 488496361 86256379 438441812 932825042 518922303 810100646 779946934 131422412 447689691 911159717 180934016 515173302 872061364 37465070 385514934 86284891 113970522 9038305 427336391 666131768 471802451 791721133 757567759 618824901 357945746 934374970 378988663 135229865 220711143 631777407 554286392 908723484 840176875 600324472 550748658 159354982 573414401 46560826 895856978 196642830 417819883 410709069 839609322 874856330 112990924 891022567 902224739 23734021 16588293 584689559 941599897 275393832 629336717 227962404 248220778 484786564 659091765 827584695 385134966 18401323 476599612 306027873 605836232 149978171 723588625 744146055 226328292 196509280 933681654 973444705 395654623 320343769 160370009 695348290 256391576 139317416 44457410 344522512 712968396 423465024 325445649 907612042 780967985 262571170 940664581 921922522 969030147 208731409 901771678 697517575 816001089 793856569 485143283 52464529 928543555 272975764 155127288 8245396 199179273 341795736 818818409 160179004 17335391 456093942 697589962 580451431 455973747 454772109 880877259 467992229 224866207 408665865 934240123 891732255 719265133 321035710 625920300 325485147 921221734 124705101 202715729 692338534 777710352 847860248 343443280 34939982 50037233 963164639 647258826 287757867 786116198 248810817 423236770 650882761 100202171 402725339 637080237 841711720 128289044 584321859 755024643 271105143 444977727 337766753 335068336 78761782 958384038 15004962 491936493 719768229 741114104 11842722 304112675 340137280 196166939 652527148 84417579 877562571 352516726 865493079 991602687 530054198 458943886 396930582 44380382 832933713 935554648 469793229 263156273 346319605 93512688 481186561 395148178 36624879 368823954 736037033 598020715 688381857 438855231 75041781 590389565 368782479 492046733 297402850 992099435 796138954 209847515 586828114 696960907 164751461 933043027 889809966 677622327 482009922 975848285 423274509 823941608 910882889 541200788 733615727 340714046 66834527 115257891 642397318 909288111 652255178 653511593 365866047 640656493 880659295 171958258 184831888 163137399 196099301 485022629 847644964 523083331 970273849 512573347 25883469 975214235 484073999 966203783 542668687 305164062 61709115 954788582 137408611 865958290 323453538 382960966 25722207 481872155 21662056 301481237 194458094 691004078 340596547 409880491 583704065 526543290 759258628 242509677 489490028 445695054 607334930 679933633 730558584 206033427 883055174 864267485 196601329 126506256 641699244 164916416 755625291 854727546 296266876 935306982 7338117 61478642 420779034 565587732 212820233 872714022 335547602 775312475 407064459 270976749 823518149 93266162 103395049 434524882 415986507 956200625 286647580 134389441 564630042 159895193 610464578 540848021 849554769 262256118 309030143 623505126 427016693 363781257 456413912 733153795 79476710 551967666 439436995 287728882 862956031 905426954 571488806 598417506 175865450 106682014 437921583 236617961 97528498 150137923 2971387 631237031 523128700 534867917 290708661 598581832 677265455 344093066 374207291 13158446 679431615 417938463 708560858 149997082 633454531 633092750 113997503 165256103 70102526 676138078 233943966 633179296 778923788 448259947 294041278 990406840 948147041 100287483 737588816 541601894 564772769 857149954 721645305 325798621 209958506 562933862 232482611 158130883 933578679 792111766 156727726 121414175 284178681 438628060 662060057 175598285 967085258 342838465 47177767 562362951 288831032 183867193 26533621 960271400 28437572 20367775 855133538 884169004 477224890 493088244 545830722 270197610 509537369 107214570 939357779 233403670 574448431 83941428 998050144 91873158 423125154 948117217 119323068 30560914 644100042 897624725 620353061 534042366 435548603 586351488 639483173 604606084 800273449 830303474 530027007 89801441 626143252 36093585 573573279 51525978 202883836 468822740 716186380 807112445 212564262 595010844 264701544 523957365 30277262 919792207 594244573 893214838 496041374 500394824 860276979 760790875 376245731 356382834 398070108 857206021 496639458 642739304 467959831 377846177 110700854 884533671 238935649 611231782 3736312 445240085 261509042 124751683 149854286 212596575 887887309 22533167 345044354 880232394 452289822 21518846 182981384 113937028 711760072 561669669 153800698 27827926 993391827 232973622 30080469 476835777 853459020 187893567 356067931 873707600 927056167 177341557 836469247 696570800 999059527 667906826 850702307 751042516 678686354 859315256 338008139 989441921 412773721 506079292 823598518 959406220 935390770 639284839 334421557 385197992 283927055 978133766 873359000 672546452 159302938 861537156 733206559 540610040 654940885 164648519 102322852 341020404 274689207 840879576 252283195 116402307 759179533 785011767 832198987 141852471 306205317 51808758 624955571 772005364 212865389 127037962 293224660 147830077 760857389 352915204 568923361 601129027 588171640 933475619 234994629 74554165 918934200 920599735 845778493 653689082 645132248 787482769 363507227 725359232 834541544 245796611 519473015 250769876 115514864 778602903 624676666 153341319 834187329 940738683 571502475 403965652 432822348 391336979 761022807 499087543 910598219 499619639 247188174 290964136 919069390 318304299 547830984 525132502 642537174 814436302 574370375 841186373 858988001 704223104 943400513 338951512 400331883 414817895 671811401 720112158 138428643 699891533 633896171 653319433 775481013 511450506 289635856 712578980 269371071 546152943 584958050 378998646 712189970 135018041 717889376 386891439 941777430 152258571 874408578 615275022 189752940 358859509 90640130 208830229 153695368 182402688 842820860 524170895 169438250 331473780 974687860 128735552 402333274 115938580 850393896 659497099 679830606 679180248 616833436 55316131 725038101 914540498 546046225 888581765 315333425 17630721 182539293 114408702 669288577 640609729 577531765 160162757 42657429 506536596 212843013 531628263 242581625 145159016 848061440 269270116 553410588 401769165 7089473 664005167 569349703 637879313 499308258 405128055 705247857 766547275 700032241 960440859 539108489 100045921 259796039 419308864 460882652 290632075 675564152 198729089 172383274 233392578 139221534 803424819 784089519 137640359 268667385 975731556 553559829 89457854 334655116 874122631 807709060 491059833 637842421 151853827 447731787 506666751 807463073 105938720 645260028 828034091 768736243 619306767 567300885 411335514 223960326 22220248 551152917 181208085 116380561 57099295 124997453 529419072 398904768 344692554 139502090 397037038 700964640 550779093 207954791 226349590 480213639 632736961 191107076 976992020 364526821 4683590 974362076 606666160 658127858 828058706 169955021 930614383 669602430 739114991 467370468 663313053 443797123 847182502 811355505 798805573 290564096 734044455 827905331 124567764 9217821 528154963 503062429 909359221 570501811 461746926 230471416 617821906 307110177 967818105 461831644 355620287 479895030 162235252 115181128 319234108 643428781 624275349 728234471 460041780 307972255 809213024 676676085 844109729 356541323 654137695 904036596 266292267 458057146 475124111 953433254 135081626 996151595 865299153 835830021 861830507 748936811 214015134 674778718 835552949 906393245 470473604 4960668 570621347 284850404 106499649 959474598 769019272 725621484 802389953 224712200 521893210 772303917 226099140 389553637 730467610 268527894 574489139 503665215 425440424 455732162 22156423 138027223 374687983 914230993 940498863 435685086 62131071 422132893 672616770 2304277 654808738 403595561 235818028 615918992 139686241 82130595 346568672 189596090 756321292 642372939 610948489 743975687 12684087 256506086 799826672 922901062 922590654 988314070 627596869 142951428 407759006 851320848 797217125 278218959 296725565 641139163 881677338 823252399 548764789 317126410 336749327 904715736 31656213 291996241 968159469 728437555 211704197 853899655 999540738 64671152 652107347 107566709 996884224 236737802 737023423 966225286 960084771 254593720 673716263 184859935 158023793 710853876 667661371 708419305 711823911 115067887 71534937 682500268 187166382 118249659 59868168 569551909 406953249 362902410 844075602 16175899 728958156 854627698 24208553 727109985 848494924 601472287 919654082 87781721 405677859 35729892 340442363 745088107 625091325 750042149 405906935 192382350 964147400 264717426 82835000 252109413 241790242 185918153 4429193 716366542 553510787 792778640 29067417 690228118 89840845 96193012 240120603 667088534 159547765 256662394 387999275 18095321 100984857 629200523 145353024 866068902 720540586 813220091 491658487 730665627 187792752 762128191 583329341 921026919 260866752 504603875 361051534 537321229 732038095 281789394 23766682 867897340 981012939 260618370 884478641 605279886 926533081 748602612 242735189 816799659 218225959 227328918 285723031 495977000 258959499 356032163 807194462 690793814 989917005 968873234 426744530 723749317 996716103 486210459 118576201 285051228 679155924 64809019 381642481 346731925 295406352 164145976 30278053 713818294 640199759 206005081 875485007 112902598 342173253 104659038 377391313 762042045 361235269 840009499 796844193 75778438 236357574 917234968 891370089 272149819 936787925 184536576 984463463 869479438 678099033 195651904 40252437 64243481 488572713 103418533 88877427 581573698 937067187 28064995 738076296 404208017 167312816 648603583 324469515 303366389 748277266 437709685 806515227 101683653 477762820 196549279 76261920 606749373 379667170 623313816 441715051 300725551 519779334 884869571 134957552 420828846 774704508 574732422 517682386 178269496 609308525 940004642 352322310 793575203 943770288 676491319 862827538 183677051 906617306 567972112 204966748 562255004 799719874 186035846 398214787 849077787 463898093 502061531 924189912 818818128 476584346 975558367 498000562 291640707 431835037 149904415 28127917 81115369 596645740 295937492 506487777 313838811 594236886 663321304 945410828 232806430 41380850 86620683 590496899 369973798 793889735 651546719 750923809 874637810 916978151 543007063 648720080 220416355 683364870 879145651 80324135 551021892 342074407 765809568 897322326 425918321 677581645 507723880 319883966 521208443 566897430 484373557 685277523 506938941 158229798 731468100 488098231 983586937 816305930 413848981 889511561 597932674 946707703 255344129 120607197 382049169 710598347 897191257 967141453 96247767 330238538 351511196 920164783 207445893 444169124 727396865 588228723 579900290 442314526 520626726 861749316 213258227 978120500 22053314 386517329 469644563 799012573 367613712 598754392 677497014 830748507 430592764 193061012 275367353 869655505 102149759 89688876 779396741 672459086 904621068 85303289 725952065 89531019 553861146 168188124 588862582 19657091 24470115 730612397 31396442 297528438 790134911 608797940 390685540 589580776 393420595 943606284 207631830 722412381 33541361 624094727 875098904 90576468 868161615 574931068 816153790 31862623 723748994 761338218 548141663 526279896 72415926 599263331 314190190 468580583 685895864 65667727 565023469 472234989 820574083 900632967 647933189 63583745 761423480 711928764 799662252 628517024 258677946 775698963 914840534 771718663 37426555 63036161 227769023 32466348 141073292 683848137 333378793 568878324 426082464 421919719 259974678 845292793 360097999 643058823 406626102 902932367 788799610 7871768 215638384 249731706 182233849 789629426 748198202 436458693 974355663 354130571 417709509 93742177 771485046 980824085 378631692 733536260 20905720 188177571 99802816 913746402 777857840 960342161 137671210 14438843 357753070 276460790 635862977 569162023 122318470 718643707 489254052 477146921 418154740 489614725 3908757 768292654 836088136 500370320 248987436 340838984 345441401 388912485 14411658 899226293 832977323 820840310 6305660 796904046 624985928 17366536 913432900 926617809 183407859 920755919 10808211 442350589 150137023 810187488 219024786 660978851 925692670 4357472 430693785 814467913 400212465 166571694 925928 624452007 190678592 631850829 516028674 313974626 316974410 740395499 898997088 652066598 31095028 947922653 670634432 27880053 616913234 469849144 149225369 304419244 773553970 327415528 119272828 9061535 676031192 800033572 986854955 994272748 896038682 281777135 717684756 611060720 914113967 733775846 297434110 61425354 605855107 206656314 310212347 552375797 688702776 243269642 129453746 677923574 144945172 459316907 923000897 214207919 205360225 947478318 744976152 845008701 970224799 63468625 539904496 139143103 172735266 609961088 852891002 523154082 36358927 981915983 165127902 363383496 393958538 522539499 919637167 108294740 365083519 43699838 616035568 604452138 583967261 815134417 120847742 859896170 187640353 256274283 385078047 174984186 794317400 25644870 699423654 946398224 776083687 586625842 241546899 102562136 857300908 884694464 869857052 92106303 917792063 483888627 498048610 96669266 45284032 565287200 926114537 547355964 319308336 31697852 528144629 198186573 609632747 907239862 799487770 53728416 655701225 553985377 466884006 120845786 501210581 995400099 395705997 658770709 489347873 14460140 583058353 540282117 383290648 455415985 49141048 916289634 572772090 914141962 783716254 790799078 18020003 731416542 498679020 712997853 483488593 434395914 97088558 457043056 472290816 595026584 193758512 279161295 10273533 12567452 412544875 822041616 799907418 887541160 630295856 266281792 968289844 413476952 717371969 59667562 953599193 927827385 923312773 43847809 719433515 335494736 30204676 733836058 211571804 790494529 562277064 786403221 328070124 688092801 271652254 969029003 13703232 527193012 313528201 928641313 937226883 905491625 770014304 307698158 533091217 961181396 800603809 818806577 563457403 880034083 588721552 71422406 109150522 128405013 611025297 942236968 604074107 523528195 328078279 644213194 234545739 151314994 276181428 635941124 565416040 968261346 507975122 982773344 426175728 606667732 124894722 165009464 276659323 450488166 688951878 503972380 154085297 285549984 855015627 830999600 793660843 261294897 981444793 545541223 839084299 871008458 777043926 267275983 37969804 247453966 275030075 982421215 410426582 114156313 243796753 330455133 121794639 534027671 771439148 65173471 944494180 828775964 643074312 267032758 543616903 717492579 935103505 185307002 941598854 211677054 374224854 895085963 821774455 183177643 790829504 783603034 648604736 763683027 726955762 121464791 936267430 140298639 729827443 13392768 625058818 157238107 409917300 579019004 229387589 587068417 898931707 305607535 472147468 22045506 929738785 876792167 854347172 474354785 215523094 989025831 189959930 563045231 373244264 763418156 738538492 401488396 994786388 672731967 336882137 500606717 574925423 3297337 328874973 479348520 544946471 944028400 574286363 936379309 577644897 345480056 354593388 847273191 799106495 79402657 853847573 545190659 28948805 621471460 410677950 488456509 740573477 456977823 724514831 922960896 782627915 812292265 344182117 464829353 558920935 916346444 505580617 818279117 803385882 931165914 62550679 141455282 112272842 671603584 784380106 627033378 274724931 14899644 612669376 238226939 799497359 774775678 905499998 761239911 695866126 609954219 791571009 181893845 679072759 298158822 793759451 750154143 366618197 616001027 242244815 122051574 79133864 475956161 986088394 113369774 742864229 677272069 499836276 258802751 727111313 168143695 225905904 1088010 346088025 767831591 972451779 233982929 232419160 59053427 12685943 658093443 982752421 970002997 397736097 279841306 842196439 598952516 639315344 156820400 375895172 31506318 483011873 86051539 557850285 275303600 29524664 355920344 519234503 800594938 617546651 995777449 246881405 90736354 183100327 95207155 655841834 773175131 466817483 536457492 240110724 267219441 387699311 792353451 422146867 481153895 771602464 902509508 688914645 296790803 716127720 810157447 388323853 733780486 791204125 634691860 850937969 213474200 924981179 773829848 368015468 608003387 989781282 507154778 995281732 735449632 672364824 645676049 252434037 496319 124094374 222992124 97633889 962836726 159225150 773172227 920083615 126494292 499541951 678905584 24370961 548003829 790512198 302795635 968581063 856862015 349324509 883815443 699241248 906235264 973678126 62926518 447995688 347806214 786676845 468783028 477989195 842893265 767416810 602853150 900309519 351538074 306733357 823629108 554883907 866746641 527006271 385917409 524914072 545788833 886503657 625395557 138905145 94867604 484356347 674793842 609172918 107252267 948656778 515198135 675237584 876973752 354927707 603126617 710195748 409284498 498580904 703194542 585003905 401313210 927399439 36496426 411906336 995989704 874877351 294109777 167748492 230748223 15659147 869830449 622277358 574692426 515354136 33552580 948639147 647392844 647144351 522445778 766659245 389824420 529010185 119029872 583116193 881762525 407899811 587995362 422453544 604319556 322120238 757167939 112356042 20411506 944518650 544364227 228355392 412155956 712623206 936605071 643952251 767146617 557285024 316379365 808048817 211842988 976821361 731304636 371664102 717198693 108293141 661831073 326862570 21234714 59831297 966825322 609959769 587993247 855783177 404495328 601631729 787242616 465899707 865559506 836105090 761669504 818608172 246308776 345431247 283479014 405120400 248518727 339522370 51479212 245526141 962097631 222546520 906302164 846454390 613343 459529341 30937143 266272387 165721584 982819533 480921921 699036786 808943799 522351018 337012452 916168751 143899722 307904767 455029440 791995714 640221836 465459965 347871213 395003253 464924280 906570436 699974059 526911212 222380368 671279899 350447841 162713576 796049049 382159997 636205903 729967795 885113724 875741649 727954432 689428160 414348011 163158714 478101148 227010441 230139139 676832912 54151740 520859157 298568189 5620367 109368951 148656751 199540799 800464323 633949110 571121394 558811174 263622908 802273272 887065541 301720589 219118174 192199256 97233002 905454799 904819874 240300658 729840879 407304090 965320389 623359136 404180056 791562075 652718194 396706005 863716002 495458405 890035955 968244755 159094992 52456487 341832949 139970591 166532176 315648303 469864594 389366851 862975791 218778809 938314913 123791751 453799671 684791017 383365004 69268851 690239125 665726179 265722132 615966573 731453739 62009726 855619339 883311485 702234144 222840737 187686693 994455409 49719018 298187894 872331188 119690575 916831116 723894312 848010751 962403778 3797412 500177925 19451768 169503386 982041354 294550050 457875706 755938151 615964749 80536980 107431875 768768362 34865902 647891246 954954280 443315782 828124349 850923087 402597678 950741997 449788470 732697164 460423258 618687222 556767279 269698239 809077556 4532974 242084572 121021537 286336930 397968188 962093440 314517486 20613041 324446374 137154972 854237067 625149119 48378434 677707164 414599648 900831672 741713788 982665167 459892326 223009286 560435222 360615475 731967668 154342849 878773818 483235298 317739558 37598577 81882191 224031371 257917990 474305943 812472980 408846396 40084057 352420961 611987372 928419908 265011284 2309446 571233791 265170238 963806379 72254198 788497971 776072255 973892145 116729747 660084384 338837607 812349940 259638545 804229127 173846000 627635512 630734916 40740759 229124382 617554694 922478146 781600015 994019240 26987527 798062741 320115417 826926825 562621158 290092587 409853260 106580694 47385767 182202293 675656240 346870272 20358763 268477236 409742269 135121589 747396354 860721352 897886183 513082600 182207191 257321140 636704194 865735664 179620145 831461518 822743584 909655740 564151131 456340207 489361537 953633563 503551840 23032611 110251287 229103238 963515662 853680814 745349051 857048486 877216210 118894432 579186986 19646471 194635706 322233306 409891044 113999080 59378318 534259297 967296796 684136262 291528858 141477975 238937862 417133607 749176920 648835623 171294667 283386638 793126131 301119175 135939784 866758198 973167967 912536626 909036748 481560740 199326023 411837720 681062135 853356177 289665327 633510619 612426729 98412815 678521683 158157343 367042054 976232717 539149404 161599684 109783768 975877751 828888310 336397242 521745024 664920082 32090582 322871450 200107589 833668641 352236495 711682242 204411360 539772866 816173447 429430802 541348038 597848564 51761570 562398065 654511751 976242831 713625602 643438382 960110408 531919696 547230854 183977978 730344352 13771458 199314153 355970134 615374186 963793086 906574194 694457616 567384184 586115739 933058390 706606034 117594822 614034333 235924643 144311019 142000635 38465209 957505696 167004420 979485195 771829890 95122037 432615535 401725163 813598876 753613560 172627941 117258594 982929998 702177306 298005467 205393357 202588932 423588502 192827696 787717285 840286832 705140518 657442227 574240147 982984496 112333229 638850786 359836144 446402125 339092935 275578397 47544555 483706238 230017320 94248102 505464719 892779713 567503009 155146687 329365242 905225950 170718151 461297518 201489250 461180887 720132654 911275837 805132172 384440567 148366522 975456772 692441067 771996059 726136402 59642803 62833044 809663796 124354557 611974289 633162168 614910373 691391332 185089633 263498202 98685144 375713132 541460397 403915327 707258150 706477717 720264398 382911476 790395555 950574611 614114891 350455722 894908664 720846946 904985747 275453139 838159267 570395822 776768919 212970022 77343694 898942707 679537137 52013615 798427789 26036271 480852662 837628803 207188548 436239551 988021005 595466365 765192890 229064968 267209010 45363824 679559912 627592214 395340839 9044617 130900119 831334455 535552480 497245758 169717593 351685362 867019763 440719358 366621068 827200672 737067669 196389201 825615701 375431055 383751540 107335692 290421148 782514254 689076679 571056455 923079218 637771696 156566429 670573965 211600273 400365857 284005933 575220132 166264069 983125579 100878722 558780172 538444899 701472429 235743702 720937065 384936584 772173863 13170213 393699076 212945277 802988957 852752765 52066358 955860190 321260527 213562365 140530639 575742613 855575924 869860743 170165435 882030343 423663146 633828212 410870658 845689215 521531844 951849071 141124543 341790678 393297310 865301180 332483959 119941931 641648469 844673120 888169849 470987198 924401485 395941422 707477005 60941887 964436052 775853565 657316973 294571468 739303767 929255131 227266110 339475592 327717127 135715800 332205504 318706775 609455792 455545816 691912845 330528365 151268665 81450429 530673302 860581915 797010773 306772429 987550202 22420433 656837370 464894918 858809787 214604167 506988238 622559440 288472994 34312240 103370958 490563285 553940117 543066025 586458313 622696760 907518328 384671987 345131446 139010006 658839103 658459067 807813077 284065370 563851350 939908324 877480317 30031712 743694262 900095973 413966787 764879828 15008269 678875711 732192474 352077495 324816528 773644571 228813190 952940545 162926634 949336739 153552184 965147365 691505775 370500025 133974726 412874853 425663701 22608703 798998740 15013384 965449891 132134800 960376981 582095630 537497974 518005285 646819534 897590401 897419546 668170734 567523607 720209858 74189501 864089571 71267025 745902556 722651815 824329005 537779729 103979349 135977620 949187049 711402334 618786456 311153454 496382974 897643226 898191928 309764398 826483281 512015558 22310880 24417771 812352711 474707430 13479976 735332893 207567073 301729150 367935473 483100817 699820566 7483293 281155342 8104027 724561814 576575623 195087722 577985535 889564500 350868293 349027008 284495207 396521300 393456996 277850129 440183770 385952350 307813664 818351044 808985599 122467330 88872143 440912276 505874511 667077129 1251681 357433117 714655715 316386961 73920286 237088088 185468823 405548181 812010132 900827242 859244763 658860834 842612868 831037321 759399333 621172692 798636686 926444779 589996515 663609348 182215569 210639635 545618610 107346914 405665718 609425517 663841809 200778341 908693620 397024196 114568227 59879799 88803824 905642986 653816926 247071150 747422278 763630757 7585005 479165888 926701169 684238449 75380220 858167023 570430014 622798110 571144026 653844119 485285199 605120686 419730852 889445394 360063436 78824829 664194538 631889765 752986699 720087134 242428835 215731135 459485010 295972640 958223854 960547850 421400798 99170710 587310296 346259202 780601749 539821515 405222930 132180607 677247156 729054521 109636445 875892127 307249926 226635631 378646266 490470666 228341214 37073932 818827725 890570692 151818303 71664520 438906672 46232818 27713901 829821333 595705271 289772272 742131316 872927005 27328014 482463975 758300220 534831037 978457851 868386942 894957197 736663089 824124869 123693019 63415917 970166865 395721688 798832325 782286904 871265634 851766824 660577355 827191340 951745778 135175507 151551501 652251620 769802421 434932062 470846860 350052873 863553160 65218125 26362378 420787712 605201831 458109882 418491771 225835902 328026083 845306360 201124405 521099400 650156758 897817169 932191854 413923981 113390574 108225940 805136645 179566657 792950126 769991681 714717911 679943168 610047863 39349722 672091101 15683768 323981325 717282818 581665042 514750688 117691964 498869573 544643967 973216026 46007408 449449733 145192460 107546014 454321754 137357016 851947336 421938327 933133878 535563539 436106707 677169894 292793284 361245839 587204901 692806856 717880738 62227384 353418686 579548759 202586521 523097250 108287228 109162210 313199079 410185183 430895164 731989813 728603816 948107870 975715685 579894257 703880776 803101891 624615213 536311979 301315943 152168405 362148208 718023739 899049203 599547362 592976727 54807314 805719174 327059709 535401215 536249600 55205546 284037086 701868381 223489434 848675341 263141608 146881107 96227454 843691990 799366661 122870559 132261693 920700187 207235655 700050494 743150113 98494449 496611820 551528060 757946842 438779986 353417894 104649376 582178122 603616499 901572839 527163528 239290120 999290560 507012837 434839881 31658278 130854383 709461275 567240789 93597392 756733390 134429357 812763752 459109918 144098322 559357626 784458603 946542604 758237350 882955806 441779119 27780146 495328087 595612066 453058960 682961564 367105483 351326987 532800327 299312274 683610134 795658261 231002482 879727394 265584763 336007895 238060502 55813259 514519323 928535485 213478808 587437569 874125266 589073992 457358628 164171856 731519565 905958269 627444660 545311510 966742514 473481400 457202977 153685192 507713547 900868072 767392288 688760934 600849890 87964185 663146866 555355117 862111673 464961965 269911736 72312286 782314304 561043485 929584547 257862956 23885467 617322988 745697167 498054643 403486990 777770419 16395013 783034924 719325377 556781490 481274437 359172730 7270486 600175506 87166966 111472348 502748801 646883907 719326314 943452307 68243919 105206582 608090392 344916495 947728260 367011489 393441107 540933916 214631843 340332494 714336597 176775739 791123858 894181108 271088126 588003056 384680893 743254443 776876559 97221074 836546461 453338198 992179980 391112471 413068797 319128607 265262362 871228380 988731342 307944551 271580872 697336663 964699269 630374510 686313839 48073182 759439563 341315139 444115819 960877296 171348003 667975328 673258635 452469624 898317578 200231416 42071083 373014009 895949966 470311395 239810308 792905070 681613073 386060097 860976545 403199556 183910569 836112942 414269165 732763146 486152261 115195688 241294801 618060091 59753909 214441024 55577475 622132144 87206861 389929235 481490755 796400915 678705517 618517090 529048905 994874608 7676623 68644933 480473858 755541096 2487656 834418673 964509461 248287996 369386746 68302765 183512333 223855097 417113002 590381816 193357955 782274201 500788809 658831765 533203038 834948023 299949348 183852467 451144851 984389321 650785726 72580334 662855409 102632243 636614454 181060035 764878648 341234239 976878155 746739786 689805495 668707451 359029611 141605648 374629811 460664416 351132735 313611321 665590689 255329309 239757496 315434683 581184579 177956389 152696633 180944639 28970027 894697539 805447860 646097479 31249948 300363939 107498896 317495937 206926045 612675469 156543987 346254891 390679226 491904379 669152478 593132406 396949003 383449692 455298488 996392774 958546630 715657322 548806110 354322097 478538985 211060736 900434561 764982531 648788197 823851664 336677680 201644662 992778299 335515157 49996406 997913882 69794168 540318908 471021890 867663894 627786495 392514798 964327326 338400651 814686882 11277409 974456903 817596822 958738475 659578395 114058583 458513654 99423335 410180178 234081408 299575310 735837148 10167001 700205321 37162983 314277706 861075561 4642604 453849617 211616559 559263058 620176292 608196815 683753895 260621186 517020084 828375444 621215687 182307227 493198032 914893600 231231637 304645096 887932005 136094260 904109886 384822459 199743498 450460679 781759448 795484664 870863746 340021185 620396758 65677094 894765173 388328367 239204923 494876971 646634494 448103551 966157345 494987899 181284342 115354978 365740478 695770967 34019080 863731180 136780986 139151195 927870450 4658591 207917089 390974555 624516976 779526460 19789173 772282153 369467707 368179936 350352825 271829973 734556360 935067009 83525136 736940881 811190571 54172166 498956934 341894129 837887270 401268319 77043982 665348384 853832870 558797700 63034120 616258483 843520736 890018467 314149660 81744283 265510448 663295791 893212998 837292600 409059117 80788757 820647332 539353081 630658467 551439237 459135672 685195376 962499442 527040078 99237748 1242246 267812649 453640810 201793060 243507679 143040842 307024721 733071734 28816596 38493348 793326804 175602844 725547431 873988881 177582529 480452935 473416897 26224166 824669324 676832159 71626799 949301425 451594053 866312206 79576198 143177657 161639909 641784037 731522010 48073190 863128786 239910017 649405615 391588991 798366458 112768174 518348845 71889947 312893584 678511129 909885739 474139073 906421112 909598931 753591729 871659964 535240086 767140003 698302339 978813031 458236141 484996732 894584402 456471870 128240159 20163183 588180978 661390414 49511348 30460301 489582872 224470412 881651790 34645064 503051660 46185930 694747088 95359129 277936555 314443652 278475723 657140082 12108328 898626401 410068813 590434286 517235701 22848806 494699670 807379430 947709158 592118538 415177167 56106846 295794307 384871721 561473105 175314493 928394653 691179877 487002772 261671538 111410197 680920574 271366363 938156029 944180123 660317485 895230536 269247673 726916143 977451078 497204551 137084500 971296261 841854008 165209586 98327509 844049399 347751591 849271327 460147605 432403893 414603691 747172426 709719718 15246602 57225486 900365496 279821697 124927199 794850751 955207248 512744002 530251213 812908238 910527476 53099883 746505078 8379194 367066000 510831775 267339152 333507455 13533147 763697773 607612310 580373014 783455734 345667028 330568462 836460161 584920039 881434360 519317547 616873300 896754948 446099889 370393201 519215986 291167215 318771382 564711985 204444708 449356017 469187607 302284160 412609393 125580375 465628106 224787747 556027827 21662640 588966404 682813297 83584203 313507803 995825743 418779721 262578686 791967012 480591020 503468750 671048140 394366974 118353137 158664597 945780094 340945428 34337752 719947072 292916795 541032726 21419361 397647348 498572469 106852561 450594028 970779027 830160513 180095626 775079487 526851192 752548515 618353385 645624246 798396152 440927699 286741849 75299405 304512091 72794179 666369859 402859065 796379648 767362764 683847648 960445612 957403511 792571157 938379568 192144131 724628216 198119967 267039700 568658168 7703901 925724262 190848449 20451158 950803919 482902429 894758736 986090275 898755248 298189163 211370194 837426716 260924005 750390894 776441024 507349494 816144263 824107634 902905154 354997583 572438773 200905020 395588312 430516140 817756145 196494172 851824546 183772529 791085475 843717950 803005159 999210038 373762590 684625083 738754119 782169002 635135122 475083968 938253906 561646442 718585435 862410880 70446900 598257758 254386136 638044096 475181692 685979890 741651535 649583491 318046349 841581870 726121524 666461326 637067977 338482414 514261728 133278440 598873950 972277540 69859622 520568879 632740864 329889636 147554030 629478683 396716182 923641518 28046002 765876333 797027688 583582812 558505944 787264575 690174802 617491081 922539787 30205214 632070938 288091980 6744929 123856637 528187400 958080461 705443510 173978563 110056797 271663853 13158837 923239572 693108390 264019939 660221317 79377696 660575309 468433386 668388255 122138961 823345484 852311386 391660220 666688115 879528550 528925611 645521818 64116427 157433856 435130105 960019753 308986690 202820733 623051009 337108372 265717591 83743299 18365692 117137154 775883356 969614752 550102639 95449830 572549830 787670419 743350014 353207279 484109629 995316526 752084756 595379713 266715026 854773387 84408146 147174447 3707415 783717115 868037923 222401450 279826919 714627598 48475887 407637458 497926586 797350553 397919528 940613044 180250978 374001415 932301705 970556600 463719607 366234942 216711412 400612923 668498748 10844357 100613138 805871327 582893211 788006559 245681929 700029312 687556934 658476293 394429267 810364688 969223122 350977802 803192042 867980542 333878719 937656167 238027860 534282948 482043121 941750562 914083048 999923506 79478290 758835862 768461105 616062829 6248952 373605278 907270914 848087756 430775535 110247609 938425906 863105124 419855382 39164524 436201117 406871585 437459020 787466261 89202034 763161526 447986260 641208438 176187764 4547543 279178183 748715811 801083812 718125061 754613127 894091320 669613307 163343701 785265845 464538241 663425787 439049417 138638567 374003499 663945073 310154025 537454641 404256753 12395518 829846601 206549681 263299250 745150881 322769373 250373039 683276176 464449865 363768912 381678741 519284792 176691231 762489066 122089501 565747074 869884885 938414207 368573619 146970524 243687795 636491417 620053628 907089457 189307411 514143068 868004159 317124554 617341135 241198598 622290614 349346217 418525284 527650826 716772003 253937322 239069184 949605100 473493426 270846216 204883669 86060042 664990542 157145686 213035369 98509709 119660381 195512090 553787283 306004696 506003682 449833385 104973608 935144463 834791431 521265775 231792585 434893691 894400482 217399630 703446750 110464914 137142627 102793880 197104996 802313205 584281126 97906103 948670816 15355376 620749012 994454153 340790011 162026313 642983040 34556341 72327515 188893741 124342798 911683861 202360972 331957615 82621561 296429723 850677876 671138861 104702647 416263698 249100930 858834639 97900116 626977732 244516490 156855211 817471566 371859295 976800914 148657214 77613435 684591635 431845893 616120822 542313045 167395499 808531743 836127548 847222606 260015979 285840564 723980273 542694761 828499200 302571718 313003274 919312470 81351043 670081903 337697172 102906541 861066500 12949871 17110354 789833515 67018464 156599322 561880606 872270873 901303862 116360679 91776976 810120252 784564385 120196752 181651043 24926127 717684230 140041578 423118778 688673138 266321759 196807301 339867392 970189656 558678435 930911307 593404385 658108888 332774014 266789167 527228904 606534815 187324410 309104743 128887263 518054386 683576987 167484740 978554742 643997310 944323775 588658033 3404436 597818431 72701301 384215159 837570929 268215079 304614914 863165540 647618719 598643604 427580720 33733356 827740704 509226097 216205090 325474921 323575630 296243823 228935013 908522273 203917553 770033903 851841234 597970366 707917050 538430637 410814404 17751044 169127015 242844604 908391300 79350877 372551213 963856918 39629377 219258874 752797763 805868030 907393295 455431611 569452311 239173365 119275365 862098257 547838106 890173428 366298366 586919723 999773607 550521820 725216190 685969664 214862647 342123786 369916970 746256355 466323581 783954414 539089472 793916058 239773948 334232467 125539195 471256823 919473854 732947994 51395453 631538081 344471406 488455894 255952611 558749657 698695208 106283752 550543868 879108131 167109662 168751173 836035036 842143194 297652793 557674254 861328975 61388856 689987496 631547060 310475846 211144889 931252545 26843258 6323666 150029481 608360751 124438525 639111508 318785582 580015310 290893557 76646426 624223111 21101180 514894331 206074814 6516544 210017519 19730293 186026827 283100663 575096285 826567533 690217856 767958263 522250516 634299782 52689945 77086682 567162784 849756648 614764758 338601652 619530976 656814329 956261763 94959095 616730867 688300102 544218753 681440744 721604252 820057225 567560827 632958731 505669122 881993462 136017723 890858166 320511331 288485881 458828169 124957824 609012996 883566338 879457984 716078551 320644819 558838693 350480593 269825676 156196077 855138221 886285456 622420181 75067162 462201516 178320748 245499431 327831225 359263161 866543622 317992414 899770967 470239180 146914695 834606525 930455358 498067630 63136611 73270252 732185057 119138853 394327177 543895191 704743081 723372484 41540019 177280515 632045691 773459053 266441975 483196885 858614456 533911011 947555013 548865515 933628335 594515947 153278725 781321659 276926214 520648867 298611553 391421442 222475272 284598795 796678 174555629 504572420 302347913 316012081 200401841 87956683 866150385 961228702 353976358 682037508 868355056 506851994 827443719 102985672 640307482 166406975 485858361 828506533 7204965 134102769 730173327 341628099 354493203 740746535 958166421 771304135 159744134 525198416 775278991 579537632 694220947 587536686 512450982 504933904 6094534 271728166 80574862 404897284 116453394 431517575 53035021 582936054 825310267 29143237 23366028 730056483 203979984 11779520 686807258 977880221 268503986 636788682 209006812 17416283 858660540 868926154 898105927 353316184 629245415 688782283 796275302 266300324 759981580 676386203 250256311 261776080 649504428 584913847 34545986 380551798 630712551 838350762 214642193 227334767 662221536 487702354 489217684 898278007 597029535 158998763 369064607 913039056 320463899 193494735 359719078 818257448 168095835 191101606 139053405 368834525 549404775 431491242 654727900 641346090 10618815 970447727 271534204 984138204 296338149 91165050 409563861 763028837 817841539 449719161 327169392 552668497 725738467 798931651 16999498 729816674 442430873 634393987 344515146 65463527 531121026 817586792 323629125 426619706 292333482 641014368 783817419 705531497 772964420 255534137 588727957 436150457 267193399 631115254 520603146 683054252 672909982 505164211 959912570 459480220 811515362 620435700 947148815 965958066 936192057 679195747 845908017 85581564 800879872 529384722 53732748 558347654 872745924 110169064 929030056 740855128 204317691 126373085 839842702 467514139 868372438 550414440 834321297 606907134 176834174 584334827 351496658 876775023 166323219 679443983 815718535 684772548 849310438 969989550 532071496 162997312 270193595 552789724 320835069 877980434 98129098 484998046 545218579 468838065 264968731 467845516 868169231 957982769 707893893 800125920 254009300 863030300 222908696 762352236 585255966 366546562 339596771 663160229 899529673 408433747 675912178 585398229 818412876 915020984 395838673 648612484 932826021 631390087 749811655 482614813 731103587 265596097 255340941 186483390 882256142 738466157 208937106 167228663 215647773 160600426 602407950 330685933 773181179 65294274 146032151 256125938 959340616 631676945 599681517 859318055 117690287 853759386 467165178 378779298 293655455 143298436 863925622 969263947 249355174 192700884 111027887 535220726 808486307 935882361 726250143 931289353 339601310 191390055 536875897 228529291 376243914 67422888 720828754 729357122 685720991 648317663 243789758 27369848 779345152 34792484 182274699 149994495 508774718 511977369 711292619 84584398 49713908 773851326 121943042 324213220 952478326 810151920 857273744 972884619 814178988 940604785 651460897 433691072 640144933 896348918 332474724 719206698 287164332 286272607 224284091 508842921 810423545 149651561 840453500 774260500 941530071 305564354 874596678 161477775 740096712 859046409 733051018 25940954 522365419 427609140 822433836 510945822 724393743 86886963 812586991 350203890 700344255 683186980 372269774 96138063 760814682 828276748 17918359 160407660 351880128 502622020 898901407 312324062 716150254 871567616 297711697 340622908 241877966 588052623 494448016 596344662 291332399 756540706 959675760 563102083 823280503 798244467 633838269 731674276 581264610 148792415 364219002 632619086 271486901 870814844 759930344 594901230 483388437 83488561 27798600 143580194 71979277 368362656 698816239 728402731 850611665 95518964 293891678 494822889 843313254 677649341 533127926 271510238 288401241 484730684 31092829 118596931 739648102 142571532 346576480 973460770 807510841 549519216 35083408 860682964 570677863 319337455 389527039 192282420 151693900 762849563 578639102 340974236 735650687 564759940 846832418 235651589 20542301 786388831 36657485 408019640 105763805 586279733 582683801 399241328 560466445 895294024 968017045 241301155 51273811 318952262 356011097 58224648 644580243 727199280 228676752 138446868 470233171 299750319 963334991 797314986 872156945 593644576 864140741 639446015 634836823 742388947 889245207 787455990 13114085 84098966 829407189 83009209 125040204 627842958 482776692 97738230 466188887 552044418 109772985 528468683 419311781 255271933 641704361 170930416 473561182 981789606 553812843 220053223 352301225 217997914 384164049 265694504 579565670 292212270 454850835 414786435 545313833 491752127 634232256 718092022 988056521 311015315 347189312 140090430 737858319 576354579 623975187 105038025 388205438 516512489 448049322 358457990 592174342 382415862 875192580 135246087 565899946 673849939 264135934 232304228 704588385 438575372 892116226 719175587 457607710 188375221 496588112 461723759 297715007 822042149 786032617 371617839 360920340 327830179 697454613 534797425 84051905 710292294 812643324 50202180 168069708 658195194 937548896 973702953 907597153 318446388 218708221 785309766 407797720 770092945 863754228 582450215 81327232 482887320 915989901 36782184 936365001 547505709 716305514 386961943 204027622 66047889 871089776 925835214 394629435 849978894 391970221 468021791 515161429 160767296 826460239 687058642 226615805 452158107 259953549 949464895 222909354 207409574 988781009 78103247 579287625 40906579 70122905 378443637 474130555 713858884 380826897 969602919 807795476 616503416 564002039 552175921 635387898 926360387 932195563 197336807 477418977 875712486 58926361 921701603 350429202 130267705 519533492 319619520 868662991 741799639 40005398 54711378 858482713 729285906 74223116 368888075 100201677 633750201 739238850 908567278 513493508 705152398 886800012 239087041 758606732 279939098 946475455 451158005 774824462 326296548 916809421 654762581 324537117 190296702 425298519 586636402 320429594 835029120 84324703 615265503 360683152 632536534 787463954 394227162 59459998 177553882 666411827 386090606 718608592 723615147 596058174 566920098 410871578 802934724 992709442 419692746 991099710 66294951 700647818 999699209 177636406 5766950 37095190 486197442 541742578 494664624 210783633 794431270 538987442 753343976 762949629 471590201 756721973 755401779 853294624 404105532 400575627 269492244 268306603 166860839 996270677 646668963 592255243 525570482 214484246 368526165 359684133 995856362 579767032 791137633 311960597 784057713 227786953 926762337 11268380 511329572 397504832 161717328 769014281 677502164 588049771 362201909 555466304 951069316 404078632 653983102 805284627 354049696 86780722 623033025 912341206 538368953 117432795 496993062 823149514 223859756 241148555 499970464 398760005 910118507 527286246 551636089 184199784 453210354 192982999 716365065 239466523 994097969 633981902 71376807 848238081 181806038 741525012 479938733 638156456 639924171 669764687 244276577 54077307 411869704 429397329 138956147 347933048 728730500 174922064 695240311 115562475 456343364 829244115 476922262 985613222 643992675 754344735 601421108 391127766 500975042 869749690 545711182 536731003 786192468 179233256 16004033 399746147 597706621 214855838 647308133 918171393 654346193 95958664 949923615 163940990 863741602 458909484 516856158 738674887 117252910 18332905 565982877 636212094 837608004 504869240 993027885 321292138 172536889 430402270 804616943 345331045 528588913 83741294 661761303 160049281 181462679 798414834 478513460 365699623 554266872 650386682 417022675 168776424 790206108 470190009 291597599 47283193 155794693 314214438 519161065 652063361 153576281 253454402 354931664 734825600 847880256 90581199 508939538 410500354 718373227 590976099 417621950 637524421 405083842 516375853 396431653 142765224 368843768 979364189 664317661 976312127 279755797 91265264 70742098 248373769 107110465 536410106 417648274 64960430 438042012 48695076 75564684 111633477 168485575 124848617 526387704 759327187 353448638 570695973 25940720 273946885 750646334 72805455 737879155 65805880 683403703 522265548 972869434 202668663 9948856 929088411 155188599 71010718 431625352 688158234 788417786 828378489 902160519 463601243 39294823 699316295 277420845 421390053 706971269 182363857 673619622 61329371 706612054 411454014 441994535 704670186 900340390 943229170 979058218 47959697 660347510 11070762 18697951 505941273 777958783 267562505 333030739 31696672 981406617 29788818 702679502 250941182 577143688 177772019 22459081 898592636 277161806 820367109 655232363 594874267 467535987 76462213 841170860 903909577 152650278 447831892 213149451 683633740 660469769 886646480 827567342 870898263 222895367 95573766 438439283 399577396 156187042 64434558 959895460 141666544 147767485 416692420 530093290 938837917 363510143 26532037 660085855 596722823 880438997 805251994 888249620 718350877 705908326 996428878 834809496 951845059 858478 249631298 937020566 365097174 411149732 233073117 289906947 830716 592992567 126693517 172398788 799497453 789015590 517921002 816834834 870255509 792588772 951108060 460809893 713438970 622383693 794607764 344767691 458418785 209776829 605855816 588317810 710500144 17283321 516652300 273719566 863954817 154484315 581601665 344697841 147567095 195767457 154743773 597073522 442770003 652758227 234231335 547045231 567424384 742956368 523231534 738833898 701841139 845110526 578638218 266351488 752202428 206152128 922418681 346237259 440768146 202643671 915935621 263567888 400630571 483463435 181271187 551425961 964435275 678339333 210576542 420703068 674255529 438963016 511310211 758577731 55861654 425407393 583708079 712664528 11342464 722175673 114585793 682021661 7359714 701808801 115725337 91276011 533594469 892579692 183515398 392166007 402132542 760796458 683555644 837175773 829535667 86595434 667476639 59795560 790379001 278008854 227133500 907128632 9211925 331287191 178141237 988142289 734027778 106752711 631971650 882492857 613727520 727562046 14572065 274967203 40329914 502782080 888752778 518995991 372271411 670449192 430500289 312936035 805023969 74647981 525484121 594392902 945730416 788672986 230422998 386233243 956317828 907180941 314502590 375962384 812155325 773819554 382610405 245825393 499898632 227214309 886822015 129619426 556034745 538774459 106027355 268675250 275452094 136666900 878475824 427377835 173902680 920399440 335597541 21956813 827631188 441597627 552701143 126647981 308770268 64306067 743611753 608543168 831817747 641074212 427065400 111352502 349265164 963277081 330479838 551751146 103851360 267347377 421778468 529174920 667462702 156677551 873394869 236721876 17000418 518717864 260419946 715583828 433458780 846037332 243314277 63399734 796941045 610937741 429670654 628149537 79728567 260692862 160083252 901169546 482609613 689015562 782868485 357335060 199973101 611606390 335856676 105587373 247252004 296057365 378541700 751880501 720230950 250820764 372148147 613281987 945504309 15457279 329674687 34093787 814278704 514580398 518966157 982790147 958002006 811325393 613475761 255433358 813041388 567778790 63284593 834191504 782954939 320457282 848275825 673641678 667809459 792061389 455422063 245247231 558980133 674061987 650895377 7327584 510810123 697726050 5052404 835451178 854445119 601811743 618800599 354728549 430729531 279112798 32607330 64631897 790091931 377770549 985316030 251025147 684305363 900597947 821408494 324657595 758723477 786944424 128841329 996521887 90280100 617065592 396840876 719700118 658723462 601364398 510563587 759674474 960407602 784694484 626036604 433567462 778785518 95444674 387713257 587705113 122499033 320455911 17232715 291257778 993931928 64693050 574085392 852568194 129220865 74630657 901748739 530009787 59973083 242886795 450176718 2780475 474213134 122942110 997295879 690111466 810798212 522746701 220641133 263330037 912298297 907542645 58741911 961448595 664299289 790404096 950545087 1305532 125569965 559373160 931809611 305099761 367717188 714425110 254318250 838962209 297419729 839839560 839977613 398549116 333986438 243803191 16330958 625933608 158797252 122608031 235109185 482506587 101392872 294774610 55193932 9065312 481242740 60894298 903561800 416064913 245640598 842593307 574544753 846374118 518346106 398132098 360632696 171523402 532430201 457135930 588112618 281672568 49136851 668265321 596877134 36002659 785859362 287542013 901145073 703289208 534020975 15750368 546121473 844628003 51743094 172924826 461100608 374868066 934908753 936258378 229121323 792338988 563097070 957986017 595779956 506792769 366541853 370443134 698182355 662866278 912417311 435111623 370537513 738949369 849160831 73050809 908284795 476057498 650863188 646420057 993654933 691730964 990056912 406965703 402405365 915177608 975979661 263808396 170738945 734273769 728256831 838538343 501335058 995229575 767586169 75769083 778562493 21575540 659629996 18463803 405151502 885066100 194278675 245627225 466334706 127022665 400793060 434132558 400567747 483948275 340335072 258661273 775350190 353389646 802998699 61165134 512462835 422550555 742753952 114605224 385162388 504219864 852302028 27889006 952873123 57265712 151882810 965437215 931478665 777931813 360012476 370681226 143448965 566954693 517748309 548079448 262041849 556717136 707944468 601091481 978750012 232146852 303252635 539980215 447015067 725508479 355238253 694091109 362097983 451335409 516950862 882499227 905614182 935534929 273987478 190649165 337657235 327429370 797808253 147329395 505736401 169119006 763346091 510405244 405230401 207406657 463319072 69117634 853843468 977553694 648711886 367922594 318298177 583789101 866810165 256341315 409909208 408961532 382404767 980570406 561475445 261296846 133296202 271324548 816320218 19099708 278534633 764313440 419494133 677066174 245813240 955925859 124972811 686350511 221477039 295047100 577486047 103976764 901578032 658393083 933176626 688333889 874303178 942096364 915168578 285134357 884901631 837854087 823625223 406771132 544186593 891983025 78574484 986930249 148038135 708639426 144786288 706634092 108609971 432063675 442909958 179605196 826873085 350541489 925140866 993222657 613801736 847673729 151902293 238781826 861665287 733642651 638506130 624800966 898059302 549508105 165493115 533163291 943437749 962787850 310612042 39020533 277267325 627804090 7309003 296182646 843940120 422468290 419876120 904761670 708657443 476389384 114961686 629106193 274092264 729339780 265376191 599411507 627447769 673816420 577274609 60095764 764305791 837550922 670346298 86705404 616260774 988827734 877001120 241597044 850630266 776617578 129799633 135196978 731687084 961979832 150300038 880595164 681638619 869095202 604301507 730577512 765981317 313806980 202243134 479258098 865092963 135300189 878222791 171478002 417704990 4446018 803681567 75271739 320274887 64121454 120186238 390221154 29699840 558334191 854401909 996135855 220237706 878248160 423967888 792723545 434247677 191065769 677430085 776854081 867935252 156041921 501950683 752914728 580667559 977965606 805667321 296473771 574582275 475063101 629179963 396153996 611123839 338403457 102169049 877338147 239197446 576175623 442906764 162935511 434995970 125592034 879217601 258260659 961345442 322313273 189025594 465038947 846828558 856821612 22592793 785940744 792887186 453578954 16751828 59532591 265742130 817119121 927969663 175709427 192905323 165344951 485158863 667970993 807663677 887020699 334399857 888296065 744681330 478934097 461978354 963483514 237002852 770981286 620607666 628848573 966677209 297955348 989279508 705273351 997401040 629016164 745995757 584934276 966619475 821325641 96477864 759971367 745199447 187308822 495758513 513838639 551748808 153904524 788290341 535435594 425267891 112599141 264526705 72160850 806176181 544902106 888698074 85973678 778948556 429915892 709927876 111519872 97705732 481550994 678994488 477215265 237424875 228580215 336333353 204784310 403478513 94688759 812625259 932544900 833887934 32946198 178991294 349841073 457048521 557367674 728273485 585373156 107949201 728303959 637585262 24130509 506159449 48426270 124398176 495788805 284712587 540159171 340666712 538694124 477968944 777922155 931700011 777156383 718492790 561010859 111318956 357372835 410961024 317206792 376337477 205512978 719948110 854017040 873627089 635751930 814682433 261722972 172995547 33797266 331977154 146657039 373341442 1457935 909534946 917623904 494890128 470846972 191263758 431366317 639336428 875224777 927216315 895599798 284042355 535399383 79096335 144650741 537576976 422720338 68392288 189396804 853558535 321569480 20731425 962553333 858896525 485124012 185721422 547814157 14771805 392407122 200682118 879339515 224645324 331102169 191403264 27476653 686072449 820410141 846187016 85042624 255755720 936241171 998451273 40553386 651221642 995406155 95325227 861875315 694825543 680460358 777277139 224515376 421145462 549180264 361117233 323765696 832746706 641717480 884417125 166090850 828497877 389871466 422657073 901816280 170377338 977829838 389960793 151516348 550177569 660333410 583485337 750588303 500459729 318444090 142364214 762791624 422873509 221853189 283229014 100789529 248173482 198856973 673733170 540991977 503821936 99233883 330578427 652274593 215312619 357627113 443019160 551478180 988329737 452092092 970458037 307517955 193061480 425537382 666190121 163924555 303649336 994489504 477761582 260096048 463049408 746786311 863464034 426974403 492928711 975507031 81256554 175045659 52045641 723492747 565091270 449502003 515612884 580065027 929020323 540995355 36687541 688236842 877544306 550075070 477917197 819875602 659535111 57196234 171241401 140240664 660715225 765407184 327174780 560757487 555072193 117770270 156419196 773154809 85538763 166583497 886947719 927304193 493590770 931812869 46351986 342322043 411098812 990036994 788391969 445243844 42608034 687666107 327592256 450180264 718057812 155433884 653427083 735938433 149465655 495929687 69768809 464420818 311010193 943321215 402658813 469915933 447063526 24109902 883158243 62312089 160057876 355886392 547643590 153023759 254750759 211011525 877492968 974965399 690447294 529153657 471924295 411890403 355758648 501513730 91958014 129061311 9607689 759796939 940159203 999521439 274038322 592069984 268903563 166713187 239386095 667266641 52744697 443584074 757675704 138188792 781973196 761975327 674083493 14014156 264971787 565646539 337072049 898261129 665040146 782202826 818306877 846822878 674226257 360484520 769317276 824074798 925836521 990763258 214796328 699894335 851185736 196489446 292136711 418643687 102981987 608233246 314039963 153156892 707694794 145792016 55057480 768235911 279832202 313904108 954671561 382484314 498375184 104237702 571520147 247607443 373574562 514630821 192786184 798216610 376789869 110181896 551872476 462599532 228128870 161399331 505829278 241603008 184265407 860572333 738207367 743445031 97139681 799766112 201106047 498547752 588737919 1836520 229588286 64104418 150099903 947866462 959702404 962293132 921462405 758250912 786670516 481754876 279674235 391289277 397117759 756486808 391151133 947687096 436212780 546190529 624655191 983589601 880994810 107119346 6640493 851144273 341745167 195839554 845467161 43944880 789223225 469941218 275048492 54330342 562509044 65342815 673872717 663676685 665788393 512426614 67621772 691688720 223602825 60141528 691402842 258670230 234172137 361394467 178191938 689819655 808801570 194043160 491492473 787890817 358156552 261532599 677254163 23508697 916346051 31222882 821754982 19115634 650343523 804021720 328990450 392641728 472543730 329980573 187810037 961064482 464235146 567873244 551321554 236921581 769468729 3766905 16526677 945971294 330290085 180856676 697543737 661042437 228553212 998674559 285745675 415753849 718610140 393023218 822626552 812594864 922767983 362492709 933109089 659478617 186553577 789644706 268768062 292766446 84761940 732425057 972736606 821495791 848978682 773312405 916093527 8946793 769056598 619671695 315275358 182869640 49102897 721905094 32810917 58488134 76151941 603570787 135486870 232261538 498161143 630515549 233648326 475551293 91499703 444784787 873368652 422131052 167206101 825076224 509590593 579226543 706909325 482967870 721092093 145083227 305718770 834869881 78472607 268746663 707971771 365182782 585452444 545175850 442719162 383858963 928136498 255322718 651122257 317880228 862399880 47700380 673709705 931087582 949682167 496313803 504882120 948008502 709182709 63227583 227177698 432730992 750027024 597183641 980106935 406019041 272634308 774008401 993470794 103560791 780841696 149993370 294863588 463567092 401545018 829308023 464197981 350416114 76836846 774422987 906866788 243409013 198504158 893165375 423069679 93319626 725572134 473941604 33334062 315627815 484059399 646494002 600235719 304159551 174900697 556639273 514893835 670168279 169304627 59483769 520178264 294363001 444427180 929694686 170431510 91198541 383678324 894114593 18030923 900245308 798813686 897756261 631626831 468802287 258795662 297414637 898323905 651076067 585063109 947237506 580034696 312937304 361887078 630370775 844779636 216128662 891264033 377563301 651275327 52842263 824784278 17624410 676055141 822347314 731609404 942264326 756195549 909543410 382768718 447093462 615312411 547974278 458872991 127328077 644725987 518102706 385512082 753283167 184158448 251508139 40726242 820087845 379884299 775668826 834602949 883016910 674750109 385096883 504791027 705675234 478377131 112334950 861595173 396025082 992414369 383317641 628157174 326645566 856066220 731758822 817953102 856726334 120359121 138451972 204869508 109396641 807590744 526087224 845772783 551438059 269537739 110809858 980065033 363850812 287665393 761429157 993215052 401068970 441429037 979575635 277787289 741600821 232962188 436631522 212677756 777563306 687632426 920265824 739275405 703189673 86975269 165426093 85011918 566017739 173189702 914614412 127975779 802030328 533501830 978283415 486680408 221824044 540437776 291124124 665934058 601292059 762710207 772424905 257088969 113200997 658251380 889882921 475164463 331803316 938743393 588196936 527188573 358493502 261853273 439279206 604952173 665962426 877123260 677361249 641870887 956563266 964198331 783508197 905576445 572970927 871670476 467569790 881817303 777355592 752364433 914829948 761971157 393868725 806808541 172273034 439191634 895254237 381746980 939106592 9082556 671797729 951884817 641436960 12390304 549290415 735135259 790658026 552964826 701677819 494956426 792615309 45265391 281799151 839995717 691227988 187529270 285363406 365250645 172140416 981932625 969132003 226660522 6282486 348249764 636117713 372934286 584820454 130759123 217586130 788676769 900366164 368074418 121478901 954767086 473256361 104047161 473223320 504503880 422609387 387849784 52358134 93259222 41669838 8308865 862030519 966167198 884628019 762792680 529255157 417887427 972213475 583498082 645860672 829687626 673796215 218891466 572110550 454053740 237097257 500346095 440112612 767988009 351306285 503443492 93486706 707612216 345068553 456760646 416223267 82466417 937650694 844271847 421572612 438645909 981519620 128643890 652426000 783137593 187462447 301493118 102697383 130398044 63747203 341069206 55930469 335070637 106173829 974293317 645963784 465317828 524287622 761310586 431288082 885248238 467173960 415719775 8503116 525679457 205256951 693608107 915642568 772159745 239108579 712194467 305976263 568337942 204696921 932609497 359870152 607997848 414698449 921305250 427269526 453532696 898332082 277435291 335285819 394148294 910997011 909401006 920263316 404110409 511310116 82999321 666027237 635396905 66260549 929258342 384088333 636469689 165441468 227116856 509641453 95221452 5065162 27625380 506957631 793404738 339425180 338320487 275714623 879142643 756306738 648237880 244492094 964736043 369283667 46411827 434384763 603853071 733484790 290206728 423808579 715068386 90119679 424603265 674105799 595766874 434298388 407446622 708343864 562218884 960160523 784530732 228603243 212286467 70865717 980414928 797685855 198251678 459786952 966767388 818338869 972029789 676044331 189083206 693058349 296323140 545446084 720384732 433606795 808232390 172442854 8275641 844525677 903934753 730620307 271293973 533275343 415616966 980264230 731158125 624492170 826025629 664403400 543809524 456275102 781425632 240390419 338601635 177657957 760014885 635697862 671533808 608639617 927324545 854365372 962291204 531150459 867630631 313179706 959451100 920020859 979055813 607441113 401200492 98602582 200990610 873502683 995197368 484735586 999702333 287605047 454193613 573712477 677272737 286087081 128784933 888418234 861240718 354070098 255348164 500728864 72360640 461625931 31575518 886175619 541316101 19056578 521069250 928338107 153786473 238311201 315876953 37529200 967045241 512375313 574919035 68416609 575183434 940811344 780358504 895687836 283830787 409720486 370104995 113309182 131939632 174454239 832543670 44142370 957744412 387935307 52663421 866507217 159669466 615314993 753176893 731031022 28285987 264292806 697787383 475470395 51188877 42909975 282505100 781335637 905612183 966932588 220057125 267354407 650525668 8088165 566739391 641719795 336254043 605911453 536201228 176290293 863111213 227848181 407782441 532518811 770951202 71769095 170047890 46527638 161456210 532584376 702688422 612347609 902667098 333155512 589088991 610597047 645492122 261640391 803009123 195119453 415114995 617877247 290018098 824648578 420590830 466201418 569020722 895692075 753611375 385893233 582875247 57871577 350345287 458678924 338336564 731803436 33578776 69079076 126663726 520714493 553978607 258343057 390237003 570650801 559747564 172400154 285604088 968738171 664526453 439079063 380935099 201807041 86126589 618368628 915064498 514348993 518346932 878167679 271565731 718348265 544642610 842017033 905125711 650485632 841661310 104710769 672587751 150714349 415601316 375374305 387911340 817211967 698973117 412897379 830773450 617475013 333078141 169917230 845008581 365042504 663506246 6944979 725057763 544568247 249872637 295710669 32454002 210401860 829628661 833798308 277797931 31822124 921126271 602043606 788847145 585216803 687696194 575636626 705369069 185209220 276443092 396688364 630019474 666584846 238227996 892308622 117865549 826660797 923704572 96150144 413709465 584381291 87465277 222696534 892593124 312187203 369969184 360147993 70244841 722744321 418049361 327050123 915809279 22610617 847117211 560843289 786751169 211313030 114537242 59964734 391203404 392291122 105681367 325175230 886730910 898008242 914320644 863853287 165752202 647193075 165372934 526635123 814055549 431269764 172294580 596756032 290142891 163019340 351597063 610335389 881077241 226981607 748266885 810882400 554940811 208763999 263101723 200287371 337204604 221669264 669491153 753877640 759136975 200229493 384372267 607339873 699315253 721176491 73593606 30173390 358476199 816794919 243137975 142610449 517259490 700289626 546811176 99092101 903208319 78328184 157950536 623368833 562516009 231078225 159190098 288696710 29179071 966715587 762933860 485648359 948252879 346079512 595985895 228306625 692245204 823587523 156501648 133729238 792451523 512034162 795806583 173161300 182093358 682147094 554842752 738256965 369731839 280236226 361623548 231051399 204346638 152275759 421884109 388410579 803249904 52465247 501801480 794574629 443891758 721332748 231727014 729773918 441113650 419949945 604072312 510960120 456277589 904208897 550339700 914870048 694666354 388785636 510714629 791882998 450944251 352573635 399619931 881166736 175986696 967831193 390933133 738327507 928074991 535817718 794969364 508189565 37751434 156341609 239267430 615530098 528944156 472708468 566770376 48244570 207937815 431134468 12889648 502551414 821827150 283967098 484218221 948935881 293302036 108621025 998262646 931581897 195810331 220638465 146883133 453349066 344520942 660185161 967748555 598721353 749870024 119665378 348726250 219298930 495004065 969418731 194358624 689950319 645223265 938633741 699677881 434045414 177367191 383545663 284716671 312081276 303956017 420194173 379367308 39123990 248815670 596177139 22446819 828974623 858454888 178902235 75855287 988388379 567397233 327935642 641828024 503274492 720555259 992569862 512294043 131383353 455498439 925405339 972849801 773968519 271092714 695601271 900968422 705398035 414375228 522324502 584782743 697189167 147469041 540139982 668613338 346545654 331950254 952145025 440736470 857548034 19511327 579582127 706222874 623653562 127773147 282206311 746012246 533017469 632866258 852366469 888299120 983638024 829491752 228219026 138147825 499428546 125572289 150393107 22437394 581925998 580345891 956149035 558176944 712585198 198964709 424499351 734007153 3643094 513788807 641378674 155956437 870067364 823640417 51679203 810775089 796600502 944077011 760459154 559583917 235653776 738125904 441369525 64452634 416544660 955684738 53682432 549771698 154315542 600439366 520358146 727261025 937247153 231336684 90554177 590479102 770568750 694072478 275785963 55613875 589895031 910549486 552119026 684474129 736439174 905451673 54551055 982590464 788452517 444806262 800675680 301719798 733911594 794915477 524878314 389701768 960193400 969753350 268940870 756142860 516642979 209934586 950597978 357802071 701359378 885177681 354905569 946768701 76926073 619957872 927057732 850816848 168814164 625076533 399653025 372238944 933930485 89784763 995022114 980438636 14442891 70709417 71225088 849740222 69396311 176964152 20706091 726554552 413069024 86035538 683576501 10443994 296215169 53954317 766205129 171131076 34780921 219708762 913943081 408990726 675813633 159861995 442416130 835992075 827640730 89529822 842445579 830065391 291359412 283745335 681192677 803551930 967379003 957097488 856965029 910109106 27172841 873374092 670827032 614288791 871841148 578374499 931443980 681249749 640384827 482605693 540928383 32879504 973988337 254228178 209616256 451734362 741434734 604565802 257726482 502317526 386955738 610952768 754880340 12618767 151593316 735638250 99857015 407007520 131303185 517557421 846201473 2076390 231886440 939261147 493150176 223593127 864218184 459233431 513799741 860062799 509643175 537135947 670751314 419548738 174762349 559072199 588661315 232462112 640769090 928893647 444498814 879476125 937938700 680589153 940045098 762623264 429817844 277447811 49072813 505935680 399647870 889655921 694127969 497922419 887133397 430804117 233994682 699239560 342138049 131773919 963679750 55416877 45091393 816022781 16178523 8286511 577658623 909892817 992213017 178817122 677181513 404876633 88571831 850904208 477259587 567112015 142318061 263779684 460931401 214745451 714369202 992078234 336395105 994031812 335629985 629590319 515932450 367276109 144103562 101658861 295539974 870810663 295370760 207084399 695543132 791845560 311476783 919040509 304274422 600271546 236790062 894584199 779209662 374129948 608189246 573699420 718053114 853718613 46797398 592558555 411272638 126671723 914513196 507357146 143294007 834533723 609639921 131173445 634437144 8454314 573465024 667944066 749529707 117483990 299183467 909466918 581867550 110096276 308052664 318581071 334220779 689280175 515789731 387510889 148528176 590417281 860238401 914243357 179724993 104909496 263718060 836086633 941380385 60876396 149095817 82775978 66373063 893978016 887694757 823714500 110367235 519093728 218315487 502947181 981479230 118371957 408575676 608327048 62176182 467637092 68770116 660509993 464505620 160152330 640640605 104558781 945197815 354761628 239155091 296305900 659005544 798856072 275567251 250643420 874303622 614450965 658160625 551669677 915060021 557540962 875214853 347870319 751849749 696414651 518526694 391918910 279433644 636678853 8748901 556305977 160258791 589054633 749424839 323659459 267438023 661434883 167590568 124130969 33873330 646855523 535525479 223404337 13519693 802261323 334602402 126101795 275047514 464584218 611221091 876725802 97572384 614968412 118938724 260387974 771196656 656688043 390189480 441857893 658093416 122598570 179313383 292782539 599648650 867138659 921313227 29185486 768482522 922111202 309671648 361631194 112355907 560335984 574088191 465198974 527059585 101271797 897840269 371890150 17587363 650313962 134948180 510723150 270344073 151744303 582262113 940146660 342004144 142013278 181242907 228287051 340770132 308503245 351488973 66428219 374928126 319437721 376418154 140282067 191863317 494476514 411108223 280340708 590075852 793287797 257227412 515225314 43470962 553066850 930529745 575873329 778103406 540431810 667098400 850172899 292390924 963415236 17247864 346445134 60622379 409189867 607734899 244505580 556717631 973822096 332443190 639631887 700828506 745756647 594485058 799090935 627448306 393002199 726558800 33634217 538321433 781341752 443174141 57524731 78096308 630785150 176829467 283626292 435361668 456550085 51631350 266691065 60488811 901618938 753228273 401769737 578116380 20448125 205227046 226797158 551217593 332706375 940500372 23333720 680935345 577015862 246922699 385959347 774987515 603087713 759965478 922593622 878079510 380090906 322141029 308647068 531494955 422274080 540033342 101260954 316741713 456433372 605016738 419588121 985041670 173068584 626738391 305560635 843956818 972300997 435048944 161775488 274301784 421445939 162127525 741115759 823931242 36817899 169662111 282069504 793907102 477333634 278491940 56089301 829596284 809529865 554576615 185797499 614619328 926433034 112754857 56986680 944644112 968230131 765709811 359715910 574174218 45650714 718759812 905167291 23726675 788834752 702707588 391607315 522206734 449823209 264576049 107289240 762785208 265556759 224323543 707512599 389902796 724505011 734142144 924354883 240342481 870014241 547549327 910400259 24182268 997780344 542747431 612899328 680938422 191095697 536621331 460190188 647256340 989157375 200768126 394458813 513339313 14078982 783320412 34947597 303014492 571647696 517266214 631994201 838947558 878359585 66828239 347184740 296213864 167461480 191823211 956832185 711664172 404244645 56905406 223953565 589514983 646854157 362736955 498580487 601815672 455931419 912892129 64686315 745839501 228481917 550869020 238919790 864066018 185774670 120025014 585535879 905256147 967036471 244904886 668966297 575362926 27697636 970006247 565622791 203331467 931528841 895725687 386452974 409535277 171921157 403956392 817458187 603735871 497700994 46728458 771215157 728232379 926027897 363677118 471037688 947555262 632688151 491603369 882261392 159195549 606216398 709403602 241930782 386820168 720124220 607819409 415136591 172265231 116521310 600108781 307150382 236733845 394066907 147438334 373484440 44322257 743380141 666142802 85640494 290532030 331128300 642601423 180238254 644588019 883750421 846016026 650061033 90510076 571076035 130234206 163469586 10999858 691517934 78781857 34749443 243255885 277071949 446282304 111389949 240502397 584776516 507835251 987933107 284598787 772468425 539506869 195146045 255296985 310476210 457779882 531639181 699764427 270949907 34024318 839892372 730795873 194564683 483260473 167169969 441862472 588924184 770689902 569799936 537405682 517450266 417012911 256409964 683152327 842632401 520221939 611881116 793415904 545736004 532756835 586063967 840393323 619103871 153233900 806523286 960319078 265897125 302035202 477951211 765206724 507540740 352889866 819262156 872410371 438999753 266393849 478325146 198533328 363964010 940831907 992288796 23482932 419526011 544595867 617577449 888422702 854207592 863746568 689889194 917263143 941426002 184773171 795121665 121167078 775680754 910952520 497506761 496837698 712112828 94417869 792004685 963467042 582973304 672330804 238768995 888651118 421262303 499104611 973479227 412481424 33228223 92826185 664857198 862967022 76914162 937312801 795972020 995087688 468007578 510486107 434052825 999086587 54732065 115753984 219184611 335052970 812986169 212981891 618522021 530441384 558844495 530603319 271702815 319837862 29381950 376582255 335795470 152744745 511805972 427165734 903360850 634905264 993895554 616974925 31776788 22029430 317437624 399548904 582024399 57909280 101827736 21383442 746625243 296547682 624746296 240479452 618870790 390417609 987354351 955537988 823172675 215513724 812028155 882989847 962302674 257798191 183770393 7065532 858613680 462578092 681628830 220843275 997065941 630338205 858790366 536934865 490273558 870044229 838314637 291001824 412016945 749742165 480017388 469798964 285790821 433707122 822733525 367061590 807616789 634127479 19167391 729605073 816055701 253682727 644033293 438332581 810842084 508991166 120621662 77732296 482487442 790089434 150916216 945418745 175295472 876602049 525379773 388139961 225210840 868960920 684681874 888413857 359396483 45367545 437503549 217733032 718137378 324959178 465490592 626380138 38826946 998144285 463417150 429618628 848048065 840868507 318923778 440024607 359140893 88592586 730645615 92348695 744505528 32746047 706631315 456452537 587225470 350268940 583069374 667706199 228134713 387234162 758069446 773135074 534354922 204028935 487704429 270175422 24464198 790334034 370478516 589974258 803919985 19190834 176339124 258905405 692542438 919157385 971227337 388463078 882162100 537984494 627875398 630124334 856911451 992676951 233870165 381380764 591701733 91859818 204673233 847988394 834460252 984127170 331475287 437717934 104655133 244180444 918728280 983185482 391605696 333839816 944494168 34131403 695869433 413574741 53372922 971585058 188953825 106727625 388335734 333822935 687057731 308880007 612181709 603603492 16650426 359994324 664818768 673757642 957115086 45139276 541503776 900982449 461195228 803807649 370604263 853382856 542849341 422810080 884378668 277616118 875425071 62858965 398192664 455544318 361825984 270134224 856857766 172912049 557763624 789239294 432828196 796256396 934638328 413267277 904294903 390324361 391988394 603727735 907295293 598024701 605936133 223467020 345910378 994285995 543773643 377600412 147471050 798850427 314893529 589751860 418813370 656228355 504100519 816036093 544222635 204980755 661148350 513129336 416783014 67067266 987627671 855533615 434192814 172481425 807100997 887378084 329838170 416095834 914128712 640923218 972599012 95931299 674374188 245481113 532591187 736840889 950904174 50238295 361585542 601778322 704655848 88759764 60612803 928216825 148307339 523720907 600618314 866495470 333124221 351647928 659520802 702286090 6047993 795366311 684893755 19666516 496639504 272984718 187286867 899788930 653155013 751495008 437326471 855171379 824619943 281454402 424512922 865248804 157990403 107098952 394354645 68758381 793126104 407741831 28744997 720452638 663003486 742465249 688604355 923697291 460206689 235215369 323538171 664857944 808984567 193958017 859871760 618461872 100386791 475015313 835802197 585834966 495293740 4427484 791687228 16373306 981769973 389601333 977603967 1480759 787356025 644839584 479471608 218935477 262048679 363005423 409869814 641701079 544331471 743461687 763497818 405171194 855791006 456220100 690346187 473664830 82319147 443464883 307731422 410855831 423109840 160577682 111450990 79741372 637432656 379409940 568544712 740655960 71994635 316359570 776132102 556644512 122745354 210041672 494180064 244685788 189182655 228032656 907552854 842354910 183400571 505923430 712689861 462124784 929068161 508311142 775692034 115136059 606979314 257102490 27786782 301476806 520210925 250842331 762146359 251817023 597590280 703313698 400185651 992328559 540373660 167881137 321344529 176872965 793568841 636020475 416313126 192566785 214099096 262030012 316433661 609108014 973437211 344366502 670513508 167661854 184537069 341540065 929522965 511736090 673984290 839166397 695505971 860634984 138050847 929824695 981537641 200914633 372847321 840576754 693041946 311938413 553721697 128027046 756542475 315110144 34773358 338242417 378582918 4644303 573084755 2562932 271939205 404000658 711153817 183333303 790180055 585540389 802846913 486428937 584842357 725536399 816314669 196761305 471857885 885949363 586538550 143723011 253277543 600896507 373789377 643344373 682297946 803290927 142481958 287859602 238344903 300639551 513283179 886758871 423292093 223632415 154087880 271933199 600286993 965393954 473561187 359969784 883342593 863625180 14888290 378021209 381428290 283705484 624787073 6559549 595736150 699316223 599463199 63497944 171887411 499624330 300034309 242085129 179388512 757331156 39687310 294839831 402696472 587277569 260496327 50537728 327622245 406961853 790448391 928986742 515251887 614780547 496811633 562149872 72907838 372012076 161630312 678306714 331850245 191677457 196543480 621466329 977734405 960808403 951147601 844458128 45176084 706354898 854359741 176157960 25260201 194144072 594918965 801992053 204691676 356818512 136314001 12304449 545408516 316052051 789464983 4409848 705332706 378072214 41592182 497639600 67229972 495482564 658860170 31122977 195433027 843525885 33658673 116051379 333907770 94255560 367027807 607735737 522166460 585990587 477860874 618660294 998242566 95938989 37132118 300392056 132528805 155024433 660551733 534787656 763167341 767002199 555005475 54121968 813496647 817679518 606465649 36683932 992325411 435412158 815404855 959346411 345790258 116652908 861114050 600251794 729533209 148185405 939173596 717184736 39400498 223735826 39175549 561972408 672104456 552308735 613540292 21617145 231923892 932765509 198637985 622979025 243220797 283435104 999715991 756064659 641462894 85862251 857968405 113862942 873765305 301793901 199802546 428252346 972368290 317680370 154987607 310470163 745576539 523915948 709432114 61899828 323942846 718165678 683784897 726896845 940591871 469621003 654738954 35290958 11887213 107223077 877071224 63847894 329070077 359438999 903006252 851107783 153196260 183650516 317963889 655279851 488497922 274520876 114086021 977702510 805722800 689049678 14926123 896578638 27578810 193429792 11593459 586769584 201907951 405747729 447995701 102345646 144689734 196792890 270463738 21348464 678268294 118773258 654162097 478210440 361682165 412364615 909380264 762148923 417982737 531149751 878389541 907845972 867539104 113567993 731167357 98160371 90291768 498287299 535149712 462037596 337720680 854649849 280012978 423632005 105375844 7961417 395274593 815280139 321705655 221129954 159024572 118657397 509040137 383112080 226621148 909317460 659546474 788147630 222295876 789179623 489024488 190422282 565628241 855857815 939055744 763491828 120706763 713621434 498920485 936930535 673932433 891746333 783924207 488944020 294139035 313885360 731411372 764622175 240441474 926897561 662476914 115597170 610309398 438878328 196552588 693841455 106523069 197514481 993096932 649707640 247932810 30970906 560637142 534405572 434511114 239466125 123638382 4830892 957027062 310614127 224124709 808415008 642746324 811175870 808949937 786621404 131877311 999345264 308168909 719168783 585208489 308529348 310096934 395275792 222456984 702605376 325731031 565199822 435762883 430682292 926566379 357693856 669527248 122995240 214484063 94171368 837302369 547740578 158544039 141332051 131134868 986947074 897127705 605023975 216050495 436402134 747284042 98029833 469826921 274581710 498399256 112435537 614742387 579266681 560205983 935510248 448447553 990548754 902870645 297433793 714295675 62158170 779058899 53893221 513457290 300141350 934898927 490891780 636426063 993430382 549813914 630773975 733179158 66947528 522376326 17268856 319171222 733766991 836830705 306414051 164715826 826936385 669741086 813404534 330953421 739719863 152438174 327613697 567072244 364632197 919543778 208232877 782122617 672654486 299209735 516630711 937924953 453031289 216783877 650054831 965939292 444677539 808116769 219906678 448123928 288971742 30836041 971808219 795415332 877387137 665122670 471901306 397575892 802123356 51173720 767016588 658110073 273310741 702030495 66662651 352621165 682731496 557264876 740119773 622008938 437661842 260491699 939892437 710361190 466463684 280206468 772799431 937149347 928307673 159294359 134240146 266284438 933068492 923426364 126625 286521617 515008601 595853213 353978774 74679022 775391593 493579104 399257265 420973041 583467374 339823037 156136920 274378948 426611681 550416457 673532663 415267270 730959456 532909888 226690488 542098004 592078258 771870627 837679009 136899753 352038027 441901945 796432127 612664625 141492700 274494613 457526158 630616952 56598806 653690507 334878446 257342110 684164820 505899633 321286906 276995245 50249244 990761553 691240339 414815054 806622433 739540390 366016703 906645617 723441004 372860199 863396095 838444628 950887013 78679018 71667498 732687067 36580030 898012923 929475893 52864122 661228284 530675859 431254773 919437770 401275015 186235586 501318283 555569553 827014356 3307928 979875190 946219773 494166708 541710418 419883605 484679226 800802612 520556775 967410493 492407121 433833805 872564175 941520721 826275852 975086572 908184581 254862362 375382298 549975785 534984142 968064203 618289811 139217972 359550081 625409672 799658432 739141075 372017825 253038352 648634869 227703995 447544382 884450771 666108647 261999829 33806974 903513183 725645608 497149084 424178958 300730422 981115319 810319962 561225068 594749653 417221158 205039101 117768851 701235393 942768187 739337721 851753084 702362938 89679136 957008246 601242071 558576278 468596848 38630139 394519779 216211551 190890378 288411503 691441458 289064893 146186666 353587519 470419690 133066091 301350043 622150753 216779322 162084882 973474039 155381276 308119242 805341375 447762498 224446699 572431573 383882360 349123574 384673886 294952767 416356690 758612569 654456079 109321774 18570177 41523485 910415769 4879101 633829817 991297454 15258458 101975681 93981570 820346974 428319794 547264661 770653578 931883110 732178501 394078726 902384727 215111746 778800522 769340732 11147951 744283316 597080809 400822017 406424459 676793990 405776991 492971651 398543934 351011553 452347548 835541138 906022152 406451909 319999233 479578182 504848288 545423094 31687629 965477994 555069752 668486902 785999355 988711899 592455958 62932655 820219923 589424170 10446465 400732827 842072982 605789881 439725440 128640015 934375856 245995328 428434297 816566596 458557451 624970012 768297334 596791908 308989865 140385337 804866214 898486720 849693043 54421493 385393705 990394196 86095767 756735140 471319996 22601404 677981762 306222413 419759698 157864347 607825171 743079787 929758259 829257563 618453142 451270177 643502906 306697089 776988968 170826907 402680528 452760494 232183338 492660873 800268658 640931137 942950878 310217982 219053559 71659462 273146526 635287242 676633633 282159881 745793572 14083238 732527180 653756236 930899635 983740481 239726344 166403258 898029679 744043784 773885131 303504859 802722254 752547604 233087774 121863053 323517037 839923037 738945115 510062198 779868784 915674812 39544708 635581432 301488576 78997706 182337250 75026461 523791725 950797465 540611683 991334577 461005981 798521530 755753318 578969915 590063487 64326735 496382906 679335258 933080790 755163930 489172748 139857196 785679366 27352229 274457309 233902121 821289744 687490195 79785585 219825435 851585186 39372886 754362482 943089101 440749619 292661632 84093291 719816414 660486666 243730023 640492208 140757920 657143129 975849699 505374218 623424778 561134925 318121005 888331270 616549959 440594868 147325491 842110108 942560131 651387427 865686663 189068609 422750052 370663215 950058699 391728252 633529060 695142454 732796519 975191535 431592411 303041582 851082815 874389112 487724588 107551742 615854219 616887721 846842303 976301656 628777951 640598974 939195396 113368590 688570513 370569829 941069973 819950972 605324911 434006054 342365918 476098712 198771833 646948698 687886286 850591725 689802916 66168439 654123809 581615068 751660822 666046027 543560424 272998864 326783994 127221344 838857018 473417432 474657361 786278372 59671635 788736973 723850268 658122345 36431821 435528625 53865646 462996469 813018809 202090137 821793988 473251623 638544385 129145914 574472674 803904205 443548839 464997560 719455893 399525386 552561576 313573714 908264455 309965981 798283155 348943146 864664333 669060281 396067709 400800599 467488639 432579709 435129830 304746825 600224129 901475266 540896232 216949932 456505272 343103873 730583482 401933914 721330360 313864433 524160740 408642060 969834293 12918231 455979596 11060307 838601 582439640 149650844 643190266 306145990 334355845 987007488 827408156 556883489 644142007 398014065 26223649 351457691 433256865 499454772 811344322 318504016 658338857 826368816 536129181 51478855 305213699 124056677 837938201 588942611 485166464 467110058 230889182 302208995 874965547 910675345 698268365 302963967 44493843 527436656 991993438 908205483 588867303 718700942 638517491 219975900 376747253 616328700 576412138 486682835 574330547 74093097 423419338 984596628 297275436 364993607 553102302 189692158 509762948 542048048 726484228 9955124 327122129 325044598 143947280 748708749 340177283 397820572 600798859 289269359 289556078 428994762 962266435 170267394 752931216 755850856 644196313 687775699 173886896 576578359 634298708 475951763 166332652 986547852 865363343 461125042 838620847 438566615 263084601 687812674 849714657 849792332 534634109 196697652 943046196 882728420 485430062 339636920 186583351 799219945 375963020 58687728 61542311 441053419 113835805 263760569 523019199 500770719 844631114 731899535 45730338 918892126 484714449 662162698 851298024 335140587 776894639 60792909 74960761 118726818 775341486 126089086 404256252 716685493 753582159 943421333 799642248 445178835 974973217 320766544 1385044 85516880 469930575 920782515 436991808 668722351 41216139 717000279 357453037 896694836 393909189 682148026 773878856 125308903 617158265 614699760 312348898 714936468 971412635 272416970 8397250 775326355 966750348 128388529 183864353 952977463 889316561 72068828 943403022 430026733 47708938 969438585 939543753 926247740 407154152 4282108 334557480 546199804 458033179 687207560 731420873 602917184 204067008 951900743 23470751 582570231 576839072 304409679 277575283 250228704 904258339 530821548 964206869 721351763 794642033 27963566 969810699 772586847 500600524 583367641 131449565 897436257 69386872 206532122 534996325 660774389 17401548 906695141 15763889 945138511 660884850 560328251 260027695 917882627 653649249 989033708 469195303 523058340 898389820 300382506 102309895 715089463 431348058 836739193 798907454 436038732 521802662 636068504 879925568 903436408 357823947 365476488 258398977 527295333 417257608 428245658 302833853 216615045 640479196 146383839 584371852 895418531 718822055 521852128 287877808 659582498 846735816 707919278 806090793 654503382 460677459 702206370 459106610 317101457 590485272 453028821 425521453 193333261 132862835 283186902 601949508 298016490 805454153 482963004 450238872 738873595 35710066 258696562 217122648 314298619 159415651 149383156 103744585 81596793 393336003 914829561 161340082 697115436 597272161 524190365 365465214 610604359 233255119 908428250 135166288 258246533 764927571 725836553 853971455 729681130 857789497 405530410 91588628 838911501 897302485 472836487 644815384 530766756 977154436 292010746 588266973 171856593 837693288 93319399 947945482 41955375 733256882 257539463 202971709 884891541 330284941 457665239 754968346 850441730 693400080 162568610 448658543 185596257 422521500 759795528 604829877 307447720 277801030 906554334 135593539 544097951 544912706 189263277 731477558 786905027 845162876 726834106 381931322 260247026 923171855 469266183 252326590 936685379 665522267 882985618 664130663 726582102 192674737 884756161 529435618 993763709 483871215 769508566 65812234 802731534 530598252 805494161 174945050 917258854 848285358 972657766 552973737 781703005 620450167 883610018 584249079 756077398 854199155 931734645 276592183 802704363 515113349 506367221 888698291 971837472 762759292 146132463 435132704 552675741 876483842 822302170 554294266 889934878 480351837 319179926 100130366 123556847 27383888 591921039 578776210 971606563 935176991 286539977 840825297 662561478 670265349 300925582 712274864 233047833 405955885 573058979 751936872 994635772 145447679 514606266 455965437 674605674 341377513 930224638 732989330 30685971 417614586 987162007 778363256 578974550 102025053 540209127 930449419 163943881 828889708 379755471 685609864 425073291 730475882 862053093 149131099 160937969 579309983 673367259 757330582 944262621 193145024 697487267 334328960 721019014 285845662 249909855 911019661 377614442 982213748 952787953 118715465 755969177 380447224 108551941 888552436 993612990 134995130 151792070 329590748 742118871 236927424 877188657 893067460 3004747 681183263 560592262 955493023 96077635 16909951 386184786 60483222 400713228 36576946 397003706 487835441 416019991 876865652 377960948 580261256 185285982 837976166 123889005 622216428 715191806 8238960 631677129 443206270 535642075 92611766 848350484 6649224 914066723 979926263 843436457 497330683 717625443 270775965 827267415 70315498 414734304 794803034 720812560 120394733 170230807 258514699 138957234 774820238 364270999 103113143 517274746 902805383 956688311 564134997 528284044 784474314 596447798 920168171 966977503 463431141 978866194 849955560 167924076 999505596 373505554 815019470 256011328 78487018 466079627 530729684 323384458 905636096 356824505 978092881 588760416 159697684 88418802 432500799 707926293 377640180 629739097 496111322 394734805 63738404 88485493 33232020 385929608 219936599 253189231 956668064 430730206 106507091 631193379 431265313 655054889 476551590 274618262 527572091 528411041 822148361 88900305 964604675 39565657 109012551 911260447 220376148 20060933 245252453 542560970 722953048 513976862 502987675 303046147 893454819 611314393 896024256 940530246 137850020 804615140 47504898 604216536 102877619 391309582 655135639 291370351 595464254 36600979 138705366 191514288 673948014 516374653 879291262 813438397 616570017 996543698 48087331 753746908 649027366 426863097 649798432 408194643 655801520 159890916 10447961 803574043 431575292 749413655 430350886 989720440 135892599 677964342 272365764 715638532 151701366 482112216 687298739 591586244 992787319 731966772 192794402 391666217 788282527 523355825 85278069 402800535 973520368 609672369 439820640 323642538 808593915 680915898 372177667 421403485 445690753 222532813 377132778 456669257 78738764 654780871 838689048 775094550 621996718 143865556 461281739 303536067 825994367 518942163 322669118 740071994 512603612 909533314 255045723 662213896 970857075 183183316 102568954 823093606 550812190 149187049 24194167 372357231 874320219 408093316 482197915 748337055 110724792 285533532 515296325 251651911 69720686 39704788 653585900 602677042 778840592 10004236 820415808 314841127 227196200 178438616 263740202 969822928 343216856 549876827 322156832 625242179 716121380 714315258 822064100 344119632 651404781 597326156 592043336 565690507 649596338 246046618 592034849 629864579 183611387 483179265 953199944 743103019 608036574 392017134 388931946 145965186 377554849 164091029 966637715 626332540 199411760 566114385 26065575 890450313 750669621 409108481 868748427 24123911 770670820 663353574 346740700 300717444 616249511 686315688 654815009 821767478 182774212 656760339 828721723 357124922 575569777 530218007 601030280 389497884 962958244 633420109 550712990 518543762 36027667 317367806 233787416 39739832 265648763 566245884 197136365 439768515 7554521 938371060 11932487 892838786 63417138 964273769 127134731 857472565 11969877 964620557 738763655 80362802 28525094 837523284 2692487 98657289 124865979 828761432 983537705 347379648 797369061 158182918 313006764 430315952 83480441 950238955 916770433 321222316 714091216 942172178 921921450 65756761 306258631 70758080 796253797 841677077 498930830 231780509 742835340 674289686 614897196 391824573 667902597 613692237 130677760 876931098 323590496 720008079 347124865 657858018 821768287 674410887 994814946 857956178 935482962 852730235 532996101 525604977 937186454 59974651 721639991 180403782 172828379 233334575 975215207 510619141 4928616 579259915 354997177 410117086 549203129 883632297 891166039 949911831 279391429 463035405 306695021 713651816 510738323 237516819 822189380 785006684 145059596 759551835 913037300 305302348 534660203 217407220 469984316 114754812 552039835 695639249 843270318 214349940 589973204 258846430 642585797 779867250 228830808 762700879 854574182 911443327 519985199 880238749 17895906 963064808 750263212 376020291 766135796 945598314 601658126 914118162 705750521 117084287 753303752 848093011 585303133 4244452 719601256 849624274 327992931 50625396 10995648 913356052 91771501 75764971 767403316 435692493 798152297 39656596 162159495 301428673 778136274 392050828 177417274 330363124 452923182 176163415 638205166 652731884 494672871 729957177 714324439 797719508 811268781 957562070 917084266 178513934 185007410 201553900 785504396 162959815 797305846 818714791 751284270 899065650 224071670 280310583 354086172 423650887 649567729 708850255 561525547 477261552 949273146 780579608 970318467 357002127 398087226 430650156 826926300 205346433 977034035 519094505 472761522 471181559 762253298 3056576 644346344 538840779 282382877 604232844 486748687 502295536 545079905 353575214 690450337 166906698 468093028 843472852 559270857 884927617 919327507 215971866 499381441 829588837 336546693 338389072 684485885 30618583 680331800 994421351 996369689 913914331 993633588 601753579 302407479 505948052 14467717 988283399 530441852 135045066 359385923 924868076 281847551 536138868 811010216 535891310 669243413 536463565 887825300 937004878 181992568 652827898 739722257 248327730 963868616 48213533 436836264 742112592 668985340 157266272 898787905 628904487 745399376 185082796 485783425 255983625 141634530 215959054 891477485 700190714 687428559 731477871 494415247 556077072 609815145 107274398 276422904 803229260 816088776 962129584 63608157 894558926 838611256 192531620 492369506 38395727 705051061 604253550 911291617 622047378 420181884 938272093 834021235 637261928 584200715 678997212 280238245 172835245 630235488 284581550 875479042 512263153 329736089 577624680 7320149 737456744 297583592 977797385 345332538 63234047 164624014 555130188 326718953 577963230 332799166 114937402 412894434 998013036 486429358 942988088 316108300 228350575 278088405 9556627 63215262 611739374 597940972 157853898 964393051 688062281 741952232 265604159 745097966 927714739 622274733 755746693 787429321 942086551 566097080 771962143 962483956 224375635 31452960 828553697 427063588 924599433 418846976 508324516 743140658 39168211 732950942 295358744 598119003 857667170 668403675 80915838 822924215 208234003 381508161 374939644 581489183 19217522 867209584 675976175 219251646 97783807 26889995 334989803 504739039 204795139 613283474 691158296 856283061 932874287 356343055 586130243 355238389 576592363 394007611 877992549 862313000 136064504 405315436 531109468 693442327 925538681 109781212 68132870 566034159 511077591 25801844 406062063 909226687 854006145 397934953 510961478 960405332 372818189 600479479 792769464 555134296 482704423 568821190 982054233 734807962 48336500 93572564 669128764 752250498 255295737 141189242 376062954 196434515 526982119 148822889 903752823 502003815 568327576 434615323 641761356 201831453 332448829 716112428 353227163 524844944 550561235 2976912 509629297 274212356 773145739 9984198 537667856 37366710 258458790 175129577 541001476 381348367 610100720 93523427 732996932 804594018 304597312 438847376 72410528 927956606 278554980 377901364 697992747 707217107 614800686 689767589 667509047 338374100 732028379 722729582 922073077 153058419 163375345 86288046 282748483 616093646 500627802 387156613 515128241 494250093 384572906 375500099 593355466 886814947 311879947 914789098 677937014 840745055 384638313 96855340 711827526 731663748 457785901 703147604 18183887 840896987 668790982 297716932 920948880 332366788 746556593 291249906 763412835 337285314 915020421 231421106 481093927 685053275 762494948 747573010 519529875 471522920 359381182 603136229 924330354 679812905 754316322 543387416 295710054 596177233 44896479 876091068 824605813 513906503 263877233 458509544 170209713 686389108 757117833 709856163 504014115 674244256 753034874 683385706 513546453 190836005 707200878 165002108 440814549 667930181 621340482 197841891 257182669 387221107 92941647 590295999 601393846 852443254 114439643 402751519 45572340 681530754 568104951 680161631 484912648 969895694 400473555 299073757 551941160 746486089 735880581 169732252 568818595 481194755 383135269 613177769 862358782 728200150 195057212 541839481 131787738 9564315 348440105 874858896 395556655 30870172 830422454 178198123 744461741 272582244 524298605 313576866 636287276 834248834 203981733 307507938 456485339 563282166 885569281 836175838 559065651 926409541 662192618 102204685 395064690 717564517 701710478 211709951 720276311 612022344 112209432 969635724 108524004 922986996 401946566 142511 926940141 15770199 796184433 715151413 632607188 823646069 546646922 503871468 571625827 393153643 305546822 272360817 556286981 37468131 239412539 884417543 38893671 406425924 39094134 508965783 626029687 437814375 258226024 568143091 620042135 31342001 123822232 440849377 301222969 658118181 475188533 942662830 585382391 116557098 294594433 603374269 787537654 609308125 180499266 78517702 390935235 734592903 99373468 421844448 277442665 957244358 989493060 759556506 308943170 762201543 685105759 125477624 267148012 265659615 174137556 846833548 521301578 943465802 523043675 216128295 971738071 596451128 166050625 758417629 843182314 624780742 780656559 802903439 988921894 292567931 185249891 530134584 53297958 829766482 765205764 281944180 362482038 936618627 215841362 134243793 113892599 125036991 66056104 167969238 109954292 678228000 959505754 434689420 521497394 856564764 463533570 392213341 314757474 744833867 832940430 832709200 994339584 907454156 173329586 81382724 46191537 227759913 926729862 412929753 559887589 261025417 319565312 729100967 117585504 338391222 208745119 243295032 615568362 992534922 918813149 537944944 288147894 124971582 253016709 105185257 2801318 859788334 117755919 720839323 756485255 593969531 853957669 773293875 827701204 86856436 546314852 573766352 614203970 682444903 72901714 518657687 678797545 702257961 620341961 461050991 955062836 822900003 554970082 552145119 819723255 628745055 378233698 538943063 88663556 430311467 64674199 822132472 448731811 240507444 826629445 785660048 388594587 231140389 393017895 116374892 520803152 218490681 781234393 359683801 299982965 16733000 745609467 598560538 862205196 877670843 745189772 486316834 483142836 459709716 773604375 995252152 69010096 849195462 219345606 440993983 800098729 853651509 885158826 961786586 133291875 507263135 101020537 419469544 761221219 804815570 588943318 160970834 131643797 989970489 126717564 597660010 201689043 550916763 106089645 598481117 713471647 56837862 977368095 772627242 976420010 246478517 220189412 771969038 873870104 507566842 795624839 184816952 979599938 607057318 878641355 130913793 294184409 366369390 87885759 832158272 768433419 793708154 18305753 633362053 380960483 708108871 296319463 852786021 166693630 343305496 802543120 558910364 801916976 857623714 751661106 561361224 742738818 180175500 409299224 399448155 870491651 223559000 540814148 286510088 630662673 292759760 920616750 809300565 546782265 423399001 720590585 448156 540211715 907860919 678662808 700027233 256043502 966876424 345004562 991823647 991675766 369243072 56945302 601286066 828017711 505215774 724249122 93294419 395589454 658443612 973717868 298289845 393218394 168658425 870165213 553324358 774583701 182665363 760087059 147748420 164233186 668102736 733840656 835035942 694975804 525561438 563586923 433601147 848843279 416342446 375944463 87208614 443922606 553174739 520007662 248265432 860864918 167418785 508140368 488123763 657335917 273575685 957021354 861458956 879081451 968860336 623330402 385073270 440332189 849871081 671288842 355203781 36559426 553699723 168909720 171109178 581891410 573136586 79759893 2179489 994828829 633988580 464915010 138961485 695547655 125885458 568618182 117607605 679087553 341513737 966315540 188997983 409523427 156003362 91191024 306727531 689925713 870652150 89997412 162513156 695452214 830277814 682398185 579361386 791177455 345583737 919630718 645474042 231489564 852322159 708207193 835867369 27496776 535068160 413215205 766276354 582790287 817927049 313811780 814792745 462274487 154846174 668707314 242184904 447226807 893886144 784862369 515855477 626236246 297178597 857748928 891360846 156187375 978974581 758578882 944748763 960675254 267009226 746853529 731521681 52059256 397297962 503802379 196317820 419518700 432660484 594036798 403704945 598226287 43396895 758296720 725262203 751178636 97431696 49480063 756052124 635825220 273225676 801511125 46117899 958888848 428518577 322031020 813406630 218970007 573308122 540718840 277279382 54168498 9384439 842677527 396927970 253675221 385464163 842001538 717233333 677462062 11843100 345974533 805500992 211631478 867288794 996770005 526880384 202785297 97692398 93450137 558608093 403994888 535712463 746834906 426933082 541149238 727966443 995040504 153738211 204063995 808069166 450375159 942706968 330542036 918481158 643391378 716155934 735508617 590151717 34073335 675325315 402605798 804364337 195906724 486531733 921227346 66005204 559382596 288511208 347058451 978055676 634216809 498012753 354793648 532992840 131541651 876710549 264727730 13579845 484505095 622194381 376031314 972032824 90600449 735274042 336186488 608954766 665861231 627095858 869841817 19943831 227945807 635096338 456626700 318240281 559923656 142845838 208368493 361745567 199923487 639344311 213480341 734685679 837651425 937029238 832554395 229794270 733779429 36159140 245067397 773691535 211695469 491677952 465451030 230431579 476094735 430053905 958694989 321224921 858806982 821001431 376613953 560646741 625447839 299549934 689074486 879688066 19812625 465460247 473046223 87580909 819381957 164299237 406831856 839093985 659634147 792290334 92072397 790149997 358150861 628887290 663121076 959943753 971939381 881699784 902442112 858483124 468601080 792736842 496260129 20360253 808760355 369128643 802889984 423143894 894029807 890282470 434692630 302063033 148041056 533748105 785470519 685698438 799049457 455709857 43538949 967346198 728334891 157724511 799260104 2277540 682446696 863756944 384094943 516691022 897625960 538172232 429050446 697888939 959938392 318443476 431078752 7156371 264440549 363775947 393740204 111462089 239540794 109943012 151708944 526208383 48754230 853035479 852111811 460244517 733256926 215660440 999192022 7155593 934993108 941234754 484563801 870360220 249489855 462882729 128426110 679144885 155864439 297351769 858801215 902568745 521961874 545826510 998958849 679444623 594266885 787804690 186133929 971562361 161668003 265844732 15132669 109292260 329609761 611855973 710191995 911820665 894790245 349140012 563019365 916706016 751380583 551114580 817186271 531193181 759277351 498845461 682047420 995211280 611289532 492153293 980422808 817694214 59064158 728410773 690906109 921045126 380134355 821612288 524771039 993289817 796339326 559541041 596571115 480942904 162202845 404497306 849921312 327485536 280639449 931617003 588633805 715410341 872698217 319882876 70909868 755235820 337104076 371717069 868785384 413930170 277783179 665257665 15534265 246569635 335838968 518997954 86354166 913861555 880629416 631310897 712661732 399565427 288502356 501999676 548290904 558944865 120196440 142507659 646274157 32721897 916077384 538579230 614238247 889128597 721420500 627501183 668487511 3332141 616900419 581912247 854236831 390892049 954461664 142238741 181702053 866845511 317800850 515721845 75622930 831605031 12615365 998623355 251321497 140300766 154270600 495634399 363930126 823358329 848044406 573964945 323453439 72483288 577308252 18311845 280910236 777174435 195673556 95572664 177762263 776518889 725166143 292443253 494828126 264419050 283198086 17526353 224604025 945669341 387080484 593989693 67205685 333231971 868655239 167316897 220387332 911401973 792589209 275646656 11231749 44140515 991082187 558141266 670631738 889221391 32578363 490247520 162897112 757310041 137424732 875775634 663839419 436304881 340707891 978173521 943742354 148395402 85092794 902743186 333658736 335128051 242615445 163979086 672811316 891981552 859237965 854170055 471050807 909743053 372101028 938384636 43868687 611564495 430251875 992154351 520950805 98648017 546437296 761917298 792826246 911536079 548882609 148297633 251914231 696577000 411820787 423390827 36046119 774588735 519505103 568103616 78077194 143006268 15387090 299527365 835458181 972544249 627750727 895200182 420325689 860677943 741350496 862182154 498945288 519396080 680973811 140451362 515045212 29270234 142627202 250652520 872190545 33746593 897252760 378222935 283772592 721105856 762316072 29757205 254580927 643593306 277327998 29468206 132471111 62690068 206524053 322394906 628577567 415750469 214563171 268602828 193385590 770421973 605592684 262803998 132788523 161797191 689594767 142355248 967489503 958866341 744385945 237676282 89524526 992639525 143066317 752897442 779649135 191160967 600835657 927674045 350045472 759384072 319426475 958358863 511338587 503393292 562457178 640605760 96166331 513989967 31640701 755112163 758887855 307420115 830182937 307658535 268303599 180947332 989754854 931179797 682433587 799131670 472423131 656472285 102906421 466491343 620359178 307075721 454180520 563587950 468391641 453743168 66688925 565218480 752388038 880037016 232068041 414345362 912788769 835280427 734571609 469927453 141418850 629974827 998255537 451442916 879919650 931750914 271512727 49037750 384693310 127886910 656612526 409363662 985336234 832637349 403591298 573374573 626986125 524623100 937189858 380038368 91060173 774298130 622852738 364496020 388823021 841731936 516857801 190655796 853531353 789593182 376073316 834356814 522530872 294043735 442112355 50147941 456029039 944890603 29551567 222725120 564795514 710095756 403095467 717628162 147911071 670917661 64185230 57743998 906707440 841713863 750118535 553393321 482895216 939693981 334863743 921640576 447193820 768979161 512490845 177779952 29517882 415874282 910012127 971715302 410322937 290938824 817801185 991690383 385907782 137889741 432091154 462623879 211134300 768459407 888934929 184470281 30427310 896122062 114829036 960429294 253885284 598105260 795529314 299025473 3779472 433278989 327795306 939981476 609557757 469408780 940291774 982230158 241680269 23161888 316323174 488350056 316240030 852226318 90527226 534041752 824459658 732712443 40776457 49671465 717946804 931462555 418481467 411539485 850358826 990133898 60021475 381857971 535682898 487357019 557725793 328893084 368593212 127644080 759206402 764368923 718970086 155305616 582409020 177352486 293804358 97954594 149075312 57595437 115801752 424179040 976979633 912948733 289612286 661080212 469707002 235935419 876203178 365589621 941287815 106965308 566519232 803586614 324641987 541569048 618502290 870115972 279176797 153381556 297308948 51102564 860721869 341278249 749414856 744035347 35364391 40605286 630053003 159907274 584899202 103829432 371402106 33389687 945427798 428124861 33453507 160533022 235606537 840445792 596663714 789119116 34387487 296930061 93414355 986223442 384624602 845790595 433316319 279755228 445239471 67297488 585879476 916180917 425369370 950932858 665174636 98474486 59980952 613623215 129968478 603954529 902155257 151663754 749144052 654764630 992571699 86375233 968637060 429556231 776862305 539837238 542672185 280222155 843937011 535030259 851625042 765149092 981114002 915156819 861640999 622151725 993088051 106174874 384427319 101161317 622740838 478271252 645139010 585706384 615028399 403555691 373632497 941990019 491354399 874538148 906529759 626919702 373101633 719935024 290146955 241216686 787357385 196306083 55286888 312413991 695065718 881211576 685804026 822193002 355636960 444152657 415598216 795183223 663109774 87523806 524254475 78971754 571379340 770527137 993818714 196892871 843994272 143143808 521380718 842627253 215430350 169295867 703845597 828293269 772245054 590303742 937694345 241047770 545056057 966339738 800987714 254807002 297910266 584083374 798664071 32384563 736575998 895647480 232554592 638452060 170307 729999741 937553007 506196495 268747412 735241140 925858211 158458767 359763762 689992174 88744419 177445871 747578902 528584927 408405549 885678258 174657589 469444537 356884992 877002801 851292202 584376254 933991887 17851980 740634601 635369726 276735527 19091674 353864556 438311694 452692781 580377541 597193686 200736037 574421356 128406074 904767051 31582262 554652564 838725203 822559299 475232000 499867973 608637104 612527383 96586689 741321024 278991499 834919095 54667273 951404284 577363484 882380785 381045706 467288676 956269338 227825995 545687162 175363763 332891895 134812501 793647307 303239240 964957070 252210198 855593831 233345502 914346301 941707424 650895601 617772709 847508951 719726824 513371436 62846451 401829848 17324097 14334295 382297860 743368609 212982366 956099609 519394870 587330383 484771013 451837480 338177692 918460114 317405230 330625197 128099745 499157425 488202407 933876415 887796167 890713322 334586607 749210473 371724709 956038687 250211436 181040235 536924657 900603805 148292035 728702701 591952039 832833216 706971101 410400959 565416591 625658234 38273951 109960657 850887471 635450227 997518223 973780667 962327658 44012663 822379619 895975182 898565164 158028151 322737172 754851941 395616921 17962750 569594399 723080193 6265556 121446195 810695304 930194255 120193585 124399738 360539258 690619290 872145310 690565637 710794587 366877388 877932070 613238351 979061850 721827383 393139449 975319416 580856792 20344553 232348637 469683289 41366363 792104758 299333961 282692440 450854008 623782712 601091606 792496427 346206431 783406156 167546055 394838 535265391 5107840 803290856 534107563 899163607 893504371 824689580 913558145 153795986 462641712 872267815 335347598 166468219 989156732 443701708 784020093 123839576 575492164 649260124 622911408 689567632 483123186 585764279 746199072 571882517 976957687 673997799 727844406 368423551 582013232 100067320 818609943 832337824 681975925 900670430 876298724 736421964 690096798 285125917 323064559 571335537 253631467 472707470 277657232 583222017 670424471 622854721 142459463 157934208 671780455 487060591 683948528 618119494 84347728 672015790 645904017 386574418 181034786 769605201 976707347 436296893 623654291 150533950 825830866 695302499 566036574 270213530 284266701 333702337 342957018 458559820 545585949 499490991 459952884 664761087 185308524 851388832 227555800 652576024 290120806 584800175 275143164 850898638 55511469 730930597 215810979 155212698 670025192 663800083 957728067 696409854 877028513 822065303 618440004 67379326 980461998 712908621 147951558 758241753 609247717 465701712 877410957 395323505 570035329 818050546 464683050 675405766 678099289 7255353 651972234 998141597 239217020 846955376 251255141 438922914 602762295 24847014 433364535 811544011 449516024 481754714 11250622 505083778 789505248 19369331 306495628 252801296 430140290 962541940 398239852 342141203 161744779 72891493 828944987 459193493 108548638 949767016 586108978 34523567 781003431 379552991 226252415 916168828 531624771 202302588 50280776 330685746 115502440 210307018 978714594 370877829 156072451 211129882 629968582 917258299 482539037 948147436 795265927 511856616 163849074 820950072 939932542 285171674 621783848 777277973 346216164 957309513 336025841 878974859 845957369 135045012 990721336 992433888 634691408 402072341 378404346 298317041 439181353 705400161 592520057 602839422 62858344 18115626 459155487 277671434 335450356 106121646 688177653 211745517 657392715 792599527 559143938 876356415 959605263 341343536 142857824 161608016 480837596 452333856 975719914 204727340 195575572 758421451 982737762 983414688 875681670 469621699 62372879 880485938 768965370 701030063 247826143 268700028 515003527 112472260 660160316 443400583 344736561 399114983 223300033 267021374 205718031 532338754 358616435 752272550 153085839 317834694 244566416 105668297 586609030 989198697 697385141 646188294 725869043 912824840 650882833 191348505 557178774 106474112 315801897 976280331 453772854 24536608 825192697 197788132 745883833 751788611 818324498 166366988 411033343 936472092 467355737 267187476 620746950 597324927 886296177 276847394 190248004 845889705 354642134 341471611 395764091 641821586 402876918 531916404 479060327 21333531 779119418 292720164 337649830 666199191 82017277 259495627 523294969 138272123 578383026 155056934 143431469 580218218 94263203 192139721 390028848 997388589 4107584 699099745 46954924 178737649 367305595 808195208 206879013 615035508 717101985 779607109 974355657 164842324 321074951 437776577 807306780 228346335 8457434 711824410 314447297 505174697 966307862 831908884 953835787 624871620 94279312 570150816 271954739 411760565 908791220 635691798 730451833 262612300 160342922 190965262 244542074 559773789 469167216 403714847 724864231 980239978 28731071 506245588 392500491 126168420 973996867 986093295 435475126 518520826 673247150 742899086 742733642 927343098 923508847 313581143 385233140 226711088 162183230 494777217 228711781 325922652 257721106 233486123 875651357 829804169 146560441 439480716 727175218 908237841 763647514 212320337 868518971 755495350 431065306 771464531 862244002 928417884 523077313 126726290 366859195 841640994 109355330 36902051 734841447 937087774 189851856 58330827 358789144 428603327 885279848 908414906 539447635 179556304 296916497 354689484 59975120 460120949 666433544 63767203 713936871 464599038 535787085 263104138 800838732 757907239 105737601 670165166 201044035 58037119 796455349 494633868 314117236 663031498 848266558 492778774 981408737 461570607 258551750 225604763 617722430 321136786 613178725 20586312 381156091 744553303 666901379 502949698 810914248 348018128 985448564 573664187 706558414 796775394 373446589 512407525 957413577 9007866 313078867 418627788 77157752 52630878 329285921 752185151 297556062 626813987 673621210 514524358 778485792 351350062 796871367 141649712 842456916 112011987 859642124 290728022 116030767 198461341 70407873 165292465 662467131 273985388 961212394 648350987 689346081 66799181 313763428 122048318 934917531 671703087 61381664 947168864 90097524 656508163 394051718 922782103 434181439 888854578 955594581 484380016 505782344 115783366 971862602 411752567 494839154 906241562 611959063 608833130 880936768 887129378 656001586 379752102 219935084 228835473 403869033 76043386 919792236 195352529 205699209 202620308 806052769 912635249 370029980 41420925 85774583 992240740 729957981 302472638 755195817 888733436 711770398 232790032 983095151 938123580 505891597 788042766 578612100 848539553 96826699 180275425 354431823 456041036 512133961 774777552 912565163 409064847 786305096 150778414 424688802 565056323 49240938 57827893 171336574 872820911 986298408 178155530 797215083 847597310 442754390 10070164 189413681 601467964 482024231 515578473 17633464 13980026 615467183 180154686 154265045 276086525 336160786 448082631 9436917 213486759 949080549 963862077 514735993 379131875 381128540 793463282 549186451 33801090 244621266 774858260 382843059 441830645 382048482 358619918 302255185 766757174 316682797 199472536 185964667 455793623 621027409 743883046 863835247 109457614 709131164 178757167 162381165 561093180 225684428 192319478 762196177 980064162 753309141 598011999 884799252 369208750 516174074 11417348 383299175 993286326 910762015 500119772 865202543 502110295 725779214 428160875 624143794 452057909 396103239 772384833 839313404 436963005 870778036 899207269 4878421 582626860 2867625 12907009 375850744 181835511 218283394 793117004 80460843 751773296 419838084 649313332 76360561 312014078 240316242 660583629 407412317 578809265 813364910 848061265 925809498 702299870 815533355 630274422 953963371 3748988 259988551 460392503 252602420 782392377 433225453 386752727 4876206 316811635 997991840 208509541 302508619 916663310 672210814 884236200 797089468 388254972 906742137 245407219 800894819 662469224 742933069 356694885 281422047 489869514 469037402 395346274 872840262 927758999 71983816 317582565 424463742 964048400 396508269 917634785 269122135 929156158 36233212 324467372 527577030 262321524 706029048 820238951 97679579 640739587 239710306 135537800 397748646 341839680 907931348 269896630 757419566 947627702 522210382 488676539 200572688 557698734 658118698 782878484 384123782 961140260 54219475 324579019 488586019 885993491 24098823 43299576 651920909 59713828 41357165 382990241 40570293 750302319 760009203 214386448 848898210 980590869 420444526 822696504 692319272 278114357 994976888 363027574 638842564 847683245 630481760 862537992 605072507 455364363 812520454 750675720 155856304 544927661 860624544 912313627 336692811 165965069 167728732 935049887 661032650 953354710 831286484 861060715 353731821 776751237 277881342 887775050 866074799 847717035 286410481 914199892 121456987 323584743 772271921 179816034 836359358 472291046 745523643 356962532 442565887 129249534 714405802 510722309 46920662 174616650 721518869 24753728 652787368 593403680 266193349 185877047 225489370 307990904 854173069 894529007 328903974 115037841 607864297 135090052 414185157 454348682 777742527 22936479 385017990 499585656 487653049 124516912 607281896 10081496 564502237 260224040 441225046 925085717 399591830 427068740 374960228 825029773 807944028 830514999 921268948 836980765 665465479 666948857 365669570 965799870 793127885 873760994 673819514 322390355 2855945 973169805 216855434 730279830 341261876 930497386 929221776 859072644 578820349 536019669 130442946 689403725 353540211 586773251 469909702 80502851 727291720 508431409 329431657 743466624 255286659 547874672 670050516 584343546 255768963 47078269 485420104 249427559 388286282 27513790 418420669 644721957 363121077 924522069 866577827 375497215 326548012 964411991 679143732 792758776 487977567 481201381 548142869 117286934 656861390 626645394 492648797 312995408 233113945 134108724 923686199 427501377 499344177 167779679 994615259 21855815 152235297 639968288 448422818 618336235 367215120 527277835 579389613 893338730 472871751 311586098 484303293 866363230 502931900 740994669 537394141 627120412 533250660 692026246 342898988 619017799 846020773 968365566 377159065 404260476 536244973 451238998 858760318 956616881 702384758 404136212 917344569 321784951 836370721 486880073 848787984 580581920 666814890 852328182 912340076 52638644 746741111 885904131 611886474 645366216 371954579 378825932 801247318 832136422 767518914 498541472 379589805 492035782 239663312 229386840 930801267 48926818 96044386 872222879 233314282 786111435 378274198 416928511 866417727 594372514 834547394 366374342 2699304 405359170 729745487 133747162 270672855 672541956 2059102 675842373 591158332 340009173 976151251 809090430 896737452 170298430 413465153 758704052 865569114 672250807 268427901 319901376 779461124 191497458 94857917 146248042 238144552 159157804 933881770 325223687 188780057 997845840 633177247 147042448 139205821 938109494 836643784 706962742 590458264 378096168 703079293 965029066 654275115 437572467 291060578 276125393 689018112 28844861 23072054 481377971 771244868 391673007 582007420 364358682 148443125 792623470 415799544 922004536 732174429 732511212 439714718 513557411 77355726 972904202 15079676 602124986 385481419 839440516 624485446 301738710 609389424 942637619 96477538 538776113 945285094 169937698 601608982 145645514 533823023 643059089 234061245 686334290 172048058 245151882 691133350 562392660 44851582 405627951 734566395 673210943 204779403 149077499 483294966 574154579 191593378 881334591 225757268 839546188 319987064 732954803 532108084 93947551 217952765 291606777 690970482 52071902 650430519 765831925 270221574 84828222 103877216 112557006 217953622 735039325 643564816 166055860 54436049 915405599 469037463 970063030 73545400 578858610 372587367 727506067 325999018 503874735 536482697 905857136 873027602 598090546 3450528 807413003 897882629 787741008 685793431 132036658 799746238 243660403 644944908 617989263 607323527 982728491 845857308 920909982 503958801 65144844 56468180 132635335 310971651 800505083 466498792 114572417 33646215 969079450 454708782 848309959 281067627 327306260 31605474 817262560 927572358 259584802 275479679 697262876 852391149 164965270 804277736 813868063 384314536 800984424 458187196 760043640 646397130 511265939 275523577 173980981 633789839 977778924 206205155 881329061 381261316 774781531 28644525 456173001 882894195 98285303 28608535 377894527 858713240 989997657 953588338 684826740 59876635 743900483 272678303 991998547 119632034 378533915 238513001 457006295 809271978 170944918 368674115 813126771 595051657 766909727 395810341 149996211 241709868 399355112 460059518 823422019 184335349 979556045 295934525 148774473 169725645 967352618 140692556 324660270 364559406 320042528 781732716 48410953 85849817 596811444 976073056 373743788 977869421 282359077 543868987 668293481 372997071 877803837 649224984 973984264 429047643 853870367 69635706 576229791 493482993 729428629 730846353 738757478 291620881 643266665 561478839 204102398 899900876 916415212 302987068 473781050 784625063 707003855 204638342 757931028 223100783 38128229 347497383 797918450 442665708 172452258 336526587 343065949 608556020 436107699 684981266 704735961 445492111 981958164 679892560 964808713 131546303 861174306 831281323 30699854 360402157 525740751 831404362 976269093 171997544 424320196 706753820 480829163 790377372 999858411 482903603 237035240 951886171 667795676 379025542 196166893 314394191 55821651 851623627 95964762 613056163 881689748 722112424 225772590 302706691 69849459 180948967 558765030 903077918 961711765 854664491 826920631 568524613 216251479 776218615 515199601 281850220 616698078 224828754 95105388 261286739 738710026 162568824 917264522 657143612 873677918 389151163 269767090 684343456 666001419 147910251 709874724 330186649 870338404 88688264 157356741 568561635 782370415 826587639 491919266 804976224 14357385 94704183 49433541 44330653 355785120 337986106 453801379 988563161 31428894 172980497 672333049 56307787 392388939 69899792 536986945 220026623 853074749 968285469 487311123 476898011 386786936 728640839 753517586 60053858 481098645 993488742 208146562 49102739 649604488 137470881 932852286 463286938 176839603 330944634 801884221 680047198 172794854 779601220 595460423 336780961 879092402 220630735 68408372 791633180 104389444 677742657 590959027 281336206 178147633 985633910 769020352 827848514 113180171 831413569 174724410 596771036 874565764 409066762 693059441 487589082 902099039 148392168 730648983 873098237 658772495 68607931 526279472 179554119 632418800 4246871 959452427 399790195 19024329 890131796 72206571 726874451 253162461 457738991 957799750 980592850 103527157 856955101 929826301 519139313 581767704 459343497 824558406 504149476 718788914 730887139 910164317 327677026 733355171 19149965 89887439 126653485 691221506 706263236 770300736 745554395 42977668 663794486 377048717 942943118 267608902 391557853 177577480 439499848 283945915 545412819 42240656 475916853 389720361 230437352 351221590 476506089 5368363 446329904 361172301 233470971 916593971 270007172 169965423 809806684 11174085 587831609 272698447 826578997 991236571 383761456 443914915 61998435 411523449 864746565 505438680 996845974 762936947 243412674 684162340 264401906 804383970 273453942 184561827 696808225 893567381 673845736 823160901 665220919 272518331 407768632 462531258 762653001 742312016 204711375 490050683 773633275 426880645 589407653 785263973 140292115 464859074 282238935 962721488 665412994 605159421 872937309 242305301 20235068 933751452 822217396 703034111 731390820 490576005 809734148 650160899 663214096 291893319 353778725 547683054 851084113 879244167 154751493 115876495 376425256 239898479 445868546 652366504 466849479 34020717 724653160 653917602 721756730 501815571 385418025 865758663 708512846 55387503 924415871 760929081 340386763 272342129 867151007 230799193 431228166 188750969 737083450 581787848 600938309 773743416 96147501 268838820 848165221 648593354 249491255 846292925 432812637 341316807 774780455 67500625 292694842 44835992 468184234 641563457 399755566 131108409 431598085 946012389 661494392 261540554 161781970 29371421 128183088 238181265 748155600 437025079 725952087 717273230 763581521 594738296 119314485 875719080 770186398 729668078 548973059 282852673 216551229 313495347 661865353 371647438 597174812 207776805 848294092 124167022 119705025 428534685 808319573 97336428 282664757 417197387 993693130 979850132 989081228 879333535 537778895 567819232 85059793 53898777 823405122 276747714 679465515 686873766 205699062 286794902 832315188 984050235 671355210 198959053 666417823 633392036 676988947 116316127 721419988 798344810 172395287 224042169 696834683 12514171 552809604 593473450 381101738 338571936 681514991 289616425 140564017 179261309 593398651 693400399 916870922 779287201 409456548 578996385 203021780 925080319 505335783 691189534 512276176 244698302 791273191 15421259 633995788 980665237 153219730 969577169 97944463 432846766 912504243 973904939 683613514 920645088 649401726 463470535 244156883 794946399 979150448 3499426 612753869 724401288 67813408 695383314 459988685 738926961 284100129 610328199 312724286 726555985 763392362 950444659 203233705 470123647 410687317 771010729 832165745 52306331 767595386 823350326 457668891 401215707 902630369 420844289 425772562 142507476 6187178 223042874 124954415 466112637 589836280 141911994 67147019 336847535 458405908 772470743 801551402 531429914 746701521 283808545 814676524 30922703 613033187 993045848 508874762 928069006 383738945 71386940 808061451 195960958 597879882 513240700 167905963 984024915 172500598 856715591 501375729 937449757 318687375 747698701 569345166 461911522 691479090 423292127 372526959 690840145 702878610 325146024 379729960 759091082 779734735 204540480 394677305 150939234 93279398 313535724 572603475 180371759 547258458 88600709 82559266 957992719 624978341 944492890 677927473 305426508 891413066 686805732 169754464 949006744 434716619 639569591 327031302 440177809 649130461 746385394 392042852 997484501 498547113 111447137 346783873 566027847 975109723 660868462 74081190 973765535 779698671 674969507 691232194 868451833 802414030 896551424 92642549 384843295 64839275 538350276 883872 887466226 151451339 338638936 891328999 210810351 486841214 16031299 817657780 681863900 188829887 509289625 378450411 580300087 110840446 315475131 852608805 958098339 687605300 838443610 764665532 92593930 971496684 605364392 137086576 650406198 365583804 718054990 424918525 554303680 698920303 379607497 693921412 513888437 187541693 474695282 854048503 297636047 663979255 131728090 797176044 33248437 669972148 245759255 906246360 932128641 847855159 560237805 556667937 797334045 362970233 700524692 357506888 420986957 110588689 486099980 796311085 665697570 691827797 572225193 182512275 323821071 941646268 960655619 223379253 844079238 537153813 141219969 837825747 558077217 194207825 250355485 730762874 198630564 522659732 880571283 573357542 247481403 348930942 732932090 602081487 919742761 988803691 972516635 587111855 278378289 738891137 90925885 427626909 274169612 20998203 409730477 559829749 128393652 735591021 631955000 253667320 817278323 755020665 957524995 675815924 373767177 15798447 527474862 296478322 651932099 590209289 714768897 623493497 966036155 670545717 800444281 120078145 122410927 829325168 218113741 110790837 571371435 511214496 717881356 586125973 873833401 928998363 251228104 947590018 96526591 978024513 401961648 690177044 102485786 430431939 147625277 592058065 217984271 572195479 565316947 402381651 951241784 450368179 362392290 860928298 858511499 418759625 48849627 951520458 760097639 445591277 40476817 235389174 265418160 732445387 124151707 148760805 989848057 190070628 987817950 969724650 64031110 239835855 573800203 698854980 622410038 292180195 960113627 754234414 806622249 38502798 16392733 628464976 398493708 980638019 723106178 771820576 612987161 411112219 298465272 240559840 601632644 293004550 322385295 595571657 502435394 274274916 47706329 635435908 922852972 906982563 129541551 304899558 190137345 92404081 244237821 464584455 924384508 35531022 643322788 78012849 952224029 234147269 894899953 222199060 838935169 930294269 741170990 542105574 479171346 91622719 819626075 849961774 865193514 893061397 265062749 286851277 688007425 913891838 699346485 135953209 483838497 95507925 988508163 304837462 184866147 97367401 174937541 548308367 267180487 988906631 515431742 549811763 253645366 80596053 364113614 766982720 290824706 614698983 540114927 311673987 239864732 263298610 690152344 409331423 617064837 430056127 917969376 607439360 949335244 156885119 867157434 717774255 879968285 630131735 822842053 769426025 621514952 655278355 877846570 810307802 474947498 901475126 546744475 79291911 638626124 988252925 197786124 320365915 532555857 48754366 352362609 278372847 177848567 150065400 560353106 873958811 847291385 976494202 972430768 941485907 851748623 161626757 83425468 775080908 553003539 883902700 503615045 651170463 365524745 614685938 763243175 849481293 229146070 954093048 196090705 575120967 873520010 77403382 52438238 789355904 894030569 731059109 380254912 154534577 597882727 633746305 399661331 313625274 749713088 150412687 221089464 70719447 384361195 208418058 478954431 283502888 708838388 879294223 938530466 947412521 33701259 643182520 384039391 91349252 507736121 240263705 373554954 517711042 449526943 510292106 137962281 28265164 740902375 66103658 810089932 571199298 32622404 247797609 269836908 506234620 274422022 516588988 301602494 252012091 951471997 885916643 77426952 916060024 148841644 731866049 418305314 708819979 828085932 593232903 173410854 141375590 636916697 290760733 184103683 113906776 816884199 677783357 96886428 168595645 289037938 92752282 794412265 961185534 936502687 891392478 943637642 968213580 356981087 826309999 268680637 427668566 935473566 800610382 455837194 783151934 702519030 547195608 218198523 543023314 640586859 35762540 778834006 741011907 591461905 781059011 288982550 224436652 790713868 585724178 968319968 108447266 682402685 316111327 218676995 708326760 429051915 12363387 275759934 370816628 596125323 32699346 649822858 805551135 785587505 50843046 561705938 118392794 545980947 480057237 66027683 397932957 464195955 475228054 124432362 437884001 674695563 137508988 976330101 401551427 996430015 44693861 736866161 889231497 295941128 764251958 657897393 397244291 297836295 201715933 192658608 136774297 923490817 59223780 470812896 444407170 842695861 873356873 624984535 847359695 289163915 363494295 966469885 793205984 241081882 478640264 553245718 178267746 679296140 890628095 603097140 738587542 178286463 42981171 156524668 342237409 769349413 215685846 332817033 728588145 545749647 25272343 523212367 819112779 811860475 740552772 721261876 724619471 66809189 357121436 225013659 496833499 939722653 552222139 263583741 304183940 339329105 982856015 938763890 249040263 998841914 661682671 59271823 261212552 750249090 62728380 363102157 472801408 368029245 939860902 99184197 153400779 720572821 219433610 806087555 324346505 494291148 472975354 797179902 699977613 344578713 910433935 224970951 883260721 27048268 113360306 990282614 730666811 933369635 663352484 962909215 621644592 341065938 597034643 956294249 472468602 358774259 348877056 59734671 530005293 628269993 499652261 223268181 928956797 963233728 533488574 751071866 135321244 760846430 251798837 822107598 368059241 840645731 914365180 715048666 121365887 183541480 164791272 583211420 311243728 858734111 776606647 265444654 324890844 624001695 537185505 277122617 899474561 36447637 243002302 251772144 498735414 168427968 76484392 340817757 467436335 488319422 542551188 246428563 106395416 749823614 786281093 90369046 404539395 277135503 174344095 578100918 561515050 978377150 512731914 602325527 958453967 655554377 166738845 695839707 159278276 770349267 308145124 431887215 293093253 220793440 641963043 297715038 232827679 394236955 565767397 71705580 823904224 742060585 460558487 982783940 580597839 793799407 969602495 142774047 696869114 264621516 903230833 725148580 112282074 728364885 419938253 51346048 293271512 426272758 546937330 161744884 218431049 856876363 852450360 123742799 553231189 792561592 38350002 464127505 174563622 350562104 467726318 862315256 227329104 94312836 417442731 369276840 801430187 502501746 990473324 405141826 868552033 867920053 750574304 962672876 432273615 5936387 397372183 972805094 567856354 469045871 110986396 702796353 234067639 431632565 157772039 449104454 374914336 59574651 369860150 757777427 205054453 30512945 130294112 105932317 938247596 640075486 666865610 157859329 533988707 531751122 924733503 37995894 486047436 539967724 941234251 750687098 987028930 200107360 385816548 704602364 521109632 770427642 989283734 389251257 829349772 913251028 319787142 456530551 796126782 224508511 936082932 636829139 91883284 681597990 788334213 525155247 535182244 451327246 636282377 148229950 326602855 21643045 120184614 820324139 952071008 279069855 555554706 372492327 115613783 89978982 673366518 39668652 606680528 597103485 225460523 282881622 177626757 249685709 639221822 705121601 828008902 384128708 379209213 650742730 268445518 106089729 978205060 844706172 935682998 35219848 269904991 920735751 423490222 959236621 541848286 810299761 422314127 836675411 333188755 809511997 270910711 45242816 731017285 352378576 931831642 505807863 623708963 390164252 166625240 977071580 784718676 291187289 104475803 127894828 119728739 766024996 679650297 4830839 953291968 883138165 417411669 205481089 338740151 250448197 665614531 89736967 280833825 125689614 570159387 751706369 724233478 307961376 181395480 497532972 70511630 847922722 692360995 765029117 886920636 961703362 418564600 301629972 863109453 475060200 376347984 910577557 514185861 24895649 803435888 455934137 291581615 539991574 825522665 170733575 265783163 486884489 454367322 980219560 385987999 128565270 808904009 558176850 346524537 65602707 765523299 780091785 701723523 56262726 263288669 726000392 356113870 280054326 580077137 429573678 541219336 659029348 250402553 672027343 826229593 63984781 237105883 337787357 913354051 658432975 253850701 347529385 687491474 278536292 419745283 345545569 340214764 316830120 745432604 754727468 970279394 731370627 339764231 326466372 623635027 492783918 377718505 111457077 618897057 852620424 790255874 149699541 929175319 406088634 342534399 92267043 418702220 157070109 882064150 786214609 771183014 964935872 925618587 385061511 827935430 497730397 375735176 537313534 801353422 894753800 603569707 529731219 757214934 226954070 697771129 903151326 253688746 419674691 313279166 743154117 515654218 308720509 558200967 769495284 588361917 471062793 315301795 260891477 92449593 973140727 550560252 115496886 955191557 723887099 354339220 207163273 372551572 280890626 238985155 315092399 356662531 959975199 851202628 743357415 925005129 631398111 367665202 51544673 279149565 421655965 542311183 454260282 360434824 494634436 140921721 731684862 247387468 406785265 962656088 693121750 297077061 384203307 656739839 526016702 94954718 563168833 177119159 419945909 42971516 160424688 178531580 610752457 553714500 88031431 845595949 693040694 678761709 545659092 252538461 320776868 749373800 166084939 472965274 224664850 351479716 890094021 994230380 331226095 861665673 760905975 782309282 496879423 742904703 493370013 304386562 997341278 90742299 601351571 20044132 888738385 512055085 322434560 515971884 156312340 124163377 548549918 167909953 505727289 786136149 422040571 342207828 588283391 773576760 25838894 352009285 674531060 639293709 713892768 815437665 689222086 387670198 940706631 252045488 539700551 673195471 80321774 843185489 285277370 475016102 121209995 750061584 81522958 856632144 200310585 185865307 843567127 45273998 258093374 84740732 843197829 507851945 98257741 755115418 273162879 284972830 200803984 783767120 485274682 983561640 32731253 33641362 644273040 498639726 103804383 83467845 96611448 390899329 127808762 304719554 247035825 759272757 343893914 787401774 675733339 724124141 311333696 477563527 334810024 321389410 88570201 282054929 15497559 808434752 456185518 783357545 958882919 982467003 570324685 520994319 947116972 80832950 407597917 982498775 328150145 64154346 974562459 494993055 580785861 331312476 542213434 902365042 254567239 85432985 710821910 409738526 129619129 990389950 16230276 239271040 533256205 839443396 957084752 570618010 762538065 825721967 312680678 204946316 671936754 576421697 397944876 826427703 468590692 307152953 495592708 477920687 230733310 310257270 1172411 698507376 489383606 138778251 261734004 299579641 928695373 317146680 230902310 840365157 347765729 640844973 591030320 725728942 801789013 387486689 586778797 109654104 741020931 578785367 872588535 350516302 587140843 278371135 545692617 473794823 85101821 494863195 281808742 928126772 414244116 872313266 862742131 252305850 219408014 61188945 854425327 140354087 276147111 106001907 375420424 903944346 286798219 353258792 823329899 845027753 691000506 138253917 426341749 925591744 815749252 318148596 349502089 342449607 863449080 217505535 338086811 68477854 440981724 861007245 624657619 441565463 408165132 35458548 585236148 762378891 10723802 254249025 958341101 257298062 216029491 232095543 412150578 103327395 861711438 579455793 994301787 421587756 21993958 243814884 154677317 969431037 506405873 24375231 61601927 430862638 202160325 685739535 383905089 400457270 238318120 90092437 130682366 395218816 884994074 479706205 348109221 526023674 952302977 333290117 290793863 806876649 432528879 902992423 655273092 838411736 376188395 190283940 593266705 717068568 807824593 222269495 296280344 629656282 404826512 921082120 243774821 213470502 848865207 26187176 203664474 316788709 235248656 478570285 297705869 367499644 637490194 757281342 775392262 334425519 410605091 557629012 533119205 592377929 823792511 482918264 866142492 219410141 387887631 926624953 942868474 973834394 925019525 76191592 506321439 322683782 658461969 534003333 110897568 557200256 304160443 525644693 247297866 481050045 157057294 592793610 939365520 820610287 739603476 73743982 215262239 205101577 632332080 345017991 691505655 799663467 965299417 544404739 431258261 941789053 780412647 820966723 321140520 270294811 435771381 518501142 190368184 997460850 135862845 864078307 813219554 814480984 371713335 918718103 138107576 352279564 89996162 427410549 401365453 248559399 709797088 389094518 626642500 642910624 833747681 468567665 436267096 580453463 918139102 44732147 285591772 552010121 71212282 223022130 362010916 625498467 301820722 761192883 565842482 194164407 566155147 148709316 428142917 14061032 800266332 195898942 657298726 53867407 997908682 4674191 713317976 946699787 290068222 614267122 652862721 738509698 16678892 612459621 765591333 126910835 576476714 550315558 723275023 920532469 452267745 238038152 275835816 391832470 385074785 475316754 199178323 363972223 237902628 497963653 814010343 221639435 427463955 248821832 387112449 827489642 467767514 793111568 261886548 867611107 756381267 370499530 83859428 54349278 728215545 186924306 77966777 855281749 681695688 162886023 580534716 509346447 31721720 186509924 211620917 97786312 526793227 141525643 807281056 194402841 831631114 686293994 221717366 511878976 615750406 700410909 310385731 827352974 986220414 887735803 126415936 921772283 516263849 572745357 386822080 971519656 805109036 880347391 293323794 559667873 623790336 716644447 307533313 359026802 706735230 751151664 959002954 308259593 611958793 84971773 320842245 634074894 383564467 914760729 242704258 405672456 272283132 478959616 533234780 544953217 332302288 37778936 382722305 26498490 555249028 523382143 796429020 434738370 188515933 959182817 676911815 417918854 398117418 101826713 988149869 570011944 327534004 245007924 894491731 67589858 499836719 813881898 842007905 592227034 521126983 964251064 581362528 601281865 109973990 127793916 490479525 420281106 797868567 798886579 232271666 680935492 462402141 322574942 590186691 210119256 751141390 519151160 65495552 879191899 325115753 321419126 978175918 242628029 401868073 977286725 316362113 280308643 914657898 909109937 74680732 621353847 101569784 695716028 148599645 831790900 81516821 326215192 171199372 532205807 906472863 190472076 833428744 992020029 663517529 708079172 780406322 524521552 705752357 710087900 814482792 10785040 885257697 577816871 127773808 106821089 654770629 695776355 398888823 332248263 980770699 169300401 195817105 47034404 119624269 487973775 958661869 732402943 685255588 831207737 605456068 757090495 94604421 565067418 386590559 397588479 638728172 262006205 622140991 244766389 730028893 725346372 528235603 690691740 690050763 688680446 560668151 749451008 502931496 619873296 509354958 279145240 768336894 869136024 481154445 454363860 938364015 692557708 684623699 227188185 121593761 462552240 834982176 106334291 240638925 878260955 509580221 318449606 821414906 968582932 90680681 190810103 899048310 958958744 199879640 245448045 96521640 569067487 245991243 436773444 45173186 607733873 741529928 15632879 785513537 172693904 244571412 558186207 586242614 414996572 442363278 224931210 12423995 763529562 409704609 761849 83788707 567075134 157201133 32032276 19516536 800859942 615466979 148439241 48341412 968053185 226807521 753581086 890915855 275713942 214061683 883912382 549927493 761999141 691742645 99730112 381509750 682363743 44601864 483050416 831162272 783987068 348930155 709056146 475938974 688959133 289249001 520309448 603403869 705325871 224750520 432764593 478217239 226281500 142576886 395771112 613232831 831595374 949808885 292651050 953578959 268271644 458746055 128143927 645699996 715571439 703735639 695167945 993258909 405453951 428905317 120528590 382593535 63239552 186934538 168357662 142023056 719278156 937335681 340107868 878944800 254171922 296535745 333009341 787965413 470314329 254488418 372603669 699344270 859080146 780232157 52044821 323067741 64895731 847634782 859928587 832076576 116528001 799428412 519645084 824038587 823228841 631044984 883926819 700249932 123854417 404891324 628015284 235673907 382273314 443951557 161650697 380774337 7083943 915242580 876421284 914632563 817224839 990902942 123241273 189753407 903655079 876745539 177856841 610995796 634039800 359500581 252487756 78626063 703398689 350409372 153989495 566676049 471252512 574342387 502101761 347282979 896258164 507320610 555112025 53653412 489477852 522924085 591131901 560445569 380359144 623002173 929149518 122688140 922377120 442213610 519718797 999388134 80975875 279473506 267649262 918311940 434843819 156446998 517321711 140154390 927023563 797630680 353009265 79494275 486527730 232212524 151041585 419861043 926944852 579216090 793884363 270637062 63830353 935610754 842512467 826163458 892250701 65281313 678493130 398189800 268636931 613501677 974675378 206716547 695708566 798397712 569082863 664827859 107905276 550736140 696717549 717152040 323132664 436650903 634500283 994290017 501325418 753046702 824984641 837381066 735316595 34610716 405375518 828028618 638069557 890434557 623018762 752687657 708261521 891172380 537269332 111636439 799209559 245803282 835291210 792197780 709546347 169152347 481647418 893689286 597424279 97707930 36551746 381524927 106774927 237417929 805864747 988319885 895133048 411376591 882698180 674935507 677824147 853211033 855171295 349842070 591632645 683149169 223951917 206949571 281437203 525618711 533040872 903491331 639507123 949929624 427195027 988737613 754979720 104938342 823195204 419680816 774917129 629767593 878486204 223057568 756096892 616671597 307965045 391796746 261789367 32650310 530149370 728084585 768556783 810033939 864181958 402918322 167918008 176059092 119706028 778392045 984460895 670282836 894849789 873642443 450319529 43584389 352789148 879276134 171101841 48286847 863081301 330505042 530407770 195184899 846019000 582181580 559590530 347333246 515955014 757055136 439330752 725388313 329903354 694879636 357281157 468602922 495480628 228083397 368669070 323264774 140694878 404331597 782361041 304074333 748546673 906075135 217889724 469097390 91010735 821860323 420019589 5238703 261396877 329410763 727369407 117346417 872207957 85495553 90998087 915205339 329654256 800653152 335351934 121055388 973863714 776883712 880654993 702837098 643789468 700503394 619690433 373466754 631883210 349100283 836264699 279553910 525634460 894237190 297826529 746666140 516754755 768373285 82511094 551751168 192753505 239063913 241207484 800107061 485747491 204504180 470871604 981014526 209078824 660995210 478058367 15253851 499341840 477519585 725715626 321455342 444885601 169326088 45165678 79109346 547380723 36021407 482589948 504145811 273160639 784894511 814696212 930815338 289207988 701217883 492963910 158408240 906154334 16142307 113459472 572564595 924893849 781770530 42220149 471352229 807470146 573403562 24393703 95635181 217317180 897733602 343797363 572262061 734995878 91631094 411125942 11164693 819773807 233713412 621381440 291325325 365916056 294834800 350825455 466523229 795224398 265571595 821604194 572976533 841761172 175472179 943015252 38516870 739734069 618357580 674762592 767637693 408745939 202591282 690783980 869752394 281232858 345045883 187022537 817092138 302494306 790041657 816559629 793911601 779638341 805510693 799153059 409450169 146581434 457220223 791446586 916326143 750971988 238144965 67302764 62907418 577169199 18798186 952848199 456565464 342526685 879487790 887216717 952013762 32369284 39138797 937776140 4250773 986027537 266525412 500630532 478577027 271389719 510086921 205549577 523068250 436443521 577965625 179229352 126867430 613671206 158767394 904874823 10173388 329569392 906436528 487922200 431159491 952246829 795813134 990856055 256632483 241302544 717615824 58986875 661431990 432446111 87565500 795789663 551235568 26171653 455017207 562540950 511227795 815960728 353347298 759277147 600515297 420958542 251847983 943495077 942258455 46287918 655802027 12403667 569165616 72377006 230479607 665428680 721918486 59242747 327060287 841873151 468105650 122487554 87386862 260493090 970893126 61705747 875142245 634686070 283050890 962992854 540720089 525072790 355750812 641280764 921552917 34594765 741273739 554436991 495844085 854534 530988469 710472140 752589790 291419288 827500669 110447943 69816171 756975771 671522922 295638315 735770825 749876555 397754135 60718551 388088668 593445015 803612842 861134930 997705 360527190 717839470 114514187 162950996 641702922 523079836 968461404 536456510 335893143 521625550 142073484 604210969 345464523 918488583 869501035 851762563 939270278 309602501 276580236 864570347 651432002 882469575 889522495 207715559 614414896 96522656 840300081 604280546 991055723 842170092 105862241 777326461 957348897 433458898 794691008 736159433 394436752 570670311 83173174 872348075 409145284 9131376 580589900 121065961 466612805 158119638 805637056 437655728 54002840 714283289 257785807 277388472 166678109 443754418 573254749 365577997 652629072 728264140 992007438 975947690 736048548 330885148 307687810 898969273 489442299 191317695 714092133 239361600 523161850 601629746 383122163 201091849 379670466 193238194 624996384 924324489 256634949 144090984 177078308 874191127 812253421 920362763 799783542 392507393 527115962 217353766 801305728 952836014 51900437 714108465 891633236 906543993 343558160 575432752 621060589 101626920 214215552 783427906 652843286 850526729 259714325 756594434 634419306 596249615 872989963 1418856 598062407 658766055 840377448 297691501 465198187 79483484 181391030 124054084 698978677 9994274 119235581 931572173 407219784 1600292 123862137 614675533 318559874 520560602 276428383 608503786 740689237 20528896 94378899 323440918 349847455 930546829 980476311 889192065 89105817 284981437 512569776 433908763 128376204 170557800 382986332 65202219 152185346 348965782 265441828 783657833 737116175 840816467 164308975 325424797 300787625 574554068 74129747 158011332 404042653 671641235 701700391 658673425 648213905 605981235 988046863 4636744 612027669 875313254 758534516 754142254 272592445 435075075 788939979 16648065 971966078 121376470 162277682 746200373 699420427 44144928 971130400 698402928 66375467 223636926 63647409 384968058 681678563 865826293 675975439 432962034 260147450 278471045 681165013 24062012 586431535 42605648 433512663 679331512 433857614 474806228 932024740 547669881 829388340 343744822 231851444 719219672 781215409 282239815 122512159 717116858 319324991 124293267 197372766 328603401 40540615 828293746 81025378 719942324 875545999 725518915 616324907 142984169 117781803 433860362 372052943 706526758 425347507 398311942 696719447 845991709 878201301 155855070 926758302 577531180 954080261 226357360 702708529 61412823 939019662 387881662 527836573 43800860 457079240 409989748 995790489 489884 296836704 945746284 978146260 199600245 307496806 951895793 323617323 306732445 947722242 219229530 921302084 983974967 281711319 690198185 263289769 162615614 752584088 922043406 108230705 995603604 36735732 43868094 802456954 697091436 215619964 470853451 429385321 892788525 726488517 119055665 692735987 276325398 643895312 893552938 657863075 783776887 412210342 267687633 11333374 293335403 963918541 777650755 613850236 691872952 38234400 153945240 572508124 489879259 913582623 467054173 933247510 987763922 45961134 419639309 269264875 673308739 304676542 584099331 703697975 239896297 580722238 280561124 131789187 256982406 75233805 277744530 427130145 738773635 499469729 981890404 384215138 124704500 513798366 943981277 747972325 885261226 594454544 529638237 788753971 807457587 630949336 499407174 739811665 973532307 856943346 448716188 736995635 873701377 993534951 821999493 394852144 220270960 877164978 347584417 812513406 514767570 753469318 976666770 544108195 988122912 737336916 873458427 345950205 457468110 65679704 939825507 736301321 547659577 616313766 937949927 895934750 150814260 578990017 573278470 999938081 574329363 252845492 436506911 86456326 517805671 123847412 932387946 505186481 626851747 230534341 406692349 64440106 343741342 668180348 567303739 846866622 81495199 340771853 32346510 598503061 839643128 834863004 963278930 943149812 734737441 361640702 277233068 703165367 658218950 577840399 323616990 660489659 412941396 75730082 597313081 850628151 185134601 901841746 288400443 799879567 525107462 69992170 953330836 124251036 65145320 777360358 242064967 229665216 659435741 365699265 106152720 80585846 739298468 280383762 123254507 626935164 613874748 874815811 938764341 602278618 309174995 47502394 825752007 850572919 577347587 739179648 238804586 704184365 282672002 540191895 877771913 71059018 487955091 523173175 531644693 376469228 505705219 873129085 907227780 621933824 160935484 434122472 158835220 740618074 995208861 250859419 106213899 495586491 50827524 904823669 828249793 601562438 607523896 468731681 286337858 399945071 541577528 565663606 165687154 404721059 750456767 29330573 83595400 496098939 38382889 662311630 819938585 781424552 626398004 895876280 108118110 366351608 224045269 92091015 819580269 752667201 180590699 936186492 799079418 578907824 664248277 566160895 130140742 999967741 193130379 59644957 945890945 658677009 348553585 427570616 795035656 317625595 783524189 775337677 219307460 294546763 85345973 643364387 385021531 175778514 625851751 921490711 650189516 249260233 125641360 737475780 28851964 432526826 264168208 961300814 353087917 788545601 914981535 156245068 921409942 515062426 847074775 311205705 67005669 309450448 75143555 698468347 154372120 965944364 844348155 903358776 394784954 357640874 609547285 613976734 332620185 393081575 604457673 222693199 31601467 51658410 872994383 18265495 732021886 399061316 110591810 699380763 593503802 450394850 859049591 404844786 878560945 99985996 758132965 520209385 987838764 570940881 807726455 262001746 475169215 358961152 403040552 609812530 387925170 184996463 11635486 982575438 521805831 837462625 865555824 208255830 266820547 949159500 143032720 109418463 73480952 639174720 459743256 948575645 574551686 952225936 927893503 912475104 458094497 366647548 272951122 129889038 767096385 681529284 939283494 112344858 49625204 723523862 447942314 258883793 792413959 165698529 378915811 516486437 62106838 659152886 460306262 137078178 430485964 32641464 522517392 896668506 208032541 788657787 321583849 259922899 163982170 450586799 18076351 964950132 668559625 285573683 265809859 63790469 493411919 334815972 789991286 756200456 816694813 607901076 473886890 938277872 768004858 332979148 724163929 581367759 100873246 918280585 893416303 782547287 465664019 368411089 936360596 371564690 613748002 744901230 864318100 228833274 875685134 884450923 426971061 557505732 795958538 374897345 351656501 589064492 43161001 400670439 787079948 521476313 931881372 300605318 541906083 11485649 177038267 453490751 919023449 780321742 685684166 170195264 908162870 226936337 166439561 657509517 783816389 480129124 510005083 91895169 803471943 618941469 832986986 615069036 383346847 587663717 953789044 760137159 260260808 103279270 809312171 549624853 531218229 46949201 704959161 125329578 373241671 259751997 525924447 793150971 935906400 359273122 454026709 822889122 909236401 312081039 557516485 149498572 965971775 225581476 316597866 308452610 403641700 152889211 843507017 586191315 369665255 870162129 802306736 169552496 588679721 376397947 942191140 452374323 279921588 629900564 465692682 841858751 811199841 700316694 501869217 619627994 840100880 949788173 91952362 472537009 876385555 751535782 471454925 754900788 17928968 974079860 258500138 735811586 718158758 3349104 312584309 115092596 114088029 657667021 223413732 238324714 683006172 78645238 308148737 498317310 867156011 620425825 287205767 636027849 348461787 20226780 200351214 443594072 90559349 415992230 253705617 647060651 473953549 463016265 795252145 737376638 973920882 759047712 883152537 624834120 844795945 660806815 816520835 175421343 44419999 419448225 291809886 48623797 148324116 978577345 214335437 665792891 928386498 602569542 74964298 822698137 52799829 142899401 602204353 340825680 63430568 76548012 865977591 223644684 819765993 934155958 578612744 515953596 792687154 425351765 288376513 788904514 927788546 252266541 268301051 499630530 918556817 981544501 589942181 278746763 593710244 154949022 725443526 368846938 535908771 892210672 750801575 208590541 506500973 23828697 416323808 983984930 123714903 897136152 904419276 776176321 692523882 203474662 875559720 925766955 315045502 480271650 331030528 395697589 447575270 627995042 301931884 642007279 333956699 139857762 986912184 957346220 723257799 66879456 207240053 199172337 856735809 712654010 225792822 382621058 705188954 945323448 64492495 31194402 394323513 318388689 207715764 728801118 131164094 365921023 731478494 59151983 142099847 234312268 943253180 393167878 497342986 200979337 702897842 619825319 884284682 643192430 581843211 942190507 921417598 967862311 232842106 568068627 198480862 728297290 125937743 393360663 779256241 309915279 277997093 564240919 398401382 697939492 275746349 484336552 380532772 433668928 556118050 30417271 139132728 349086527 464590125 273602677 90702638 470058248 139560131 35891338 408431960 837058267 21659214 257998535 911486988 609901999 753111486 185850639 751964757 309758233 628842475 727139935 914083140 608740436 385575312 505329201 593078706 724241431 781739898 9574951 759331865 390189019 532398164 297361985 151303555 518806045 392713260 619279912 213681231 789136963 758421360 210489151 949770725 313794460 47521579 977837460 950253884 560670045 816749209 989824301 636142936 942152754 567648354 844581006 682324729 145542118 359258232 846009945 928957886 381417442 928921016 849610780 369500118 113889255 149416113 870642948 266610339 741956062 869008156 142686291 808899484 718745648 775322857 920271124 996974067 361335971 219210998 643501593 756850020 326898981 161061638 70787279 673256422 965618851 966608643 662557887 670867061 601027360 696955265 619346977 116159324 491609424 631353886 299116032 993751288 235262307 836596204 505517693 94357971 829990869 762339972 888529636 715973776 653358805 5979171 747769509 564368007 463008643 175524447 355825362 82734288 365184103 315786317 670575000 808419192 239179446 967246623 186470760 846560017 254484754 122978914 986881063 710398711 930297524 381452779 937776412 536126213 236472055 112067948 166573813 943265135 980451459 962371599 433825892 935474946 892672148 950976352 168413966 708023574 973470063 230155719 418259937 716439793 462244461 461258878 48080539 418125399 751143242 418554719 490880152 441315676 571765842 790938471 452866438 591903159 316451439 874343925 131578213 773407306 934774094 43113179 947501317 749716660 17801742 570331551 318458485 237302458 388574031 966783262 921575932 232780199 110167010 898399676 871151317 399216135 63406135 641893229 675956401 24245028 189867752 914386280 772896765 665631580 943901410 626307699 120076762 882016163 276628067 758149145 642242582 41895925 470355461 406847755 90137393 512192541 286239600 988186887 578176473 728621381 581973967 608039615 822260258 383547685 438223512 375494369 997957027 581901622 168852736 704999431 175255127 668644706 444332889 441036469 411432678 967834081 448856667 858106642 508842374 640749185 197726639 550724078 145193921 48413889 74026428 325497003 227152471 842159630 941655252 510783258 662370670 115230911 995557893 147950849 670722048 390061029 240946797 875269436 702177002 931729536 736117022 237353005 93490886 585115456 347826361 254011351 478570458 972634000 673151230 248399248 587726323 769341792 599337109 367026468 220634131 346195096 371935852 311848336 963653526 578348207 303504453 650436446 442716500 924045293 980079871 430467792 338147217 83509254 540223754 284859544 258138268 804687132 113825693 427541475 202993007 365695874 222123714 531249311 199182340 255933665 603138307 802448206 818870875 854696998 750866039 451022362 930255415 407048566 49325403 149349873 102511106 884690142 624592341 566556873 433072393 337643569 520017101 869052459 854962034 752643489 194725859 564958784 637873321 340258689 156216663 470857506 834472527 751305887 801657390 254741717 164505565 71772034 745727768 87892295 443502928 34463197 771650284 881693497 670236786 564837658 658477615 746054641 379260022 555303886 946419158 84970071 520871943 822074357 372886458 715546437 883349619 617497840 837105463 830335602 211285455 380265203 954442070 837271917 354025958 78057602 631724931 62679910 160356475 72859736 863296018 324600672 76533265 958102286 584419091 307157970 571065541 585083814 719166331 756044178 968861877 77999275 239625490 53761167 974820562 318838579 861600897 628750867 709095879 521269414 653274751 815556720 413831230 148658675 115961689 923471242 214523170 106943466 180594500 49113085 643151390 944159519 262053138 377846158 8014855 213798188 714415731 642733116 542608166 988507864 961786164 932235325 608505918 698879333 910691802 326326538 835717864 163358691 325284216 142760804 769556527 870035527 4709053 607313704 860400049 920800102 714278839 218525653 311302171 873727004 933464609 306632539 327641593 932492897 676696914 943773662 607275233 225838453 290509376 685289039 238324741 861673491 100871878 2510538 578791167 672364511 119501164 552856768 441176922 899348015 452087151 723891888 916978904 963774771 565861149 495328138 325040526 167506685 456116025 518469383 978007097 290595477 725013526 646576215 80826480 853481702 861608200 195752080 741587234 292051594 333625322 426355899 465389356 679006160 255001028 351865349 737302170 73598861 318650088 288906202 74678021 758630341 696447957 621724923 650652563 585117547 964708842 531440882 108855036 48202003 750451763 371287954 429285264 997970565 957659494 273557382 867367629 377580662 236902178 38707928 383180155 300605266 599230014 950079651 321057286 929188807 854131330 149521496 438932807 877574752 546573643 763265333 97675472 999495162 19465125 628269620 814085668 826707666 503727316 800124304 273768333 135979674 849905339 87188361 604709298 872120975 140358491 347568043 205740732 239414360 180806670 123417614 777451877 834836115 733711424 235253868 792841578 455369501 977005492 813263915 421661860 220605684 729020978 856397915 461234964 63058910 234171722 462358811 69809469 549188470 914469208 606503151 184773944 819235491 45272401 325066554 39758876 938453336 195668250 777608640 788576909 268808196 564823145 63278332 19962469 569132718 40046428 805845959 871131826 99544696 858271293 789254622 78097266 640661236 440795893 150235230 363869696 427743767 126980397 411691925 683612850 588363991 213886438 755759591 753707329 555234191 627255457 270395395 486358280 391228612 912072630 888661599 18665348 632346279 68047959 436850188 173715641 251616077 641466316 10633732 205412314 258855298 603635904 161070435 949640774 75591746 428545775 335398024 81709784 607045138 870228408 629851891 26226206 508435424 418738888 755953060 329696404 876006493 280052300 251898535 773701275 870385518 750552260 864342314 602576974 898508171 672304803 345597218 43887533 494638333 312370032 829966563 512173089 947363085 110157564 595187890 580932744 301537552 845277981 18568296 172447948 315881291 810623409 964539979 284747861 947709826 140407262 52464627 424691343 470661743 733041586 436405374 62360570 779267905 33375452 835188469 831616885 551888302 982302031 876270939 714681293 392239347 803779111 684550967 694171546 876969977 472937066 767125202 278422743 903776843 101765502 492843324 667616483 993950280 424981064 345578908 246670111 349671708 677158666 870822739 906394719 505867084 544104869 732392532 856549721 373802024 322952010 555618233 185652200 510986498 617837861 868288003 656414974 742714833 383804089 935639163 126399381 99566745 998190702 353959364 939789444 633253269 233188031 677384567 967535647 238295671 930989518 47619600 201756628 513611175 22536027 75581847 416715768 402430711 883570324 578060052 503704411 387407246 537016972 162341898 251696151 718958222 762515345 408984215 58912169 556473422 45028179 164275359 202525772 643862211 125899885 702182555 57244774 938216949 415638007 148823221 897564607 216005307 829001593 305536161 445463558 204999090 49159352 865312553 958002633 911337196 346016823 188761295 179126041 224163946 730671237 397608758 705754692 74640656 502065225 176969113 859237192 850874731 694425096 463654911 257268675 66590316 715905772 978698783 614324324 190495259 513963068 459112178 615248189 798642178 89155374 893706397 182560495 863780040 700896698 874877828 865972193 933255414 824979427 957315778 279643477 27997274 768295990 560933956 801823523 839416443 421327052 743257526 345378738 688075827 527287378 823457453 862535659 98559940 697484607 198701948 25503694 577340037 871196970 77634843 245126588 768618645 11204034 278737113 149928017 997153688 492552395 851187278 370530237 410697766 30469044 33096393 106639716 204925966 477541212 324725765 4901365 530253243 415300267 752064977 815472348 117096442 311342054 655423827 516711671 656405915 547982126 35021730 76839644 430070043 998811405 353704386 420647847 746791217 283878352 904300185 432177775 331762160 395908718 858400944 522858483 811832629 99973428 786237679 405958414 825016725 778226068 17471192 928750371 482631019 186053046 663767844 43298857 729746649 985244067 828629136 237180989 789634723 294124248 289643613 76488072 170074145 486889704 98798373 310480937 657570430 986228047 815173979 794552371 116471210 878472779 759323918 690845022 433994268 275266542 279747865 394399990 446408580 315659229 85753529 42716646 918242073 47945568 946236655 187336538 808330993 259914436 609976925 7584795 402579210 305042599 136234684 648875316 820262128 902363625 826564267 372683199 716273363 901787627 843137394 614542878 566955473 500355399 898243329 27217192 598023553 415431034 395814223 539597586 473035690 113659779 405366249 775750006 877952759 333262951 361130236 864474755 785802517 900072939 526937132 85111883 472981138 608942931 201779592 283366940 241475640 677600335 747945082 796103550 330882506 821852194 404550528 763808993 673874985 797041858 169830031 230984912 203094598 176477731 904994422 162687853 967418532 645192028 637542057 269451600 144244248 464325966 281745048 449314628 699648953 347271666 616146727 627923703 985641050 946501505 230252181 962167992 360411490 594068774 81116358 201258706 582588590 122991499 375898614 332523955 795643261 870799673 210667947 348393284 818504578 690111279 626095807 861668588 87503507 671596375 161052142 322057668 247035228 991741283 266229470 193378141 676365649 643981248 687312450 855619681 113326776 44254889 311800668 313050983 415103986 961920477 292465601 404302532 419276544 208785188 758338491 877103306 347290996 679453675 446475012 644401332 154212247 991733459 867698712 783551118 356581905 514434593 493310070 834822650 253166767 37846030 819956639 941597703 140385670 573623878 652939382 365499756 453337233 102640962 103659240 258715068 589890324 346244617 373463735 726425317 503469095 888961586 240570503 793846555 522540780 324709361 222678369 303839014 647194753 514215852 293015587 370010421 26109860 68743360 305279053 491057639 145592834 565744899 112204903 764755368 643467513 863152315 786566317 878557085 321587593 33803372 602252378 766677153 216491052 181112037 78888380 311353670 218630528 180021911 124165611 779301551 460002120 420259095 31827107 938461426 734929954 300272585 412462750 448564872 312049193 509899848 143850523 11395852 743680652 280365321 991317377 813382320 580644053 801453262 693516767 281176034 929951534 689669605 413255237 546908885 657100181 721219209 554766459 565900025 572600542 324334899 432593007 76133990 845463666 388511172 782512407 876921901 160492503 927676320 283768198 510830422 27641246 291889442 224586032 309319101 353250151 939019813 542924357 870944783 104228674 296873392 717388548 590809406 737100562 17356305 628384465 604901088 611950664 970948396 228871262 189515072 53459567 728311281 5054017 700380843 678702485 828944212 296734922 341922156 658796194 670775378 892783860 937059968 357376563 956695902 761091670 655074008 741614382 526319808 656327991 33788366 770535757 862963778 230332368 557254840 610012568 555774184 107767114 478644921 448664372 970631940 927297277 666922873 15704519 55651380 454815698 606185469 449196693 577634247 182779591 867263174 255558048 789068333 601030322 53850278 125622995 265037767 693392126 473381943 490287778 959499470 975728956 27681705 764849236 238194760 917592123 397563098 518227090 637900391 808666201 258585959 601534187 149968956 514953511 782659668 254668980 469205400 304666132 330655191 188337018 580491300 424424319 525255233 578845057 753358806 405799179 688193446 61188768 467236037 342617741 780079254 86053522 530440095 405768986 548392050 126680776 346320856 722776884 51422834 530808752 187563431 295798718 62601702 876883514 8267473 644441712 313462848 295594343 793547497 200036245 178798973 133846996 382760173 343740360 818229893 806157973 628228534 747135729 578414979 855065041 58016143 247379166 574528059 914849963 480700325 788106876 706945829 843288880 185023052 569326326 538794254 490872224 178486228 236460261 71089309 490885536 713851930 654377401 363344162 196832173 425838437 999861651 944303841 190499320 575918615 605589992 29625203 530314095 993425671 209133719 119295118 676929877 719136985 40406068 284025089 627975727 200696202 27380384 842569614 81335483 246917357 292072071 756208967 279297069 6535973 630185698 897255442 187182389 133991901 445781681 213715156 647437796 709867722 386965386 55026835 426028031 398903845 255937330 330934082 368334787 740643518 754683876 748297029 234991313 625886606 921218703 512370605 835589952 390082297 628388989 583404398 414404189 37682654 566710461 827519665 568793833 750860857 856403120 110574771 517123904 861670078 587502956 549552129 115642783 961884465 904160342 512514733 18721704 502485059 482675399 67874704 720030468 755520610 709081147 160177289 920171584 95851324 259377143 901822544 451537381 750906263 188261027 16535143 933104271 274253541 671563450 645024263 403277877 898776530 443656003 490330799 794582509 830192337 467766770 378773435 361353819 693420615 892290115 260166993 661139662 257797221 411188823 634958495 934776845 669386548 93423654 238920868 648223854 10280287 332416537 878224170 528815042 338669140 349611805 31750390 332068840 173129818 785439541 818089585 176335869 395586876 263750078 950855490 59697811 855565720 383212176 984452202 941732323 582744003 712468504 521885853 2292410 109130425 681165373 833552995 770997092 221035832 946842764 372193663 833347716 27985064 331007434 417555988 588190993 719734760 227364354 969221302 523270517 864969559 764114272 982863602 689914037 205407093 560634240 626016428 784033779 184291316 480598490 502427004 616381854 739939001 38863242 19708049 501904260 90747974 24794618 625401055 840302423 828091512 730651857 513284679 289535103 982925604 591738862 234375674 447346616 201662230 543038697 508917742 539536432 497685702 488463447 468960359 321334292 312761379 918439626 43131886 204023287 298496796 189104798 901686843 790802849 388152471 907996599 982680797 268035024 360135717 179109199 450834125 973903794 391687758 678506056 100417950 440826524 945343342 454468716 616419381 779703342 21881831 634619176 373223202 173748240 246275054 988450092 1535577 623719829 845405009 365414161 193495541 932296927 111477766 887229308 741895672 731623125 876027611 991340658 843047710 88329930 214102747 616165961 564996281 352951149 148565230 959233415 902203900 677325730 675806990 294767781 704343740 257839903 923129730 372308534 965024501 618850342 412413623 617764616 184028212 9685978 51095764 408122725 536962624 561731184 420846904 597655095 714219871 656298405 635173198 261682247 622033037 706422290 218715146 690825617 768167555 140430219 678419206 242928111 643666532 228248616 897129148 705568664 375762548 249219639 220600549 207137943 481935640 240156157 493558925 510696466 676171222 65316730 132583994 107958974 912714887 536273366 206891548 964680690 549927546 354838448 78327300 240534866 238381325 693561117 486200034 805273338 851208530 960602081 902790297 371457059 657830660 680576989 485144891 686653739 773741264 504271343 309573923 213448157 367938472 603422772 579494681 97477857 952803715 803487270 708386945 808511718 147344625 82286270 667638938 534647825 867603510 540619502 52419165 283240889 5453086 296577829 762636737 467605070 883305366 213908813 286606183 937477672 373952179 581180549 252407742 753826652 234529516 17708998 407966324 477356359 397563938 880056965 842534991 147533429 726917452 237607557 440020441 889268232 424318254 924113893 587226938 661041285 236676835 516167396 776977949 935065769 25115356 983000932 293976488 252350757 873869279 532856341 802744021 852768586 432179479 345337496 406208959 676210726 909959794 453350696 419516966 593099059 532187117 946000890 167034988 199257104 741413528 205422106 901756343 524724804 996965782 763681333 695935406 542984694 381440227 953628998 496304768 187126338 330588234 244261595 346791668 197914782 274075619 92864243 496302946 392005430 586233549 92485029 819799618 465602225 201282266 177153134 167952681 949708265 414433061 696119519 279243734 978536668 933641348 859335095 110978269 721703802 738636565 535806804 882953321 805932320 279585172 513256881 590704074 262854462 101092080 612684356 869520547 348305607 396666853 662656619 347796571 580979553 964432953 304198074 503729206 889224499 108363990 626038331 705777279 837889525 489025655 232194258 254125200 948066125 273483617 26139746 602345785 179421730 220605733 49296621 509035673 668761820 984849333 806658027 804841429 137188466 231027111 619937596 738140837 921088190 189563660 974346335 873943101 378438306 768351642 69518638 790910563 542601774 437090957 970019971 890171312 467588651 290717476 299932413 54709430 473117692 657498321 856721560 716146633 542260969 802918789 326338255 584495955 408810816 771223407 139452882 940909404 719978861 418765716 474048279 393895721 274170242 336143486 179607799 118207073 375214175 985573282 718033560 685652120 590008507 601511309 625647337 866710762 774183939 718943644 692236191 995861946 960981343 742202225 357599476 568223796 113866503 808838055 524196759 664123114 120057188 396483487 981846723 618503817 214519650 634765826 996695791 128195108 168548504 866447854 484832873 684484281 480385770 372674680 540390600 872701094 178277252 588223737 20851009 135700717 879671212 302679151 59307849 220917388 83460908 889764232 30534406 9748571 775921039 475963834 427901698 121578501 322749876 109429390 444549174 18007786 786319038 978421243 230325779 780994983 967671193 509464115 343270512 278264399 746334251 497413035 163449058 338437284 378844386 61081326 296089722 778313404 260217395 882596774 633925464 433292157 41969232 148059961 324420155 160273201 956832459 797849600 399944062 34611323 271325176 724834584 606059961 588172215 964826634 798867866 558829364 896178271 956675790 614406872 607011963 459237978 251937376 828876351 690647013 648280772 60895672 40299502 673286703 487317116 350047108 534630997 493820200 458050348 129204039 828500546 786157482 452915548 910665410 258566903 886758667 976214158 973831457 804181274 264290685 403363994 282562190 200102889 748074280 6476125 360742972 650532861 224679255 727276302 256435196 986753616 485717074 518034385 570887631 860531566 241197623 922489774 801081242 86811658 414367393 38909887 98393285 286784479 669718444 345337659 631814714 277610161 705184019 987681934 591515285 37211357 941460797 441468088 929332020 995478445 454537662 707341142 546215614 90825335 498867064 819588361 76806009 977264495 179925338 798921801 516104686 867422952 841604545 31792806 408152908 869071331 856561319 104313266 814592203 238148213 549567049 304704577 573829949 308948130 680490679 518836916 231272999 469251243 548923014 764043747 162582911 288785565 444177452 509070606 598303049 506212650 245886299 921882075 267640622 882346044 744904412 660320136 160784005 644815035 703840835 436483587 784438493 669438172 139531796 825297749 424613450 968748226 228770867 405941603 53474609 933905505 971135389 315255840 400343950 476602354 214276702 616680467 610789864 949065713 483444333 771860722 244440718 578031682 206557661 736541006 353041709 524079771 855272169 37430827 167144677 417143304 916609969 585507186 444910417 282673442 303028767 181931730 757193762 299458997 833890515 456222789 998667869 367234548 399227735 248678029 453553672 766509269 327240949 469476402 520030476 154147317 842085845 226208870 4692446 78396543 731866643 21281953 434146960 73646649 99750384 582014238 645458305 342881040 386867781 156956410 120578599 174064573 613406750 537236032 986187893 660825733 902586767 298742358 273471815 9598401 99159679 796544470 986341266 812408122 159107371 291753593 886579002 442135190 483039605 30846135 572655275 690291197 713093461 977964072 813579331 97939027 598572461 125149124 382060751 891043180 474669109 257846508 276543482 942009820 75412209 404440073 307872623 440574790 100280650 604769761 494927119 365029456 319902556 902176453 170415701 84906624 558317431 294736915 332848447 955239352 454406325 532182580 238532293 281038869 619122885 173986980 771547776 186842603 772603731 660914401 997717931 575058119 656740494 130370856 699147488 458079409 831587583 364967739 66265134 738587464 523675093 585620581 527932713 878512898 429464696 428189698 72826630 195227086 252340217 637170099 749910892 857934604 701980960 539074466 444824326 523186792 633794536 975545051 961285324 653671983 878837193 513250475 870107002 492618586 616909388 177752141 256326401 279173805 240444892 861811315 616950493 302463934 518594316 124064904 349159852 247490069 46759771 509686682 961482047 90846177 70368071 541990082 225801365 372476958 259573582 991778564 137925406 839561672 14282367 840445693 120586612 581513961 828366088 223105555 516170551 922791163 30097062 549671037 372821360 54212597 86837288 827742520 395894279 249230618 393574976 188392970 385230776 262759147 695162984 612291441 246565552 126698656 974761965 784483553 969116982 707243399 943089184 315670516 514500036 544682332 550824803 770570426 346019055 336623381 893193367 936693493 115324993 750453539 703420923 316434081 239060444 203819152 822304738 616928303 63982429 315549414 276619828 806624509 514253332 413960641 303645057 213440723 91509573 660887451 128766658 487680116 21270600 780464426 240047774 957262948 810901606 489473646 284008764 91280938 316580746 912531331 4099822 71268617 453165602 14912228 868634855 950120813 329222488 436089787 722923915 888336869 684063274 797502347 876315871 870351609 781089073 338124103 581787968 764693261 121018344 950569533 491133988 201527720 741788185 665727686 442317710 527822726 698512672 132502052 363781090 96924577 772007005 688519008 552867741 738675914 716861283 492609998 566683586 588152388 126668143 783266704 246785712 915152913 910482557 109513142 729331861 578101263 593528209 653697906 438148179 269335479 235250678 253668949 890560163 31412337 168213686 593902644 397677981 906454088 314878870 106304457 310641663 280481413 7975323 420727107 34839769 874741411 95629449 732880134 797270652 233210413 741576900 43699487 529758270 625795784 440780202 622080781 131108413 378764658 683810896 744211927 515712703 222408103 708324111 31265871 990970062 425285920 814022276 614040331 761464060 871290684 667938559 129474313 929518435 506665013 619281494 97959878 843661113 504896991 631710696 826523714 503688672 912522444 394930387 480566987 841963908 579820025 535464832 633848449 514470772 801316324 187604391 888532966 619071796 646125355 429996829 945845197 340391306 380736142 841242218 787695346 156876326 461203816 679387753 391261737 600108961 817152173 466107093 793938686 522258131 702634535 738582040 87847785 169800232 558573837 78392811 631406292 354087915 426567674 188842427 913529001 137849401 939745681 854141477 251919230 875601556 887009559 425247655 812808858 108293851 816712313 788446466 835515747 530723618 707582952 143547949 622075649 728086819 5126468 994943226 244515671 449988032 517121564 79533566 952710888 965768085 425430445 753790838 745388859 482758358 571402498 714859954 178928807 611373376 168533413 295991413 29868211 640406559 958569189 365724056 579371413 568441045 516987074 314598953 721438454 587326123 893111658 87625041 464381164 238233619 820983741 820563654 72143139 32513493 627088978 509242191 760094075 741858799 812917865 967426793 282627232 803677740 726807180 844837367 801249117 270499075 147216531 952605829 776978094 665309081 134604762 220555192 865183194 504023255 429019430 681210556 421200828 302433070 71880210 726897015 55101186 871011919 320854527 929449812 486877531 544702642 406124619 790269763 177362711 497612999 255791040 976179778 291979767 52739372 193418532 25903732 168818337 347557947 977002558 525875906 593674635 445243086 305761764 5619765 783585601 842561934 574926557 997172418 265035941 231499237 988180487 831325189 531216063 153759437 29107036 378293 31852663 806009196 579627855 765201891 733880680 13030631 280987493 30336617 345994164 464454835 941031535 164547470 140251395 665144562 972002207 817487484 939114262 731991583 447470449 424391118 210152476 298570926 55258459 42781681 853513889 645760407 123675516 24967266 738699977 439478930 139309817 438057701 788694481 292709014 590477392 530614672 80213945 70445981 248361571 832510224 324058455 82683179 661996522 672390587 154446468 285693563 250087059 909112430 780991899 482492517 571551198 698188887 931700705 592102261 699146426 278399128 683480864 40409109 242012957 58710084 522994010 480913854 880260728 164852314 300027953 169810176 861544801 155808661 443422692 402980221 560922739 172498496 567353975 339308180 477933696 696502860 992972870 536069944 212180835 711375003 266404755 812388102 299357602 714709006 201435461 953569807 377553883 143811046 92428294 989574629 171010763 852618049 944426683 72256539 118780965 969732735 918913712 260292880 94875924 243042520 635448572 718479737 509725969 53840985 584993931 73477973 618414818 500231983 691358604 622917239 269190000 712891028 202451667 953443563 641638524 159371200 575815493 852125817 230135222 861605726 345990651 329477157 679351979 932745288 431100604 45867370 411324315 937424497 345319068 293551874 751673757 678227359 159012721 807336486 818615475 238929982 892643176 873597244 890054213 252830956 118667486 865428282 443386520 839742789 502356454 166398717 86127407 766525032 864227475 610979613 248909509 49325109 926489666 354787531 563468815 36694997 176750169 534274245 441944084 753122545 530801149 298207812 292753941 857315785 921969647 487270179 199862672 513332216 199147858 183240368 425439695 862615558 176927175 773440005 576085703 596618424 441182908 551618895 569433130 58468354 49380047 883928711 558406437 804586812 919629419 765141604 304779901 518578560 859243638 304157323 426713809 751482762 209920829 659644998 36020578 292253687 471227713 810759330 355913061 407158389 503767513 564083261 766916240 588527516 558312544 492939149 793452773 783943177 172765196 825075157 690297807 245577328 31364105 712964786 893371345 575229542 69490471 525149334 775599461 392410803 423757128 764043588 347251772 661146654 364861138 255879021 995934199 177045584 304946557 961119808 79238870 958127631 687929911 737218266 340546002 807023296 341495351 201316691 725887409 556612754 511752267 937292422 174615393 731505357 891701029 1635274 546376900 902056081 896034757 290048308 896142350 186864357 373419377 693380287 355754643 581429526 616234683 448642853 671721612 616907095 358180948 819012984 507282348 818947293 391583212 772151267 513520284 831690523 232091086 793791015 632398066 756539881 602614784 685332204 973749369 464771942 214328667 389288966 344943336 440801854 470604658 330846745 455948755 214339223 882184639 524402450 598694109 45962361 787005709 737291887 129660362 345832526 876272587 828106321 700488199 732717983 843249632 933770957 726505282 318997643 591293612 707996033 574176327 672681072 373696735 355733686 590922609 23140879 230450153 664078181 282451021 535231848 22561191 313126023 481064125 878912560 295715775 877005355 464517071 60188191 786926213 821263103 83242394 29672545 824975493 690564491 253815926 653624702 468347548 688909398 160861762 282686573 999235401 911654121 588108058 135617736 452363019 824461668 48412800 822620135 578889323 869512049 422755048 461593066 398704682 334542480 859066643 79768630 792914501 980467922 264484712 416909265 408463752 257043444 53151800 476704223 402250513 944054924 272078874 682895569 461444771 235113704 936390242 909048091 868291037 303766054 649008572 905032217 343576051 912388185 533938264 392641139 913734982 639376767 365396620 369440917 401910425 530553688 903847145 498328313 460888399 987112376 390944746 391580506 610430489 160864411 258784934 304929836 883998937 472303653 231643322 747260480 724355858 256953735 46875102 600238373 136023972 631349859 217942008 291268051 677979565 835908398 757285601 553625644 385797040 959727207 625966022 340188695 446904850 339581176 804085844 334306028 577532780 848620071 369595329 932596870 375720343 41888422 421157313 599798721 837033454 362827278 214149181 608332921 341856160 790342059 241469067 870101095 183276644 719022423 883077818 312083588 586040388 809396238 448799157 225521909 402119017 213679230 538663150 674280468 123739983 629845142 918817367 624776974 401946174 739628682 789214681 358559251 310779329 537528201 974046703 282628447 960152225 46241511 341853783 360699603 196529578 684754628 830719440 783548887 532484655 2551502 718678910 891706769 13667990 607290052 968721867 365229088 171761709 604415570 883352240 272926829 436641928 317418499 317925394 922371415 550234480 266872174 283679840 79993844 727045196 47617351 412294983 802962610 882685538 996621536 472961186 89855930 151171008 279000159 728322968 371401727 681184902 194595870 402599077 752998635 775233659 331572739 639155822 46848039 748631876 831195343 361008086 637693683 99198419 254644773 859166289 341512188 784530366 710399318 62310329 567145773 464826949 838721951 972843510 913810251 385210156 686838159 410714963 629386133 484197850 68203222 970397153 398902637 207365124 931491120 391446850 579280012 153877795 905019840 499134093 326176923 682805354 963773965 429406777 889017526 216193808 562787805 76611185 611694452 85302489 538807196 321228966 732940638 971904198 646281525 91483045 234252718 305280445 526138376 856420534 951580752 449485527 965937913 391937803 947008336 590732864 348953395 574152841 670861408 628989936 818746466 862263823 864048485 350491265 404668661 782073215 145046923 600332955 674411713 19158375 326799862 350281700 540854937 137300478 868726818 220673611 815040750 555677242 261163468 267214613 209288867 828437048 872731348 424597133 23398116 985027325 382686091 57443050 31119566 24527108 567158504 574785511 448599865 150160687 298746517 693146089 805144054 675735516 125410359 544626108 500723019 7086030 72518705 626005295 49225449 576577807 102469710 817376450 454129962 485814701 296293156 856540973 392048850 106151619 971641066 668455921 324580506 856953016 249866408 820631364 404921753 264924356 83269863 871355491 558127578 374189825 243100757 743204529 713996949 455953606 501398052 895290819 384110204 540195157 924918206 805419146 349886828 171871538 802342747 813612653 413444161 421581804 794940331 935281880 82751541 230392231 518727021 890988868 685076175 342902384 757350255 437394732 919186746 181594370 240666102 304057294 604552182 773851419 564581781 857684571 178690556 110412248 445452532 860559199 189543093 81553459 15406999 972257890 549403828 59495588 196029681 975138222 451718126 336360073 81020365 321012798 54378172 666825242 242459235 924834140 988651382 650608099 498129295 769103911 947662711 577259755 461055633 263321005 915711025 43860831 561082446 359673269 370906128 575904894 796871990 367930563 784792803 938663467 27616061 943679694 303033559 343337213 229807772 973249076 71889639 804803837 478067684 458079356 438160317 338827800 605615253 17292620 186302562 632913475 50995631 487792813 908632333 454065382 403798931 207394165 531220798 326410950 803493673 656404010 361528736 646253005 811772680 567284570 855410939 198912972 178479656 186796571 436518279 576412710 51167656 915353429 302758812 197771116 786468543 146495598 42665340 670098227 279456532 469779015 181202911 969698803 692677755 561396764 552024119 677776975 549885922 68849235 914954034 329497131 830658017 801649772 401942793 153999718 389428687 332144329 849838522 804240316 881135788 787707245 587473292 866358153 584367027 90855820 262117228 353824405 977051829 88737983 855068833 632937904 890775148 222287449 948294645 794880727 550353577 281319603 60022559 940438155 882994469 922788163 395561375 748420358 322345451 300738604 112835857 998453116 205913941 480565958 148869404 589551074 677991616 673705712 444505301 225765007 359136874 838172165 835528886 237333383 831118264 808378436 863863638 286990380 226876727 261308041 542634036 297683049 179517942 840018885 83815513 556676385 468985212 306818765 516410948 692522770 774707893 515299115 626751159 499943128 489958599 630358277 374921369 243143622 906896688 272003579 614080645 563855868 377206544 748021536 39379431 789998459 670992564 424662821 172577330 880402498 997638262 116860320 329754523 89133452 923381330 947662726 770751594 463294686 374282896 731434609 254916262 504285882 833737508 115521011 382782355 48572708 428891958 728142710 186910997 860298621 255485008 850219986 975268137 472486533 329234045 657057511 508143441 798381314 589958631 879629037 887201226 152186436 501382611 336792689 402047867 161778887 361825700 456181869 168424380 333674378 355207303 409833321 950908159 101745860 195024841 367762478 108259127 995498 914386808 500234366 708090302 121198328 276710266 684276939 733703322 491391824 737215336 352772045 753713641 437238261 365118457 140929862 648875873 7805771 5960177 369418308 287391247 77435563 98038756 714293933 329345705 170970239 818817894 145211614 857932088 437423612 43833764 794215974 873794565 844701687 705514055 193317932 513411310 239324126 314750493 649846993 160148480 365156201 435784011 307946273 94176538 114353345 787532556 723903828 831456578 847444357 564544316 119840459 153549781 419869380 413136093 961636782 145856533 168971828 447423932 444192271 267084696 509401650 790946265 835828438 305630413 859237478 421240672 96450413 482905313 435736236 76734282 42325381 690450240 977083953 439388058 713474979 11903616 590454757 632106643 491502081 172157412 450342172 127421878 862028076 980937639 259582976 96285941 675146278 221020995 677159934 914467788 728853503 191668680 964666130 103862152 74567683 397115551 907325366 227765153 887651026 882468544 490418296 474562986 12643473 835695220 422234964 956600515 226183961 88284009 290966546 313465591 155779622 697980538 235932817 168869353 521429443 91554920 192258092 521275237 65203312 625777438 156016172 884325808 484726972 817262416 465576913 724899040 925504043 477548651 153956934 187737707 343673502 675171631 738153261 928898872 937727997 290093743 195220459 825723476 312217680 488050345 482473825 45625990 659317253 63104497 207117858 964539125 628934262 145288685 561249298 16905689 168007349 139718651 478035900 987116549 99721122 544614956 990809824 134077649 970917116 855512719 239898341 398456994 381542716 529033649 405855289 691344274 758623443 291861582 75940160 116999642 78251540 123492672 243980369 47751714 645768596 674009815 572967153 200168821 385839745 481194139 668173425 41904996 739715906 92966844 742535206 101520342 210369415 174655417 260586944 245180168 868802959 603215783 130839351 212902102 102758623 877114608 151998134 57845243 654461529 219164909 653266187 20098095 756771466 530202211 843308770 746258882 630693988 691257701 391531742 686366172 738966450 952802369 15929297 951583935 502235456 806555295 843204141 117030703 577347860 600102201 324166532 552653666 240659540 304605567 943278345 816907252 569311511 841627636 991142430 538924777 628574062 47168138 907653852 939580854 754697942 192165885 328867297 433800126 407777057 425538452 530778722 714541560 426456470 858183339 721269011 332826593 474143460 307948388 420718318 579394340 861574715 910726399 895609339 257860465 446429121 392873665 864771655 154664556 863543595 574461223 473623159 193265817 586494833 118254109 793828638 788186383 635766516 478608679 889781284 104651855 159195162 797820423 418739520 427132299 817598774 276521318 742944263 868002545 460627729 122519206 636255364 852760529 64112126 180351855 145518031 219569544 396444520 245706832 636340923 581326961 949197069 891859995 516744102 889621487 928317781 378765494 805855892 984001771 969891715 235507107 130478052 34574551 950824191 846289674 441663629 883340393 79256090 177042456 894987217 412812843 786124654 646945076 475668045 262020969 160477293 972743709 574106892 535386064 98412133 96420699 860450299 756600874 427933252 930886677 256620609 400730359 704982070 848552823 853397151 964964284 550374073 890407376 853897764 876754471 445103158 667763831 656183761 783084243 307695381 118014265 161325504 471790516 987807451 989501050 114765359 380047557 354362718 313996265 130213346 899386868 28829448 995070909 973815958 325475921 170274025 577284477 502656137 796079669 954517334 23359001 52910626 353163811 301736850 564700167 84657036 340699756 798092011 998496823 436563134 389271490 712485993 76057417 972062542 890370188 982246378 607135072 279927793 560653865 104677525 23235909 593139896 541103302 965119282 954438280 329176417 866352665 475534425 396895459 848757998 873698285 648157458 417427974 647118297 734573600 366765143 558966776 686526463 377405180 658436232 332831918 149594320 455290971 885303418 217401870 166926895 853372598 981667199 227563078 299845769 253518912 19629155 356517159 448862941 868615963 894252378 928723982 919558522 849795989 864168122 560857653 285870101 654592905 57412670 21226252 430084329 670278025 180258759 810643024 858390241 583665990 817813652 237298404 386638183 129629661 924948003 425300334 840021195 924063049 904336727 602250362 739570025 781668508 781201794 60930022 477058749 304179604 228346583 821076922 890775392 326367939 324300802 327096115 125904311 964216490 514776998 154721541 692849711 95595431 757523558 781544387 331844705 748315424 84880211 114824495 597424829 76566257 417362547 955427139 141529653 697506811 786925083 944395017 278620443 855293321 632507124 687040140 632322454 363795758 638520555 148098599 424817762 693101809 32059025 217316250 473631003 671341816 996628359 418127211 571945569 594264098 698171702 129067408 131535297 564964065 857663889 760854678 665498902 885612807 689560634 578281790 744510309 8116145 699168449 979988462 240675588 61613627 568947080 36320721 491546502 659857265 466948364 641435355 426688603 987234075 4722066 387069159 964678392 238029108 442530688 86924897 358523439 605301738 860068226 545305852 74248753 255467757 508228486 178543137 172438530 436741648 740180441 611668157 808142404 356424060 800473124 797510736 647596018 479008739 765872931 622671404 901360732 711901407 161175228 613495472 908294544 819127887 757070375 843498478 179673709 305358435 350729787 159098805 212020421 146480011 665065243 124193633 487973955 193406659 879760524 294393228 83560516 131220237 679589513 145859951 450581020 605784690 573802008 391157493 616534859 179521277 647984710 267618871 433421734 829498849 380185880 988524173 28721485 985384238 3337284 427123609 964909347 947016487 429865806 65121370 261489468 724170956 778228831 372839671 833813719 504844344 717272982 816242687 826084225 785063744 900998423 856662209 544422419 25404997 774461869 832218490 501319791 298355910 859330287 298906215 929543869 220302716 782561496 357595322 501067777 376346455 628390396 701838300 650536047 714239657 739655763 996307601 653883642 220750423 770999697 228439038 796716785 702214334 195760244 57324559 389600922 497187610 437987270 532318069 655093313 333214926 97938381 448839530 940471157 33657792 105974420 823465431 56817257 763621253 547323965 531253623 674038764 326460030 766892458 901220294 313942185 137180025 797473416 420724845 525841936 204363847 28800659 406910428 903805338 296258386 88811173 144410418 662176825 654616012 583903635 419498069 855722924 298520283 164916646 158425465 860859870 462399028 237261583 528027030 436731068 573952567 168529520 83538584 802486140 231606649 556452652 797364358 105535744 611241185 529157106 292756508 230229750 589364988 599420870 646090684 340251999 81078971 487655677 5923046 315848502 170843389 228703418 855860614 824327140 918586304 805040600 645383543 737831060 179744640 281418098 681902299 943640152 789260234 394649689 807013935 326991311 729622270 600782365 502197220 441820282 762885428 728045892 67860053 804931794 607795236 188388172 490649336 256333635 510117483 311213942 514234164 662887171 159791516 956533179 498606010 799572081 842875757 415113661 369520281 130864478 25075403 226369724 637906210 435107450 121268361 775029525 263296350 774173019 86238551 241417752 862523414 814904609 268535234 586712446 848933734 159026995 79309764 231599031 65319168 950850906 963567345 216940622 63482664 706740429 790118343 963077419 574475199 974265985 670576203 154222112 449297789 275377363 367321446 938834951 971447494 393911912 15101797 400224033 161020946 114914046 803818368 38056728 727060440 704237767 879889831 978713278 829396542 651782255 518620759 365781344 624828867 722944961 457311922 260197253 140924678 597849329 860425721 195070815 483186401 824046042 815230965 580871101 764722992 304795672 127912955 315402214 682422960 492532731 18476269 627311556 495789643 281941532 775200905 288289257 208702236 441829948 658489582 112865306 456185385 72510877 548932475 414105631 777458791 393423188 507635776 162803740 484287781 957046087 894840156 863544343 339980355 327555999 4685241 920524658 432530242 476454146 647373112 482707889 357530194 671249504 307729229 80805832 321071349 420889549 524061851 245274351 465438953 791090555 952335674 528312291 481619634 343015998 120720468 506404063 699000794 688143499 693363941 745170548 602387551 396357015 389304109 809565037 371137069 549067871 751675088 421666800 730088073 592352738 618907756 602694884 620585120 104523066 36924572 769658247 398428539 869185776 497269021 120756450 738251357 270125831 462272410 303009280 717073873 656838690 916416856 631954512 932877305 422642113 719644782 955969927 711604704 300000538 314875533 191364173 115393177 642718263 301854993 528550174 56515647 72472711 743452612 142891065 709753477 248858141 71963202 389209569 290629057 166472262 397617422 970553540 382858877 36735455 725503777 992530165 481989147 678978096 97975725 433508760 173113145 687131596 304628252 183713918 386031711 220289323 25311330 443179774 925203461 68287787 628053985 619794703 38170012 106613797 134582786 883427896 116508723 535728327 949985508 767560358 482623325 396006708 987747497 252039263 433302850 16665156 475231898 820322871 411435828 380592671 401818347 821705084 84899386 668071967 374315274 451832193 579886251 389309539 214278817 731083785 167215214 28668519 379580481 495397576 902973905 696358341 147672164 173508700 187779616 539991495 237722573 423155098 870211771 58766990 390355644 975080366 42756711 731636013 227607847 224700527 395642991 738637343 59565155 704814844 327226222 189653416 471511320 660966758 451910935 718425485 801951937 576195618 117616594 366544262 725994182 566948632 344666992 664159533 88214966 776919669 979359057 358367626 621273249 968735874 275518539 56511663 398583499 750832354 335356203 520243107 903651755 757640795 127388458 398281815 133093237 963412436 113951128 325636972 999339246 501845253 923360624 39414673 862641242 535913063 17047110 78921053 422723753 2812674 585216314 827680077 462403346 229462632 769387616 342109886 60543889 551924822 237801317 465001698 855944567 581796861 927547743 847639913 985775807 105619677 51423219 160888688 821966399 296311243 973714715 745431192 998614575 848295726 217809772 923632179 457922648 475615269 282053111 465914059 567950953 802695352 385151099 727193607 399448351 653858648 250672265 793929757 331581845 740968859 781151498 792635256 425383288 211093608 145909146 406645119 329997146 302956736 75686610 849397715 515643750 352845254 410034794 882518416 706334799 204712176 762198467 792138422 638506212 259886422 178249459 378143000 987741176 960589904 522439982 138501006 421758945 70268766 365626289 464161799 124469219 816252891 730626877 403314513 969635713 915621699 575337479 161093343 406260361 795671231 914529048 628504102 246316768 242573679 962449587 456567637 478499753 549743078 490989757 505721125 771064672 278573863 880780301 525624503 782153289 436534002 542645906 984474165 642588309 209692676 713670444 884898271 653660146 127617418 192329363 138062320 452236403 378309840 906423744 240849750 235681816 889322784 853364374 714358695 710279693 471412671 878715195 891916921 771502495 457242188 100610675 684114075 333759124 779524310 917681166 12647256 993250152 182106127 983859379 622958389 228254739 990113355 32535648 138560847 126734827 806269400 307363834 219514387 472832642 38479213 643900825 983287304 257936583 642549673 86606886 298029498 224469390 846848207 716660583 415889590 358752334 131426837 33948242 446307610 456769906 868975674 698789845 580687967 800758233 843201349 885509088 913247058 581584850 597218237 897875856 54030912 971883384 256005254 752642474 484092066 936114834 385967386 233735928 756912112 349360090 262137723 372220057 477439458 379233494 205720496 323040010 615477078 776713668 744120141 829333256 308909206 340826418 254368585 740546144 122889002 169701988 504042508 427810354 564742639 396282462 947268105 193921041 275022557 184593335 878370213 94181391 973838175 369779520 532476103 162923761 687298220 166865982 990625984 9315316 743987449 453988016 421861875 494459968 464504733 406205638 442624497 510995347 341372879 184497017 454677469 698282587 213701082 159323330 49533753 566883219 804667117 6970343 888058986 889797642 378222932 756658402 276090067 981534447 123934519 623460951 868946793 36855460 304198506 203966174 780368245 653963896 306072514 947720039 742167163 128804781 54741206 866210257 723217991 894166968 227300236 54176212 299688908 915218824 691841949 749575725 968234065 330495764 66164175 636525989 926599547 121516946 191055712 328297827 540615715 295938763 520969099 9644358 259845531 449883197 832983148 545316463 262015497 861407750 342770085 883466610 461937083 299711904 768796263 39809345 846639674 75770790 904604494 507890778 352751958 968822088 481284352 539218538 979596107 987182175 519861420 469678059 319182977 495636315 136968580 673437920 309019103 899872494 995246116 809754028 471848469 874423775 474442489 994129230 950579712 327295182 547165974 631491282 586300158 452794737 956513335 182591353 270059341 93903113 136834737 922859462 306511583 919475952 165223416 474794616 560883882 514775502 101150065 51637771 882197181 479917072 742614886 585062580 591179345 523818804 53467826 768186718 925187524 231468904 431764802 400038345 773682945 894087474 958363552 165231038 574341819 307819341 758604271 223760521 215816056 938314026 776158044 696580016 401472750 369792004 764675874 266186496 118622586 913432326 436879755 773672442 470972725 772900517 42052149 111209362 408733458 734866513 579858179 558377423 936343996 837483942 135398745 276267045 970808261 874802843 451753624 726617309 747915677 96971466 929264934 586712499 859506583 424680963 769689748 492667260 115461968 263703327 574250971 23385090 162068310 930755755 223819406 331320789 888848301 135668192 541932457 322990437 702867193 467524814 639715187 559540955 46763076 867835221 523159754 353248362 604607326 264111150 400358632 136599596 6048452 193274308 68273069 566213755 744629555 140313555 964331138 824143600 252355266 81458335 192145303 137110091 690528904 463933867 563030193 913138976 564974223 996570558 10000018 905009064 545391077 346414966 89882050 609963622 253506573 863885639 355952348 673302257 139542405 97739239 564277744 13324788 787246207 534515869 463598866 511622723 243951498 307771772 982067218 297884152 103599222 794768201 459695288 27920405 22081357 109074803 654116571 906451910 944693635 972790746 219182604 557091368 532753740 28198596 482777238 621482689 609023404 927974783 481670322 174122618 236547721 379683296 379183219 79439804 928628777 829269997 4595170 612045769 904437662 215323027 888790227 932259591 750672500 324852705 891930449 3688189 15515840 149211565 449846010 938083120 927259862 966398910 816331176 138151221 716327944 540468734 773163777 911394136 692494915 499097779 442195722 106882207 302052227 884305535 921526757 56334560 568820451 734537535 395212659 831446762 569739395 613379159 104358424 145663384 559127616 376727813 842529152 975414152 501060372 495484539 214802707 796946869 529673390 496240966 346259715 53994525 160162658 451738580 566073528 458723590 174044039 870356530 321471507 273235076 141516345 476419595 102707805 390348762 731330984 927757854 64350422 960468436 192408987 15849397 962578533 745816358 105909911 606449458 394073946 655209319 258631801 823045615 826184782 669771773 273897299 891661201 670847934 638176999 925470695 804361796 481559767 275112289 547189738 734115819 22019011 484115866 260596417 744495852 103268824 764490285 733291850 213137510 338772032 244808202 989093516 920181302 472661707 884407597 47846293 749589908 626050637 798057372 116517638 617003247 254393036 591385872 859449634 781541684 634896136 389060575 45044020 594024197 11713457 633315860 160183113 31885471 450738974 536130767 283777270 588233649 200231602 410137134 897253658 907563472 66220572 733714860 875780941 40153080 933341006 86210500 957576489 922345146 5092506 147525744 927976963 926342852 103159273 531058458 843379019 102852772 274124 884327418 842534513 594444629 352595749 860338493 631967187 411487304 961052712 574342482 444543786 746165079 559791435 637524709 737330125 45027539 111717166 868168811 322436320 282250015 541797704 546622633 448643159 533433782 933009273 892856741 466321141 274701225 260773916 532040139 872359082 302266565 956813368 931776947 851964987 749128650 560109729 972437785 379864376 874242407 285590343 273649913 613290828 911715254 336892967 886897684 951732596 523896608 342811501 732158002 700430537 478993721 271339426 643906707 251435055 988308689 172432104 961990990 296014594 98619107 354262626 359646144 389304285 466529521 289876647 609714174 567666303 94971586 947384119 790375472 759625404 772707667 509731046 838349454 499299988 85771042 992272284 274824230 972620165 272939218 258337619 125814177 659632345 486836545 425802540 917853498 345019453 880811178 53299839 477971903 838791985 76466192 807104440 140450896 547289788 175734118 871823391 408157501 634725684 692430421 711337389 484691905 384598852 218132720 118247002 937239191 66744697 618278708 196430342 130717569 385728906 801714018 516737174 45340675 749655577 645052979 824170927 798362051 614640142 473853396 769372973 296438927 894704017 552225343 501891902 219008402 190401758 540957056 559729668 807601854 714375917 708828445 270424605 645821208 832105150 662713148 146905786 414502262 894896391 207950932 572157049 675549088 712777068 28527296 551592791 144647859 53701220 550929326 422640044 812585622 860855453 403580489 325043907 903654013 932115871 605189415 181626668 120444337 624901288 951171168 128688851 296995050 440779846 553068670 206602325 340067369 878885594 942477580 67454871 84993497 253843855 874716186 592583403 572245331 216717037 709083665 82535465 254498372 834011111 246804277 135807388 970530007 75314466 700340362 8730652 932725340 959093229 380599065 298811509 188527591 99315071 717807293 625101020 281816621 635895121 414360853 332061061 265983077 275704768 934313883 787875818 32889797 437137919 445584356 913405866 147197118 545490342 851813652 78964807 600235190 110229714 931411851 461236831 269743241 45352330 163525294 738146063 712955230 568802402 219205560 366042867 784105794 324727605 128521609 336213375 840170331 771788104 66549781 751969890 777584474 454876605 535175184 663157136 884042366 698915446 11578160 782928732 916149255 186270442 195284257 97266601 196543074 863764580 993239214 623928072 572696717 448943263 528944692 570291141 462419944 591232736 695223806 750631924 721131464 950057444 966950086 8340019 674001216 28429028 723408509 550470068 26413470 48838723 409752838 887046228 324034400 297584374 369533910 483012275 384703011 454304537 859664808 36736167 333421347 389816359 211480573 188732285 381326321 413017415 530400401 830517066 59183553 308866481 656722980 644345628 203131884 202154759 892389341 198720165 636800317 88353325 558276618 890861695 936253946 623276628 954782347 731740199 605387699 941804181 686686472 734573607 225221235 24464233 725142920 656428905 382360811 667742094 120140857 472322269 347338769 766139808 34409239 199065407 173997388 334464752 763174782 529639216 419929423 842205740 332007530 984429044 885192878 291984781 670220923 63163362 507658001 233348201 244272506 51390144 792858802 79155057 764339092 603917148 734158196 687207361 686550298 509438649 274764746 708854543 769710018 724736717 923976046 712201665 583177151 4261116 747453639 983419857 198155381 202380607 803473963 616492594 499652966 577557026 74252191 557247948 234838320 274186601 488798660 394058135 288732128 333534868 612892780 809453929 824662881 192256370 499614610 997481901 302087828 824939132 518495938 453428180 535003290 278554194 765635701 800430441 768391087 628677700 971333845 894497816 963187549 426700501 130612319 292362397 398614000 78413168 985466575 421283137 777993639 988075884 327395661 354163739 605289870 395772977 710169731 846311616 622884280 632872052 841283129 266507517 881022246 326697216 197294912 321763208 379004924 32616030 361817735 847683150 21484084 814212407 446264071 730696434 154992031 276760853 117681855 539737248 234748503 292974774 653621259 745412675 357905184 639944384 47993983 788104377 527505316 779669369 22053791 115987985 133014560 30557858 212373752 612208999 851426434 619868208 692558059 102729094 194210791 368605928 477796 94351839 922685424 303059213 940501271 628706407 696069716 264862933 130577139 657212758 615580138 872985433 689438847 21499151 656914257 721012797 42765794 550346413 27029476 827854683 661577878 209365984 298970803 901215486 219099898 141815255 216713948 756771549 609426404 928333812 585275867 671759245 819385195 565902749 225132264 933884648 355788644 680311270 185178031 842417985 636734992 885189214 175628088 542836073 212471088 486074705 779989842 245033717 477321761 836665294 552638763 927454494 292498029 616867428 222817508 605983040 393163251 546000467 419329390 820045108 505558353 373282312 812896527 607835985 310643526 93740624 529620858 831910309 982718023 166260441 977203115 522508541 217180143 515689835 896642302 529104183 798419623 260728864 29257940 912433575 670919317 866177124 376795881 804546394 124519674 158277581 248695145 313526436 910569991 351375309 533543409 462411609 594576740 894718424 901534025 352840279 97037389 479274910 476652818 225966728 41979422 624794252 781100661 244313537 162749682 43360994 417079082 903409374 555303505 89162665 525519220 383038051 25083593 371087211 651342015 108911415 898949533 431128212 387923037 986914719 522373979 592955206 547106985 727625298 316423953 990019719 731926992 583162974 221261169 358082909 860723838 807057508 950554982 85924734 379311052 676859459 352927679 323855633 362917561 647973096 516035105 788915245 223232145 246956426 637150713 811472421 960279346 742216103 613801217 707620171 137591424 937182947 354377006 98886991 789591168 998622052 68418944 822914929 107986128 92153394 189018890 66604102 86794641 516372876 739340423 937229220 397290613 929894837 341413690 455767542 459558430 828353834 731800537 43541837 678993971 365834884 132521074 206451055 797907938 340831798 179162827 48511626 651674089 592335962 390031452 816995123 730394711 178855610 568812253 472643731 877850599 867310153 255885324 909568280 503681061 911431961 336244080 174219313 455811963 877401686 116083222 147236793 341518289 224706899 847919567 928232792 600389833 574357951 582958130 482127437 180673432 860533947 666427334 586444903 512796044 988892679 179037565 651424194 200043736 961019235 629542829 200941930 879820770 300278125 471314742 385291646 209794569 266676266 514528270 553492870 746686659 109519234 610739105 767426506 335983027 345489830 867297835 226764511 858280924 397846870 557779502 930996947 82964742 608793154 120486516 965610562 171110931 850098991 615315500 398638828 957705692 791695645 561642431 234927260 6170606 489248692 913606671 477840819 672927991 910493063 827981700 628541634 778342658 328803714 455734625 544116461 399685791 461796243 421328450 987683473 979416286 513043442 637545845 788249903 851466588 890890007 496417849 570928378 140838885 875985149 198884886 8269345 716247078 196032952 540123965 509952417 698906851 612998029 174056292 35298907 585410569 771828999 642165743 416883149 763356399 545495493 686372181 285397455 394221291 405178790 120957773 17358250 584937189 85077677 577233067 819734419 932172326 553381384 200185791 52400874 884780890 631025063 651348006 894767882 557989349 472253292 935401478 3106047 594144792 197643745 475500651 689900924 453315024 882467380 240842896 412132431 289074288 268528792 7209977 870210844 921565342 662441598 125586273 689048460 23330827 890124531 827261129 632418507 818388473 120408226 134961418 185287824 599042512 558873414 173572082 260090570 891788145 993975448 271845674 686013971 754825787 726370560 368490494 696662832 590395005 236381734 334858445 218509973 148878941 507292810 604248008 689978944 831169990 625375259 718033063 896157835 896897412 494927060 565839252 703864691 35233909 183447527 54778976 125639248 280252397 981586570 617910438 591195900 985098662 710589534 370393191 473783941 921662878 201262386 649942863 276993280 387218843 160697922 445895172 596610646 20191832 285207570 23925323 222053582 27661492 906875646 546457660 112059958 322442763 953416683 461543573 78785956 648789509 860589695 17911258 985311946 354692787 529844848 356565729 748474682 496698803 551394786 28949868 571155879 350717726 601213899 100141427 977261262 266165453 842849328 434199581 286117443 937261621 174446520 573405006 70681875 785287277 893988099 921693282 61408683 325496449 550191991 527222819 782470858 282339713 409709664 750117095 106382951 909207552 483596983 76576934 673874034 634065121 756334514 309489944 713496056 216450232 269305235 813036855 747485338 869178770 393985943 719205264 282930396 362477243 121590911 847905277 231272694 155165799 711039145 354565587 541509450 721123658 333615534 464884637 553161792 75754845 876901048 113110718 176418546 839362822 446710316 614005721 250475631 164884246 817372088 452783181 425663134 809212780 106064807 413459363 812388097 736889012 526520179 927627973 261421638 576061177 535570999 692139612 111725988 2867294 830699659 807742980 861251675 741117172 985292806 256295069 212373348 118682399 100278148 831314464 918944126 725123707 829924549 38382428 335852444 471603718 609332939 669304865 58040628 156039684 719544472 487285704 606718022 949231283 752385254 426006849 565112801 172814056 441366423 194677599 87228733 779017434 909622736 211706366 374529289 141866142 607138432 897856461 456486694 780293043 597702555 888511278 90331562 368370071 701196115 238171883 57066112 181285458 873353848 284381123 668424297 776413695 650964781 60341795 553337789 212680734 697454611 691707415 534969622 99073535 404830772 344864146 596991922 256072965 402046065 590351208 515751483 326468755 862282167 929406689 797568831 512426863 331422634 834057736 694734672 831140652 570090529 146066801 542595661 722446207 363973658 212078094 333278771 371466973 602204132 586670647 679640820 192256337 287593158 363829398 141150749 204016233 360539790 946090601 331016346 572621587 721943936 654259793 808924498 175584357 333865822 34616570 229682828 182189965 809802065 563296883 650289244 324697275 987945386 297566261 810971437 499048728 451230442 27283030 949649564 566667070 411526032 851005087 959626957 498876163 395838568 216705012 831172205 100104563 581402129 673606097 920435672 476268443 806920184 250358261 360924749 17861883 583259225 288669099 956872244 342964063 682090378 249144605 618307350 141445181 303757877 763322211 492515473 683615856 143817089 456127638 771313754 443066863 166191300 474173600 392597016 659305248 982130647 29447907 441330065 325632085 260426463 480507010 536024452 574798088 319483186 403644829 306272770 970258498 894112335 341677934 422238189 680428374 400539254 271252944 212936235 566548537 67306447 203898908 765531413 340588055 520077373 156936521 789839779 827127899 512077439 991628509 372694627 419422194 947375904 938755374 7978555 369443895 889724444 179524400 320367425 210242675 409356811 164813769 594998972 100702862 233621282 673036983 923903940 475467537 875708087 88915582 961623221 921795988 557994999 962380990 672869480 136533492 398656063 934744143 982846714 689579507 289312020 190980212 308014283 837724352 658387509 286790067 732578308 284406500 741074383 842062487 208127120 931587457 176430664 131727338 98921755 958268633 286819305 913275547 369793170 443002536 173271161 288743601 872979097 113321135 305398752 495576112 480297848 588611679 73052987 606039369 931198451 626738381 567480641 251179498 344475461 325839923 278891940 413301837 940637084 244249989 538483491 74807941 487142342 236309470 681136566 837094591 463523992 616605066 361691766 494240036 945103288 372216737 414837162 772455750 51999682 115866482 943370803 973885115 679408952 678364194 547670209 783152353 781467331 108224869 311838200 932269039 7444805 12892831 659862436 967286580 170715018 83417657 691019281 983059931 449865187 444606921 384494111 727494545 810678645 96318813 171800937 608373059 574055561 753723939 356773327 889303177 219281709 110372493 116285492 778639107 270399986 7916729 954105810 865284501 313619701 617284251 135397189 413151313 558605002 467362386 519889742 460996703 416319816 227897458 597206370 281915183 710658789 718673144 945112855 51605380 378582454 726957 318847554 619452025 842359263 792004972 789813627 435131143 249922969 745712871 267140456 748418268 194362083 385767945 482531640 178365790 962388171 786635587 333458024 857449545 913625096 200644567 95281800 303191457 721108218 540770049 578504947 946273174 642119057 899368842 776083037 553949964 330408468 328593513 839258905 613703947 607133272 679461368 108265182 194500149 193897745 232962975 136047522 299941403 33984995 321720706 109474338 469405335 708876874 105014207 60791101 960247775 88539781 659764097 831011107 645484066 316184092 935663913 807081497 512186829 123642637 421624730 970338925 790759836 952491575 226804230 922553837 655897238 767310779 759170434 592901287 987683524 657274272 385409 997420794 29085965 57472746 261231307 568245192 15319701 111062825 785439327 867256243 87245990 479060886 70805943 41138561 571864296 882793541 634547845 757225446 487486974 166316941 640315494 726865018 928572290 124219069 857061292 652234724 850920995 571580700 90000698 810225238 917143030 840309860 782682218 245744491 224469125 845070520 822471410 649293798 249731994 454208508 356331093 206393883 821494452 23257953 706323708 849899101 840769388 336468652 340919233 721816461 886410472 495420206 197073080 993732746 704511705 154034088 949599720 914816622 786775887 474909206 483263286 507203334 454837792 946998692 922814318 509281756 196926679 241216538 73240967 623773648 74744840 354377758 907256542 166893925 817997889 851241251 156157067 643027056 357492829 962735757 849029262 209984588 814650795 944272857 898222321 274562495 885275810 508105511 39917904 737873667 306669470 754270467 729477936 319061824 449857502 725202342 508311152 149006715 438419004 702123192 460686491 932575277 709970813 654780944 201297666 154852972 15115736 240332601 582979623 314320053 25162305 472684450 21420379 698680280 384607932 648853575 616243463 467694319 119060794 847214933 717894119 52951552 13854074 220014834 942186026 252830198 98764235 239644175 588200796 422942580 197963893 136023032 168056517 936231529 996485991 138755463 869427216 47480934 309905481 729277001 119357540 325266250 202354790 794004501 244321380 81909530 968270977 598730031 792926089 962074874 440027966 8114122 538529103 118060790 755732382 809824473 682576323 750536618 350800096 170543580 394127415 221778518 871395733 37841117 131332192 392158748 36542211 502674852 165631544 628351946 652337619 217701893 460693980 902392717 612090861 144113782 332530159 334578624 353386695 301724753 193821038 686274132 933909658 378813754 757182426 63655774 457921392 537605696 533532610 665379543 727908976 259378708 612556899 228502858 677513559 300880933 913783377 965769226 502368282 775649655 261731859 39949777 249140950 96947287 681972613 591942897 822140225 601314965 870169551 915679125 795024586 505886447 786614636 117547435 452745678 629370964 317856236 559016055 290845731 329362659 797502670 419001920 354587125 48982183 145336041 213092969 238790622 760819304 109942515 757471211 459714639 855370512 903315387 528184324 732373940 457302105 650997813 348614363 682250627 318674857 434566891 883532022 718712796 424566246 476964235 225669413 884326665 244413821 558188543 560058375 658558719 769175838 559871787 773924984 211019654 68168830 510085478 436544488 667602515 380545 540818847 332199661 788751251 869607885 791542033 181370210 571886402 782051724 910502719 916284250 171654114 827486172 407538076 412035562 410315809 120938481 671718053 170661626 93180039 715535995 914567687 136603855 65434806 853268743 960470573 501562787 81044455 353913230 947113710 722004019 985809175 903351805 944136929 417359227 762948726 664350844 149591911 85492995 516749674 785024617 926180455 131760241 178630194 981967574 729135716 998912914 320441047 318785550 592135119 721051313 200546440 593666255 423592213 219600756 293824022 548604798 675939168 918808121 260222747 146937891 961418093 544709635 753462784 744128446 146898095 213742200 429442372 651587251 192358565 641162738 291573390 435651101 130523458 307437241 540618359 137134607 261252953 547731844 171294986 901957503 225609313 89425210 166872103 22209285 749638589 752965377 915815354 357379436 66313869 187812548 174034075 828667325 925070253 65956760 738126523 98941823 631556036 926940112 874112737 272643193 356502575 514798558 9901144 198740286 455140538 768122376 812789482 401221455 923465341 121361661 505656183 980300836 961833441 525863357 420930553 549313147 246879045 38661937 547924274 250968420 350222093 441775448 213868318 694662256 765002637 565519298 413323505 225782087 381287332 828260253 456969020 355641590 535487560 461307669 706555625 664056695 305642296 172179815 227249421 227584020 314802541 663125053 264243361 93265587 67043261 614425885 57791464 553309965 32399656 757760522 140011846 698105769 746208564 532641846 721136616 991595647 598774698 328282502 362823940 181593950 926241620 58129307 23012966 848601989 23889568 25693553 4447957 665715110 45223954 395113088 352729205 975906374 41286892 702092897 759503268 715261171 838031142 152237788 503458952 152416734 172714502 871701330 995192589 776735501 529463997 426185653 723070306 816882776 457757488 535543431 842534697 901657950 90142782 625849694 101320593 349465312 929282742 228565295 123447552 990091800 170054144 114282472 716457898 34489015 699859515 75637743 49378746 364910210 850108970 266703075 133983347 874701293 990817770 410815209 665989914 866067994 243644687 839303072 50505098 319936469 78020251 645423563 513273024 203267780 759552422 108224877 598762028 824359165 619714732 819949210 76061149 309749524 965985513 982211982 662271980 525640560 272370728 506256373 571583532 286809738 97540715 384163779 344644940 619119249 980016015 781343327 120623758 75822417 356856653 346145368 160456934 705539385 219012264 147136245 710120661 621099867 216524268 519399556 729932053 8496766 934688682 31681807 93886704 790079615 827837883 302292988 920350431 110312953 305019924 334207664 414339276 731383463 194983989 843168002 19485737 370114025 169604467 634216767 579585794 950038577 5947855 405642139 677869786 809435320 500500592 581727422 177879740 991061217 232444301 897969968 713736098 393505335 382630415 793442463 512266792 691486279 779817036 749493765 198094516 18012048 590737474 670051898 230438620 619605758 5882648 254556048 698651394 716535740 474533487 77398643 269359537 209680354 766190318 189791511 541922333 638104153 62870472 44080131 409139677 157114630 261976726 463014553 177021471 296847359 489340031 682021606 881157225 920122311 164419861 935850534 376548161 258348765 464181360 187744556 304467857 26376601 915834194 4645729 800349738 215795315 332259882 146976749 470730638 877873690 745092862 576109059 385889917 186438781 839139413 954581173 469770666 696109517 213312157 386965773 437426764 209262628 371428941 627400564 87777597 210012947 189113565 297782785 97665783 136913123 995366337 43451220 200969394 339715548 985714176 869303470 208338692 704791162 564552859 428027596 405309940 220345860 343437034 671302294 100838362 915821327 729367628 995866897 889181470 591904222 125658322 509410398 173147675 410944014 661960221 277651544 916776548 897097250 439213433 711570611 931213151 450210889 192759191 956040979 959386028 526170567 235590587 604381237 175862113 67831203 47282711 324685401 748302702 225107525 672645331 141710728 152887517 874546755 852447750 890469874 853132063 701344804 822334829 333273935 452321693 253524314 238619047 491508420 695876601 915883199 671276064 887717330 356414840 655534845 165247788 11439001 39633684 526779158 353746732 688293381 16574670 865547641 90859307 221406858 890060174 56551970 35978728 995585461 547521315 719005950 506265735 763250499 655320461 795440681 613023380 29405130 1866569 541053045 873521253 921821793 203489529 640500688 267945486 604139567 525552973 594235748 922090979 295580442 427512993 734618187 350938942 215154714 370068298 889501211 482486055 598073443 141643545 46194254 21006201 210928496 809446147 802915929 842863845 922249808 807731523 680978392 667821044 982984835 160564450 35541954 270700460 224505517 954509248 566501818 991055857 40962203 748487487 122098558 610503479 441443004 440794338 897982463 729516245 54249220 219932136 281956449 808066263 158938112 688495956 86451502 857444468 16071731 830689785 63537 183175850 387554906 528455809 691024632 398626697 881915795 586269272 657845931 549084372 25581105 701980973 295058480 667269667 141615825 126337024 794852861 973712327 463092494 554476732 13105074 108617668 670708257 408974760 323316952 842820398 426892248 104897482 855938017 968816693 671898963 835251053 24866324 349760919 674829296 932599197 949929476 220069549 804710627 112233452 266518803 26026232 761127401 268541012 284713279 307704053 286578098 949091828 51827916 973992942 998231326 851018592 682096457 238271208 506962792 530974593 74095710 379657647 622135299 552630787 116833044 753800009 262308155 91536592 313418782 64092241 986701145 684200340 206337081 515952452 198742453 538436136 451630378 977158442 254114146 707725453 682626079 350118612 293354057 282546185 907257262 567141633 644293744 560973995 576763675 273042027 861872586 124034284 517000574 645856072 625918709 484537056 859136394 701290633 815545144 649796999 371594428 208618672 549509052 342038215 974540826 422039425 374134308 206494430 417032792 68995379 385908024 270231327 813535905 72298654 315357951 197087037 943377034 307045473 849141760 803183195 845884652 388978389 10102449 944445659 530658379 554937936 213217924 975558172 416682917 762241615 817124401 402964167 364966131 818462678 863710689 67697617 678472837 965711757 81080962 934756153 463469687 492363672 684447719 377488227 566418198 122611187 28507410 883172754 826221433 35325321 210047872 220363823 394342144 870927024 3968452 883367121 338690187 807071802 189108791 209096080 201595049 196713301 314784777 836936226 453920851 302148592 6350690 609712382 766196273 535230688 568465059 341259612 311185183 419884454 774688281 126577323 884953527 880188960 48644657 359129368 998753340 658791820 229015370 606101793 203168398 202211841 869652944 195168637 903418039 426792226 98006439 869398722 580861104 523883250 519805820 440869848 49553599 593524954 498025870 243126108 69665461 177208686 300793456 917621721 482770146 290718854 376253264 286785137 381032013 23631374 860202440 793841079 178856849 832248745 938478894 682035727 459747764 200715608 641660685 562194082 729719328 931538826 587051141 363282514 112927086 527566160 252034408 204912468 554825987 360318137 399453518 701395585 74058473 820834924 312397319 318882199 318763526 572088690 447028459 362573465 315376594 679755071 416592199 168599442 661642924 642915440 628752817 156735092 277688621 979839742 4359248 876062705 905276527 4982075 755473029 467906377 457099546 685662518 594088015 437549430 918647396 614406315 280415681 854455145 490784423 116151638 886023259 205892960 930365281 479839164 42253296 971745528 333926258 31801754 601071227 680137637 563867047 5770776 286401087 244204232 535967627 996235419 302904978 235828049 202221250 710309636 866747687 955437157 530459857 268503856 24436387 30166426 960609624 336225729 554540541 404519779 85919804 495842177 216154104 986942855 188345454 158782310 530057424 591996529 859916776 480105215 359028503 349183664 613800364 259177598 68788095 175254827 797276427 99319987 261551486 886613499 275377659 674959337 873653425 978842787 890600223 625100477 228081800 12493909 199780325 968070808 654957424 86219054 384112770 710879231 800873659 421167302 121226930 153184600 521799662 963602138 823699744 900626865 474865867 667700021 316408048 131020469 146362027 75991241 729991012 29933532 467279105 211141641 601784039 923470999 366882474 2667038 534735800 70695046 19516437 437632531 261677286 323221029 137850677 405847639 340122039 600182991 269104663 722602663 980367866 159030468 35176724 347835405 296471903 267548675 652452704 623404804 349701572 802024594 473554551 38160392 340515156 97535134 890953219 24604855 985613461 864030549 558694740 656806700 254301015 226549105 218147436 418044863 957969572 635616787 125294816 991155847 457454517 670258470 699881653 572744356 240399056 140043814 251020897 452681238 758492388 590670380 570779362 851923370 809943359 169525492 844195600 640801346 332764003 323694113 328892025 975066109 501430323 943321678 393136894 609897965 949072242 642862870 469422725 321411348 193477712 310327171 85440170 686868144 224915243 52919828 170028380 455014950 784728899 223867087 285685838 323190190 132876852 720889054 495547952 157539904 436226137 732683121 123383546 928165986 70727243 702481447 641309102 943924476 685940512 45145968 88829054 350434530 752988291 478337315 301607281 651335592 186349965 832323373 106354746 357595890 554381217 969609924 244066726 557330619 180273800 816580583 969318842 521720828 758908494 425954557 465104065 245293762 768499952 93283219 77074500 695711868 119383739 795352493 495214477 138805209 337758371 210711494 519707690 947862520 428551647 61409950 664904146 850735618 149407895 733508237 712923143 276208781 84946330 842199230 712424593 714139558 683259611 285730692 544555597 486844485 103198644 802573410 472507221 401171941 152696323 555937888 505118064 92210442 804303787 604862973 733647778 486002105 629084836 274175632 935147405 847014991 403979635 424303918 63967692 51907064 431431713 675997120 890476964 327398644 262322624 965636418 514440996 41522690 417212562 255439531 131023975 755770888 816060820 423720356 468955921 483757306 530115443 234088006 284304635 724186567 454302037 70352291 323930853 873089175 902760182 316598205 477016141 761240851 609267688 652074977 859281885 385784358 330934183 804506646 737917459 454089267 994953700 350985511 991133789 765953539 147273557 720158076 45670665 14245155 417677153 365717584 710142515 468741276 601228529 97848659 805332457 121878445 975322836 984022841 202330401 686979484 507962978 297690411 664119529 243273864 977497584 724883795 165643639 563108290 749407644 824514412 334804050 123300085 128288213 334783649 256009548 606206731 581458356 840570690 530982855 489813387 782032181 155164680 709212397 416095741 239699621 562365179 104355831 245151269 190160587 55494155 292085573 720838485 583449256 292156422 356839410 234387245 588066521 532391207 992585361 138760340 783843867 258452835 664819065 363629608 725755901 353957314 430432483 293084610 796751962 325566976 466000530 813886731 972006818 69395631 677589436 343531747 222907479 769802297 634015594 763636201 910098816 256964851 555636045 131717891 759349164 204515947 895284645 654431356 74542813 319587183 311060507 549093549 632429114 485584663 178349325 809244508 122609061 933316012 120616156 722663089 197568601 343852997 984260382 925333939 96264686 901263823 977401258 945761684 981808877 10198571 979110708 467302230 569263373 963933038 998188260 269020143 51081927 159078886 444221750 232798452 735295755 445446012 154588542 164534541 653792745 282489236 467332594 242541937 304867879 149223203 557937890 320090364 308931405 712781209 897877525 534650561 527557522 931271063 452673901 774028127 335907516 2252984 572043174 355623770 464323233 37022333 5590528 210421284 70287198 368100460 809952381 407621535 224408726 363668945 201554531 40998963 988801252 964341995 457011273 44909629 225045598 449931916 968476035 53436526 568575466 70176490 984716326 560208294 171067500 776660194 435274410 550393829 815259464 856503325 989773122 401091798 151109017 405659772 283973630 105450526 261367141 752657702 836491098 909887416 167187883 958922965 776911137 592672925 900971950 776697212 878483399 812969265 598011542 448347429 840484293 960276918 616072116 24519684 406815407 462655255 280970180 588992523 225049599 830703949 46026640 772346947 867149380 270811961 223681358 211473171 795752858 159162787 648335975 834921676 52276964 693381804 935556212 63305979 808334116 200550788 325752503 117938402 243280493 900197751 195848319 228777494 186674295 324763590 764610476 802012963 315969616 592975360 458208082 463037541 404999167 766049266 680042025 932384018 942209665 835000642 222842705 655994553 632734780 430780784 362806105 480676862 865851617 414092249 691808756 920479504 234824412 599150435 550047491 650951422 678374606 472077129 335854972 711385977 955262784 169873492 83718828 85449490 282272450 133928720 722217205 660015071 958737234 601801735 742172048 49856801 993652760 472887749 476497076 337162888 900020409 798426388 772208772 664195249 250752015 402448269 512950896 826235351 44465311 609814283 584621131 7109554 688027381 806537871 878735529 675747649 849862478 901615257 721960183 771102386 835376159 656875734 386789192 669733148 577190778 563553981 679470880 165808598 252251116 109891384 76850019 422465169 334104735 795483665 691739144 356450983 172019590 375737228 974602571 272217858 486770146 378834153 744948849 841916186 423887519 332529981 883385271 58539817 639093631 970270031 763087318 488285799 723287424 464877782 735913325 747781797 111831073 603601322 527720584 21069735 988984374 516693053 905504238 971449144 139067559 447357641 927088433 393740532 816038101 196197079 440265845 84700922 810516372 26759231 500189955 808728034 86340574 203509188 94697761 505493281 32180300 218826329 383303011 217353912 371074358 531119530 141176107 933725943 471354782 867906638 117136188 56577868 357873826 703364241 248646243 75801208 866842957 880610579 63082117 967313214 60770043 700729481 562194250 843909224 347959563 51285684 769174771 507335868 207467617 884249860 574199612 525214934 281082537 634244807 103792722 412232040 930807973 890155706 661185311 633757433 620272913 577905394 152560333 734091059 553803750 836778459 152666175 472815854 941729309 941674451 629878657 408535614 8784683 503759081 565089614 78393341 869086042 95220323 50335156 755198613 46749657 244598998 218913512 733623266 704643035 34427931 493197600 335495692 197825347 790776135 859793462 776071247 518525233 384829592 99487446 118402311 461930017 770434860 251274381 836718455 787226308 560507665 967551962 302908783 607731457 820437440 125273106 135685565 547163875 509745081 309428353 404460499 871961986 899832893 233280397 921595447 821970288 787758591 338874242 92705173 798087200 186475229 635738423 595860692 410804357 391876052 119387851 899120130 724649327 432352194 419222015 437330898 555715644 475518107 494196605 98829820 24572476 446196102 503892937 181532883 306860247 562563037 806218045 953983898 697376522 692392731 748934340 974407499 861458726 282480605 94888431 417260001 249766271 134168089 413664374 896810851 841596398 846119307 907619066 628277996 667184331 449378368 154810617 617055104 143780774 624236424 716488978 705760221 812648359 646162888 387426492 600349884 598790778 902533853 576579012 332127982 241845124 995801668 49269058 99336593 57156393 662929165 932590261 619964559 344825696 742614157 484326115 176678219 563953102 830375039 126988943 935460692 847919722 39666923 96467040 659575863 531896505 685184125 810565341 316252247 663521702 894099132 842558423 262094931 510101990 629000874 19030305 326898604 251292610 105180500 384575509 109898642 487960980 855810897 98613101 56351369 119893935 941056005 563460261 664454045 359776350 164548650 412898767 397919474 544491296 88839153 814922142 246451029 346624564 49503169 197111659 387218001 804615609 787124233 542009876 426339500 532367896 108222773 107105701 139793705 564720389 431066666 749238188 142968857 977456482 811832755 7408022 124870532 453361837 215527315 886239030 387628060 461832378 41752784 159910336 985203731 97710379 935450148 711602617 638536692 511949656 372264433 409608287 496766748 524719934 598676925 285009195 192500686 557816472 620470099 300818158 614270987 559617137 830662232 856739743 924913060 961978888 367546752 892866610 195315202 164375967 291154177 733774520 350611146 110375431 923572987 7139691 7344685 915644457 689179124 741982844 87809401 594295199 971345346 634408275 804085344 93692194 550534393 825729713 408402037 957982818 803153340 508559206 866711924 404989087 668361585 914502370 263002005 648823670 241054539 487734846 970414787 678031820 386535744 555391744 339248867 391081633 139384021 359119228 984679361 235174273 737219329 440166408 385083267 976378196 984763732 743872222 684481891 997033850 70432894 248387595 620807376 993408462 872606985 817934487 779754074 301051616 825541033 969872204 115966521 694380056 564713498 930799624 178117880 414024649 482945365 960036801 956022390 653289330 224828728 584512424 686033891 339209333 216537799 84797367 17588383 162878275 247176514 687342782 436696965 156058615 920520369 544521055 845915896 390816052 111289460 866934054 92712768 859987650 278435532 676110938 905506794 155296797 718481323 914338336 563383120 411083964 655396940 592481959 164196416 51076133 626846799 233524168 399243713 408787040 556214137 349021660 61780612 283026097 128590446 926860302 616719287 938452881 571275371 968434134 463263547 566742459 970337049 183815963 671412899 165968752 248007076 55349620 440512899 188506053 196592723 111988464 671648641 657919753 865006867 785528456 754943582 713578878 288912162 485018114 324154217 702626250 116965855 830529845 754146489 261480009 316291765 720461265 630523382 995795595 987970157 497513622 107241677 955696727 895033588 818971266 24616363 699874199 721855554 388485654 515327299 882186608 65753020 716080627 436448645 705113952 581441030 421797309 975819533 987060929 775808302 971989635 270905243 966958952 860576021 308386794 312763492 412174530 925965548 279104386 80167589 286419715 218429116 593997944 873638982 118366836 327744702 978119918 153128238 220840853 875502665 196326751 371193752 543127357 155477077 152173847 684782254 242877099 486132966 319648758 831981955 231611110 950561677 598077243 759044017 20234183 154883330 713773590 369431973 293273333 253085921 872445820 470299010 960924036 484308299 736611397 43043335 951373495 320481651 544938070 228750887 241516116 609806866 834668747 344896147 145623786 883123120 776031908 719232852 423181448 443857297 319043220 753039613 728840665 486548291 316534565 762305485 704468637 832961866 829201031 253818403 227940885 709627013 810042159 864177479 587438532 587015056 46479095 8426164 44717576 763662258 466199621 845055999 752808117 106687703 730033721 105463564 197485958 835767685 508742009 449487399 180166017 429577171 190079920 283256301 841354371 335640157 887632646 266656275 837847957 828941926 717941622 834922852 955961545 216084501 810321179 14172995 306298615 85260489 610070699 14029033 80203363 300390282 283514234 205305160 109155799 125827287 591562255 622641021 344737366 226794707 931291504 856160366 448530033 211097254 248202717 995623929 888661365 149500803 364079807 802540366 546298436 62542056 492725429 992747842 513442534 44526117 973081251 252899782 197762867 198686110 643353888 322455224 491675682 475566573 293530832 815814905 622916785 459589757 661865814 290511043 232861759 430864013 597786305 480107829 139497328 361668764 865604751 684526655 839092907 395103793 458261372 651850394 249508942 17812878 605392711 6165235 284956811 866709507 519166846 535225359 815533425 76355164 20458038 411651046 420693409 383246260 84412248 510592251 970499383 787529769 866746175 413283320 392382843 669789237 129530081 847419635 59513605 852363426 39651330 239830668 593143837 539007601 740918484 507589665 37160662 505409434 22804298 662941026 529008919 145018491 944792254 964854963 330204680 989048903 801492527 557241496 272502024 998672992 647077314 676016014 629352847 345765827 55980312 134809886 293407709 945118209 586116255 948920716 931896672 949120366 653892439 714056461 90730651 464143153 647581445 961403891 623649691 848549212 353338950 403197133 962386054 199219464 892819923 211047797 589750131 684988772 70445935 343569535 324612784 55115233 581445828 172170916 37987776 854703709 782364880 676383073 321541546 153082001 46497794 89557884 200602152 247997244 178633458 12441688 975514920 407224217 649355583 633825901 391956158 592988490 34975128 426679009 288709091 523237166 688363950 730791411 823041753 164198657 87386571 942523713 157645138 260913122 110455898 213562204 964237134 878855319 917304090 75429795 729470772 973284969 217357758 146412990 754325279 705351878 130185696 802727422 613496718 483159325 529500235 448294206 453919015 871104494 371145035 861838102 24325324 630165604 991146554 131296368 896069550 118668043 29811036 290359434 19656046 228170286 649580488 384706000 109165066 396006010 734941056 701208111 750739254 891351428 79918569 892509152 552105989 544907672 707112209 855737231 669883789 19174156 325762673 914277006 459857544 48794582 236439186 64940891 448392780 319423690 834823977 317345126 892557983 431824259 320617227 217415426 562313249 474755044 205129454 722380592 753062988 168179347 131709548 451904321 795540753 708978342 281827844 416753523 293154279 113270285 414618156 830740110 885073752 950384009 404387157 995023274 63562533 276994066 203829955 222033207 336098739 576461474 614925095 496710589 606061546 906388011 564494779 329506037 766162247 803116447 716280551 219798319 362769669 487945188 271813261 8691128 330649208 896573162 87215817 609082225 622932518 10428569 394601448 199823639 141454767 467068250 456092841 989173302 727198039 167531380 116534294 686613504 309448052 103924899 648908403 325711036 470633082 608216692 362408293 949285697 902473859 715694211 570024268 843413033 303298707 353758310 706375304 643749985 917771962 378186824 826008496 197819857 765726502 676471874 442742667 907408372 912919369 903794852 116707440 888079958 392276708 276404965 936525425 911111634 229603088 917065146 885093674 231961110 121582881 947653665 459996029 968127239 912865436 972497290 349807772 121240621 363685612 437555101 392845484 63362234 774590240 692334827 42110511 567404155 241653844 758178112 863376638 866969661 819812180 519097422 175318366 873723770 939259680 399045182 231179057 268866203 310611153 293620853 121154271 222304552 414858043 821094756 85887662 785863446 121636462 146858206 433667770 710713033 745839274 203681528 58722755 714842323 168990792 600231377 437297880 553549855 416366892 311271500 295475476 227657604 492292531 501624093 445659716 617756561 8010958 687911305 612419763 193619420 20120713 476659005 65962498 48799919 507146431 691717397 64479676 438159633 731125919 492290326 644817451 799280333 73452408 290915890 490404244 971082957 644613777 896978672 242570152 64861981 930212978 817304548 519645398 560760386 939963932 563892099 242869276 523267781 113848723 970756877 480181745 30522056 472970791 509415689 940033106 861664075 890591179 138266064 417478012 690409434 327643392 434081947 246590315 439823461 500170675 430625480 429742483 339236195 415363897 41405655 404842003 384489824 831362597 600174495 100461560 241905590 62038446 798388260 79493039 414143232 635100941 840461827 898348788 510418555 98168311 94702791 972230402 945423591 136556718 104700522 201594144 866899619 887976878 449080226 651952947 207391494 870744416 584657943 26748759 158479432 966425406 359407303 508277279 741598450 157298765 137243993 157957194 633818257 799059552 896382239 295916053 569205589 793049092 705311742 410723325 111991684 394473723 832079831 432090788 25142780 258046929 631928315 184936856 530368305 767532041 202181251 382635855 618925055 688540695 931522075 260460775 946107226 804151858 662603783 914839924 453502475 198268334 173438886 621084229 895655622 214246368 907229513 976358539 968520173 701414666 403868585 255879189 733552058 650146678 2929615 268302045 986979140 768181490 668522285 170651240 580614493 558550340 151556368 731615302 554246640 338245554 966796271 971066022 595139537 190560738 733758674 753157255 904363723 607747881 884218461 92463781 903854250 979572112 222157419 222054657 745013850 327467858 244010280 165735143 187865907 77075593 840306799 169942324 262148728 730552484 596743076 823233992 258490363 568802663 171911277 553940759 4902001 288459253 377283146 998816843 590760352 191264412 543318821 183019192 644079586 398241012 795747495 792892189 673656859 440032954 293915511 634479188 211605078 846424491 90784840 908286977 446499848 243618868 813583797 246577720 41180433 570845498 152764154 266979660 293409555 72570726 915754355 705132795 946638965 278308258 920184232 869633754 999360589 928148832 594667132 856705521 181086451 784546590 176391176 723344980 256315300 83018958 846562305 731128492 13738238 836955473 316310378 793206883 706515690 75755801 782083282 675809625 645679076 673897910 832268772 435621850 258384011 391132371 463583591 983945512 664759530 89161081 482029535 983145308 193607936 998023874 938581571 1386725 638861233 135580445 814106736 298262465 7368771 820328166 56741131 524854607 201967645 546712416 969846102 95489994 415606245 870647231 942103472 615040579 452218569 803559486 663123486 972050967 182987688 484239766 617485356 197969305 971663069 800665993 309863671 934479925 694722218 880905355 184127752 101607888 666665785 400952064 8627460 166355942 857966191 328516044 800926071 937060235 603322480 941061632 583203767 926668420 469337503 344133690 244266465 928815218 946353735 781392309 729153999 939890835 5002732 400114149 187910782 982333217 893042260 859561828 457990527 682280419 488140356 482829758 130527779 2111189 896593443 304430414 825569722 180466603 419345005 71859958 938689042 253555546 105243218 955843587 626397667 334327432 900315612 85381078 844975843 571606714 492611495 411414612 396778122 701877723 509422542 786693539 170311642 279976619 704073240 87306173 957601013 212994839 645720343 716580155 784279269 787033567 105334523 763686241 550492187 548264697 122032609 432810643 530518786 859434129 613505476 777958511 551393808 137178398 795149368 820628525 395704013 344859926 4032813 175486395 98134294 854007182 100971767 262442116 495991621 422579865 847882195 360334948 981598258 790432365 743468933 651959970 669786268 144506211 159742111 162555645 93978797 738890364 974784381 668584362 37958072 885569735 939590362 63738230 1597129 18306250 239130903 419209472 950156481 809249579 658358585 770833066 177841124 519040771 259839579 140947704 557841954 240847311 243603899 657626083 729544049 991935876 156900538 208412154 291917489 277916549 110926608 518058176 688968685 523806945 144624872 577359423 19406752 875731198 687034443 25634165 275255981 893614960 258580970 609331293 337589907 544955678 42062029 684717045 690348093 716177238 122999942 116082149 868390686 152799607 454824204 243048161 28533057 234717508 293679592 478054599 718611509 489541050 986377384 257462164 767105954 410103711 707827587 733782153 898938068 236817345 953733422 318625753 268259588 514320756 605859106 769988648 719087651 227723736 694773237 645251701 131198236 522464208 647312809 157618020 321781235 688018332 862474648 477104884 75091473 687087375 510553383 182722939 976923998 971832655 692055768 803522887 425353735 758522395 92460266 989104353 130679410 575637941 242990942 942042641 357694127 39703799 476284996 129758137 592377181 745877066 731985325 927970319 904924356 743814523 23136019 918326620 945762890 291540426 775798095 997084143 736444209 309797353 385330471 295711201 744111226 854880933 447731185 913015365 927844542 551131156 633386892 183179002 716185071 196474727 40848123 570791542 12442545 317314363 51796754 756998420 312220103 704564419 862442092 340459651 569652020 235332371 57483856 189713788 740436898 129545662 405519830 439032920 60370033 560026555 765592930 563273794 327628135 939629625 658258808 424494039 406869940 173933579 956396226 726402973 763051848 914673789 683849052 470618130 541897288 692980192 57655062 666215861 51258282 951174727 427105049 864352267 425397961 63138693 337799582 793680859 97959572 809153874 925548680 27354964 515593627 507401721 740520747 527168968 232747572 205735697 192271321 879868614 988468234 775406542 164359694 502679188 618378646 912411940 308126113 151070198 721736652 566890028 670278807 150145739 68349549 452457671 434292646 638138910 838945618 100994454 17765186 331085513 849421287 973107062 940844461 261282546 108002379 793778867 548312496 871003840 380009254 355782461 173544504 237885334 176762349 155883371 406970653 107079200 936397014 919146504 719216594 950187756 588135010 159935100 480852987 38224269 199230695 988059443 628401353 636367248 895487940 436331392 895188676 207065194 717070846 358894588 225854397 679278494 351456476 596802729 317698360 943531462 467487327 137671453 624567121 882073900 949223563 959501771 155377178 635066281 829041767 89474068 778077354 190996205 715108758 657477443 561344821 440176354 676676232 607402035 70305494 927087160 394782234 594988817 389660238 736859193 861785971 545197331 495551003 211744321 221721870 99682047 600065058 695593830 965615196 597305902 434299913 690462670 950340679 932442655 265789782 365559194 451855765 313170548 928879497 271094308 489499680 277548067 852029965 554258938 166662611 573090308 761766701 182828321 897977376 423265143 907765112 738720240 42126263 255848026 760629117 565286376 143365522 577976400 110702999 294390651 709406928 871440041 5133474 852849785 647866845 383767872 663739204 254833134 940266375 106370466 600559197 601559452 570853626 424645634 978367783 151701039 573641814 391458712 275938799 235793018 944121923 160717716 311522781 362926710 447846641 147255287 662549395 636757075 272988785 832686823 433584728 848142320 148531686 706295497 111580378 562908485 930077530 926276025 256899878 597921441 278017813 112006131 928270488 538369124 83178279 118677079 627571993 394333524 862651404 967745654 593668878 867302769 809321897 710395262 70269397 974355058 309918826 847900817 541032442 492338761 981065746 109198864 705569475 732587290 236360796 512296488 87618174 350968494 83090055 200291996 522388826 44491752 183167026 691489742 19228051 389179920 727226479 955957797 273158087 636987942 929498706 728392898 572043887 649047214 510758466 187290689 845919035 312203021 611997205 653889253 790698276 777408863 488617257 614480920 734813471 281237554 446888645 476423238 251893611 558985267 402719896 97278057 885870004 365761698 49478571 666423600 228321890 977883582 949079027 768067122 129609549 466539905 873656672 752980814 120367532 457660506 582218986 925898749 849707351 983476753 790017564 84216556 750649741 138002477 459709209 915229456 472332845 739592388 993151898 965609712 108906656 93040088 257233472 275558118 327176988 348687139 538810993 260021566 700581540 176148483 40868588 78400952 652711571 423036235 696871545 694911389 438004336 360947683 407138106 836791167 632118663 859758935 145861409 597754283 632692503 630211356 667027005 166370898 953366248 66738340 857527225 252909250 612120143 935666113 571545972 255474571 451050299 105903743 403871942 842308501 550446114 248772468 452508656 961439647 296411315 692447730 409801716 52916279 906266813 336905507 907052101 452523277 701014764 844221335 713422478 377321277 660002990 653568639 935302608 877339642 530397583 914044388 545765074 854960767 129012242 787946417 47259284 579469136 246384832 683874441 282311530 5747863 223916146 882222127 857784902 807773958 182017815 998564109 273058175 679011890 802940278 540739252 565763627 1513674 510415136 256684475 269844092 142364140 975231683 742040426 24154515 656021560 844686548 809153477 817803980 396227224 607273406 809239011 327695359 127429911 890362833 77061135 368323601 383943251 243349148 97173894 722325609 827646160 109894505 805370695 697975999 9441211 630613214 392516784 361478949 576950477 221341708 991204389 236116444 363337308 355058396 720572818 543245266 84614046 362534782 929340256 457905606 933730090 511307331 914902028 306004889 842198337 70230802 539198141 16738208 153948003 567037753 388626827 568707602 592520221 816435862 200060991 786761748 669688792 721744460 610598369 41659882 46563890 976694914 955101683 996383019 823057404 363829012 992100550 610339768 306476752 28690788 574216298 402379502 578729677 35557412 790736388 288363883 770329415 222092681 989421058 812906140 215562281 359717735 924744347 216713189 762482153 579219507 759879564 345590889 246300637 795526108 70112375 890637244 47357449 736774152 394936986 595727995 628228838 846288129 969249015 786369293 302020457 83246870 668568047 498917302 746685172 908283534 451452490 156806434 640181405 167443978 372902747 168039277 518129612 162138509 901229037 964576455 498908857 658011060 900977220 375073431 532241216 465801653 106449515 23447238 291102224 904649535 748052382 769817729 768643115 605869373 278934152 340710981 415158367 949651912 790696400 512300529 465739815 726831099 145580182 430552553 72022703 500566099 217296751 478687894 387200403 170120948 390261357 617386440 594905845 224965197 456998124 869531653 301332732 372253353 342499074 778062254 180097433 83722580 618988085 390915812 935966199 961962020 326041201 104147051 487431414 250895540 630384102 616423098 226932685 807509439 905565675 274552451 309635866 446519046 641880821 632697322 788500816 678220984 409472028 806821248 577881904 537192579 515497880 995131776 613951624 969384151 331792986 728960619 833436164 621062188 517998228 915334535 350373864 426751453 595590639 67458231 251970577 211362221 24245702 927008641 753801142 192369474 148623474 901524512 311689196 176395538 223516939 826295410 190055687 543994012 419729934 331406557 263252400 340157904 426308708 227396317 416027114 745103308 247554729 197898657 212443343 640910440 661366643 949818930 54702989 444754042 921141169 288766469 746387979 141609208 194709633 603397344 451525594 204159688 204824695 388193702 396457769 764224646 622326902 562188335 756261680 286786176 982894353 106628208 331932228 654663866 529798584 773014600 750654065 737187833 262973362 901320038 48645097 649378372 979878943 725907855 168774105 439887897 454790339 828063754 79448211 384538665 996852141 586177782 51918862 695509914 699876053 152458041 31320094 717444769 364557826 531211638 504717885 314989210 65689094 573356179 211109993 699734840 919310661 333503792 578237054 779990359 626769762 374110339 130322416 447485416 308759332 471964401 477227158 369397387 140446115 344616906 846528955 995954472 443053632 893892037 914159640 628253783 738939315 239505131 776463150 63476965 292542236 791610626 737123819 285260302 342419363 373889058 451108796 270318773 14107911 117072154 262653707 158764660 286126742 446739377 834127955 557226259 84116224 962464951 830287773 22538077 263523955 442334642 850300520 765052951 777000239 263794521 543649456 876083678 870192467 242173788 72864494 355794466 80466306 851470134 246942161 96661586 941991839 12952677 661870824 242001057 574998801 551770238 980969470 241419594 568397299 740795255 999649235 243181446 876544482 893240281 191470192 569939155 657713984 158202273 392944339 859804919 229748407 524653988 970935903 248367595 417601891 178004424 412365960 647349078 240886769 269462864 206324267 850595661 365870979 30681749 969391357 857766843 354019207 269160339 895137541 239506256 327431549 287762767 962395597 919435386 611953732 507926847 278354384 987275907 275162412 59240511 544445765 97269365 706819187 492253831 457400047 246065283 607516607 972679771 369860947 267157146 488390513 89262778 910290543 333032928 725749682 256918508 137956732 936376320 395554124 269251246 179532362 437797032 247918273 326474098 953117953 299195741 238984618 525561974 975412122 107223258 513082427 411258633 771528160 97073645 3396977 172441634 96446884 471248561 949413860 619059518 715221981 330792218 144474533 89454314 947215683 36692075 646288697 806115319 358471250 747362096 469302121 987276300 673560850 739979851 891101708 421037950 267928112 441458020 79786260 234763502 556186392 181292108 497494517 946868985 724776357 972482134 596649355 691884613 903958283 60687041 770460478 314287860 420445574 923795466 598659848 826678618 775017033 277702779 482612195 426800127 217467033 715717663 276082985 819483969 487633354 750592404 634654180 707013283 283641719 951752750 546320523 11798948 374921716 341291936 989357811 844686816 219200740 739876856 896427204 124095135 648308688 339717355 110187401 859819908 601219028 20529912 370402414 617618363 377028918 412026440 660596822 485106042 471820988 596634600 333824498 812389023 205774720 161380640 51763164 472057963 604542526 642182313 607518579 70306497 88704468 658741957 26856114 483006287 779486531 268437230 257732131 273568443 412547348 257570742 322420588 274193737 296274022 10051468 844734346 896110123 220493026 701265059 824433779 488209272 442952349 704599951 442366016 372205538 743283685 126756755 381623188 281354972 711786640 221785569 69145492 569296574 884916759 33234091 58077492 885482744 63620923 808525952 154932527 30932023 967311899 467519272 751518962 849777991 936221236 310103010 840010484 734901362 385664704 654516756 18295332 934294190 255730175 404043756 811791166 838180390 374653658 388525633 344031959 551457534 697992828 8694675 868184490 499030832 852558869 636090232 705960847 152222825 544001708 360749736 771758482 13368769 480567476 547798647 523637193 185368371 961953159 706601842 235024396 811917794 638059408 868383585 187031336 63620625 625852922 434364966 98284786 532538403 805895947 157721467 549500576 253651095 9743249 159877494 40092341 426762261 725700079 951008819 473043998 238490041 507990020 38746098 797921611 353543105 811313793 107870711 12171771 128771107 22862360 655391523 584096378 777144652 477470946 688193809 294607624 848440261 636946385 566696592 303169541 403727873 641513090 598461808 359222047 618330584 447916931 993950165 985507205 458293245 464760981 801924217 459542720 634162818 246992611 598676711 106707697 47415634 800194912 24661725 798357423 435194674 130100913 858889113 987317547 920204159 243226284 319003878 127472926 873570891 478693645 866118762 481560760 695471378 767508747 960513680 670524768 531120632 423577554 250195575 399914039 481343289 704572181 962221773 662291713 847766040 263301283 988922516 912815027 338469467 43342430 329691889 2607186 47989886 263803413 536187968 553613253 949563056 533561572 790946296 36636781 939865503 914248122 581065216 553407854 601362255 161448868 353316324 437705210 928287252 173253132 782117771 663435314 125423236 776321109 928799820 390976629 397383445 891804965 769933337 173260250 909357821 426361083 178230762 820021061 917863718 124525231 842227672 783571053 531512273 447654602 89448912 881230434 750062644 631803244 675641356 731666179 735818338 975203667 636929041 430491963 520058114 640933991 709996648 198475819 770184410 263075944 574938725 623322418 743778797 124502713 165381861 884415614 921728431 508306411 520374653 936579921 13631106 120593509 538883878 126799666 747972411 574267963 235032053 947596124 424253229 797842790 778497495 326604430 685827687 661286100 524677378 666772460 573631047 698767662 185530519 719147745 364782209 117412835 86402496 600183386 563378928 463750557 511964949 997036802 243193243 495132490 14295972 457376176 541407401 302633765 781551377 967404545 618585528 210871113 611046900 699106224 718845348 117936229 427635423 295973935 83837047 238347713 658446197 195994596 47727342 786826289 209142741 737775482 472783923 147766026 976129459 416540328 307232956 724809951 548562780 675452285 706942829 478887629 945285809 457569027 354207838 802703358 340913911 654874376 292751303 581099836 192284109 827221191 659842055 666584917 3705198 561845130 376707274 825682056 11364009 981983298 714385589 571049010 388362321 532852284 461556042 243319244 463123337 744990866 976306858 915032430 570662911 719849062 417231396 196773080 762825275 560835645 499567903 429123711 617706828 188514669 436382640 911692475 600740364 453660586 504365334 41630068 62621196 533690537 115511169 6883119 904604429 985865848 11395232 435037878 989624431 523014645 786562366 74146486 456622112 390624951 523252546 877033014 926857250 678129454 544796582 285205818 625645255 833942054 278906037 395700020 213499787 915056020 907474767 550114904 3769810 893276390 195103809 132707045 600062641 223434915 691658977 1324003 49804773 160396479 124111751 668609387 714350685 374126989 12499422 457713616 966415608 997837086 425678424 259764002 239283978 960000315 464919896 368562490 998807182 910625218 557394734 270626294 896933013 339730927 246914214 548961205 217091777 271486859 773156682 608014745 288589208 564718149 203420449 165194837 934317058 283452975 338175959 441952864 37520212 776733973 589373040 744848370 514852922 783210964 330806997 859650624 751708544 755716845 650237527 305884613 596664716 445007193 188368708 250255201 944162189 758822445 450694774 817942884 225450339 48521011 993394281 819238840 820078356 622136597 614633998 92669475 379006688 628472304 231072140 54959654 205110478 877437461 286909691 956858302 903179802 972608279 838546363 977321358 964473857 724993784 353726195 997934438 408241125 809965603 399481705 704574384 692710618 305304142 959741989 146007884 571765064 440879590 730077724 973360656 113329098 136562289 921314988 288782898 94615938 593189691 836865781 811560179 502677206 123526721 55236138 342585229 961477334 905365566 784339232 719787483 504615996 107322256 849021870 390825871 626733715 971122488 56628067 691984389 812981936 609187274 818721035 656417756 571089434 209012396 21569627 743732488 916274546 785207389 552590720 813255186 171337056 135974560 359824149 432755803 213457184 342964425 789458017 293853041 939949480 925597138 729740376 165638931 596376287 135269357 34680468 883917962 655791557 670627201 183534953 175466445 251910174 238483216 453913504 470372483 363132575 47215713 420165157 222224151 751738489 916463499 107348874 875007650 809849118 796580518 847310898 992339003 554650381 69352819 469400245 596400145 762431677 960763697 389251034 218532016 771708791 616090509 624889808 613319396 318609762 219077496 296958384 292214815 842501620 58104533 109320329 841113681 974156627 206524599 121744695 971728529 685445846 45854369 962994827 553415801 227561694 759575832 585635103 536623114 110502783 960076743 175680126 618411538 544358612 60671259 937251044 874751767 139516122 459922249 108085222 138072277 886319970 733932088 873455198 209533501 639455695 508282997 555349550 649252971 997909007 108143718 864338116 121247171 545256062 776572703 375766506 594694708 117138757 669388030 988651321 582246944 30315929 173003729 738360743 332468052 94055801 854469587 406974115 125751044 838318063 210029270 245303368 184709366 160178933 969634716 298855436 461728361 314899751 417085836 153039465 442039926 107104186 803421881 626836091 651841221 465286019 116664781 972891225 775158066 424046210 112919108 792635180 457737277 46924327 794878793 28579195 716184053 499034084 244556387 962786632 942218617 453905060 666099925 2517192 36107567 948759216 531479347 666493570 340133101 609952874 290613528 458595884 865655500 512175860 876597184 652980393 901214114 980979326 337236305 416022974 84527772 785309819 440941702 139784547 842708798 963674462 285698459 699670204 218391962 555037100 445959181 990535122 755652364 161999323 592703945 383014799 528924402 111481993 162821457 334110785 273010711 78859752 381320293 603558251 271630920 626912380 681519870 314843116 132142519 656963484 843291025 215647895 151924774 180236112 501531550 340245709 220791290 201370084 93407497 351672455 512014882 851687591 393681942 196577507 892551837 846158362 702743185 480450710 422938677 464010662 150241173 580135260 655945967 214994520 703925933 140407604 160916026 569611765 487609062 403976844 247265276 847218428 63767584 278815525 762992496 546038036 674210011 446380497 134834299 647740915 474920309 535295716 531715215 269878044 87783999 205768459 24243010 873607972 82267843 267902244 283334544 404473496 750804076 173989405 779895314 171146624 446890152 799997067 89481852 717585042 588988442 253415963 488978738 411011151 561281725 688917100 218628531 949311705 504989695 304089577 70992621 564570303 222193506 831011404 964281966 206171047 193406755 828958172 337093215 910280135 703280383 227423022 134342829 663279754 646775691 63883184 662996537 982739250 800529537 418884909 280315873 176379663 215804981 534720541 939272331 315450454 917153721 860726039 819204760 689012369 687270544 491891958 634390210 418693934 660744415 122592409 767107154 292256648 943639879 299225626 430433718 789211543 599060431 553641255 897326179 969701721 384478910 562860706 316463512 52810463 984475000 468686373 383108656 973017602 11884886 257362383 356808657 759858884 253354796 3142307 270913239 89580916 353504004 152923905 160817714 631926734 174630874 164738134 363125942 269853038 567704788 111276528 242270581 116253589 141862445 746846403 885403450 845249257 736047425 973971832 541069406 859507401 683128832 144383381 537003757 432121890 632139787 838768992 3125160 425861457 721851043 215359659 384371740 242163769 815247320 491441658 35833599 245588738 870737816 417908667 745841540 899617633 409288196 585766471 556550409 890890825 34273169 230783793 520714274 298477573 929589249 318296655 815317619 977628289 772952395 155003463 940218425 467000719 371039241 458520478 979445635 805026785 564837766 378276333 307043618 318622531 494518058 117597100 114670550 751602347 607498821 341772793 873563004 92781497 928973540 238233673 628221694 716030905 82107985 499616839 626809080 113821743 60016139 919450272 955604287 247743269 892721405 276903726 606648100 130360652 398890911 137804613 582809229 662712721 629073871 572861706 540271404 449485814 167618299 350019939 356360392 79326939 457772377 858127175 482130104 418546722 964849488 544821941 504122564 914805106 264683885 227677640 674394407 650979311 661843566 105348983 56907866 977259055 597051860 748553282 217443858 262002511 649324876 573852709 284317950 235226005 859967577 713698345 707145680 876888916 448820523 598366842 826781956 341783095 967747995 387467042 105543044 665590100 68254400 574272376 6877638 773579564 804842324 268515395 400361421 145470654 355612674 76237113 450720979 747115593 60266367 295678896 259984103 7051992 347599789 512184546 762260546 870652867 295622502 807737617 743300980 417990447 5358572 765019301 282251916 511104284 821430688 883200813 987481858 405781017 291583385 71012420 626387231 195938493 213360151 308169731 571256781 748303624 740016739 787765177 464142794 914114139 837528769 260611538 515963503 788659841 102919357 867661025 307978660 489070553 827633044 461750263 42755288 685793871 586806042 1949143 457694048 551307891 22505801 872241248 481941156 22647358 247917035 22895592 946870068 740491096 620165856 120993417 880364546 967628562 763934195 396160679 638822255 852807662 291398289 658787746 263063862 740184396 781535680 773608567 235793389 152764678 309288746 547840843 351993087