495 1341
105474649 507627941 235659221 621413406 127186938 384133956 963450115 100271382 282445054 377460953 657008536 520649493 100368516 336691769 68398360 151667746 139268388 411937810 564203406 385683462 581547649 48171639 879629182 549321616 527323187 976520382 541415380 361627937 504979778 349295816 737775008 93554835 159652566 472472640 307491112 983071593 887914897 625405645 438898395 543711583 489974874 138286133 755760195 616666053 557514967 48027774 606056913 868657750 242729129 404222269 428165174 653044903 654540339 575806545 452082127 838945605 731913362 236384518 422808962 334812801 432226810 798021063 394036494 259707985 472289727 921257477 122666512 236282721 152101526 446265504 354999855 319112750 678143156 485878533 939932801 612772293 63612891 651955363 792342388 55183843 874444096 176636657 764887291 825157427 588283069 973900605 998597637 408198840 649185120 748548999 167052258 6518059 465029452 137813213 680203175 166510203 274646257 508860519 993429093 612461258 292875162 515738169 695249094 119232008 982931176 394332223 694339577 657417833 175858683 69995723 503618329 584504633 946345427 772217948 396118705 623733144 64645146 835833540 762169736 817249220 137245624 376310115 885226130 584400395 872775526 246455712 411161504 388068931 209405240 166437570 909750090 356880197 373106959 848213000 931674313 147204936 953934264 599071250 909423852 824687167 197143987 817704701 197763745 178290315 539453160 404898618 172930239 43592403 911140981 860074985 391758057 441958383 676882720 284773369 914925649 544703817 969332529 410953389 208648916 641197983 481830368 38229443 187220720 429552471 755388704 974171656 496712245 572142224 376356582 580264141 330024097 836432253 954509959 838162655 635958014 109639224 571594148 269216218 684780904 101953859 33779386 952781840 160280654 593966253 81933920 821452764 718314602 610417675 323561032 857979824 849071377 561032450 728507627 482585896 113972477 223721012 415108996 499231682 635688372 463749914 114226376 684682427 830307630 631707726 574473064 500819406 757281 257950020 573935952 14078464 922450311 409451200 73455537 112189932 17049172 62393420 694413122 176197248 334703424 891471587 453899611 122252404 521962915 650489112 159023566 828737041 656652468 939419379 952653544 736345729 852256412 958672298 53448412 956028945 26436865 762770958 499151715 988659083 875377569 296539178 684548718 473576751 42268600 594585337 46510038 592213372 739249559 899451539 456251226 604863406 951589657 748980889 462211641 789641666 501996280 784639660 617702542 661310514 599654044 725085608 616909074 246704028 583765817 993593968 627554716 979294311 548316032 571047018 500782117 845465974 443772686 317105223 255355638 917220231 492133860 623850819 625942921 172260724 33057218 422497975 552824687 987858912 586556295 4033225 562513020 499210715 431933911 721833561 109387918 776890185 447593960 922258429 487658643 397442684 317547713 382302773 945610784 75908919 605716723 799465104 540915730 509896687 823301434 573742944 597797590 50872246 590138907 929921407 594909151 65055986 930565157 739611393 76538711 801866348 196698591 458867237 111967086 220261023 629046327 111378841 87672718 367707639 359898469 521186268 421716765 115003686 566482484 989216364 447136294 820903221 758383443 137690767 596933191 275953503 621841301 383648348 702996669 179489428 177199640 858996814 855060614 871888636 687199261 1143182 757116923 494092412 277707266 982426719 682674796 754622218 698724961 593849779 887041025 498859707 906271893 215322985 516796750 647013443 436086055 32689803 555792250 371013356 213076337 26725318 327195038 535234191 441838392 496743763 76967745 946400327 325109685 162408569 150499989 231256665 37450821 287503183 830778536 804033982 294969755 236557478 617300633 312907024 523414788 860344872 342952611 38803795 856680650 771938278 905141822 500841270 293263655 269467466 605240441 143546965 406948184 153317979 300010043 135555268 433725776 678406908 937533969 657749381 533690661 934349965 340160788 136719695 268979807 60460293 544419715 573565435 791597788 203190931 712056632 246006988 772269762 261131005 54278175 75156312 88632097 560502651 442403459 272275230 62763416 806723369 544695100 845501099 292291895 641013509 216555439 225077311 41888964 518842098 147938040 869478934 247159464 581298325 554485041 854242183 255666080 450347014 185812712 839291045 517204469 426329874 369667151 860339048 797501816 711484643 56250745 66581284 496685869 379552267 222902145 852625894 293175567 53872216 362930819 793573072 279122894 230558203 397377504 611381520 747193233 970779264 409883707 193309550 547767315 756734319 563880108 626207127 873245980 308436590 220537088 458419537 771120855 630967376 63693508 684341852 886915133 676519773 515107427 113301617 46526112 887788174 31547209 229300538 302652826 860136786 857049165 214261702 365537061 670781874 741368293 570534175 971158872