35 15684838576725
8214683693391 15317880216410 36057099422643 16720748702724 68103797361779 75746658473167 73981641390959 99550483192035 47717167738881 66798569751732 11583929200424 42024177583409 87513723556226 15235686478062 68079651874516 35077317580682 70874001124871 37227937776018 62820491673740 66621615745195 43772196312683 76614680119823 92395697616126 50755752192907 62000642462981 9397681418320 23500849598079 16533503268362 85099073825434 42027733231996 77925626239523 9023152367603 53243852043111 88582165195936 55203098245258