35 98874398592553
86780355657381 41098545650771 19948588992890 93601568585900 34460562212116 54935031986813 86997057656782 92807886763463 43583975387796 18068169633762 90061730131815 20608387877901 45367165916184 97581432749910 17260679312524 64952571838777 46107773229894 98541015589402 32480960706066 93339048945353 85673603858691 69890161010472 96769534164873 88929164141865 95687531734048 9344684550002 53437561386011 76492362887362 70824906337955 13947477468261 82561363601105 33957581491301 87809902952524 90092447788249 22771543236595