4597 482360
659919837 778238718 331292532 516673844 659686480 288182954 499357345 727481126 2705338 196942267 110176221 427041463 203531563 44026919 256597694 735335408 41842539 622859406 869457083 291576502 762700077 646800833 405448719 497690793 6901336 480022972 860749749 435097431 354744335 95033794 633468159 623227314 303421196 998381304 724855748 636083693 326858578 722740747 775577240 658424641 339326026 428716674 864046033 748212994 660547092 175250183 498992012 815205367 333044971 395984412 361076460 829880579 447264301 676067149 103286648 759787902 594643609 836189384 433184793 286406647 179403678 471447019 977988329 712659371 287099866 456523658 336174137 929632148 582405485 120288197 25794782 791032837 867203160 974853978 807161648 834165082 825055602 307513479 813032979 276940573 993843645 564047806 501202186 860919954 887364163 355682761 10552378 372561680 430768938 426186967 861739389 344420129 412583989 522889221 317009751 447590692 450189752 161070728 474554404 892172173 899667944 253091606 606540005 173376392 250486017 632970675 21379777 370343123 50924594 857183962 759214456 638569203 679730591 639959944 666121673 910040404 584046995 769602054 267007245 337684035 337976107 173265662 141930973 540649656 657132618 816963138 820726139 428307110 736843105 298003509 55798972 749658015 408856484 706334180 192170561 56903432 830753768 141173393 988214067 366813215 916815842 660021486 391560036 174642261 744883514 461203974 22016535 71013089 909748855 316728653 923068637 220519220 703565079 430545537 295481035 606765079 681081488 529457196 332858092 394167453 383860482 229192736 892105452 999346414 345603930 904752648 418817163 619549362 854169848 670544931 546962280 873856318 11070047 157605633 24288295 678917331 112127347 916208915 860652726 523195464 417807020 45149866 138698783 130918976 509574895 513192195 506946518 256045655 651133973 290128325 5119455 309163777 12684430 642424692 332569848 367427736 677617299 50275943 58398090 961172923 513474872 525794474 844117097 524904959 777150362 916034109 366656207 659610407 896099765 316661363 904337326 440843745 846115000 89054056 336222323 196653838 44544193 174151524 836507323 809609907 742243841 217333461 131491762 272796609 877957046 883827597 211706884 450070984 40637418 999788370 196816653 602191097 149960350 591930210 122584256 357598503 44478344 426395111 604455717 598496366 44119431 277842027 197376343 671393123 70097442 539323315 785885135 31553522 994072645 780318801 701118414 152108545 771081671 846339781 765485686 679013596 65923954 141418919 376291632 522595251 883666016 986280137 261475750 937769955 606412391 170900403 444115919 874242665 916783651 466666117 243437277 153727404 158087814 831865019 505499947 106067616 693678451 346880485 9006461 385546987 345635035 426166071 833220366 175617923 400826418 402705018 322330242 637904638 62955865 76860020 824524790 393187154 141336817 979300517 179651759 826945002 179456434 350302573 452424152 350615721 784245918 124020616 211246770 447587889 734679740 563048880 942456494 427361574 659936635 672837300 977849187 82860425 571899313 997148420 377871194 809587639 873853022 652143892 525624283 226480772 110127146 608468505 249545680 28378501 502978882 47799931 3919470 535585222 344650597 956189582 362497323 624448618 895252355 752244671 157702143 375674505 231702541 451663340 207796892 827960351 385235613 829292747 105897361 61776806 381005163 326338629 218974363 787362972 882569742 944577284 696422136 15647581 661499356 787541312 685558308 405077528 770313841 239101471 468841137 920536117 816193761 692087981 273732244 480002205 123571133 725177179 10714006 146895799 700943751 531944014 160524790 765466836 885391620 715659260 540114608 945986985 776994022 228807512 846453201 562884250 222182035 937541539 654026598 345914700 674869541 66155630 471921926 254690521 749526434 550643478 231653985 265570823 353796199 558807071 984808782 203902760 452062271 960145886 723643031 381908520 449903571 528682974 604460309 32051269 217349629 866421553 350723753 780891758 639782364 333056862 920194796 934011629 553320548 727603153 85256735 18641346 708933187 990487825 951008619 450339106 658585909 211325100 785379735 76831843 123514499 531579819 838914285 250301487 573622339 917788066 688197358 927490743 410900918 794642866 744784683 421583995 96857411 484035844 12030401 966504132 886697631 809758177 527734653 706305648 497765473 888071053 866270834 831158655 796052499 162731356 519733441 218802247 963666102 851802464 370859155 704104528 177185980 33064234 686134050 775928685 746019039 697815206 791262992 244805479 712345682 288610237 61614093 917935530 499060368 547763885 675295518 104567655 445796764 71600106 788888380 774917832 356230032 2389441 107853294 384532544 713477026 842596560 576001957 741867026 548350212 892095727 586410502 767864248 282504507 539666537 122530880 264372884 306983695 525904532 52162852 389573788 32006159 493503697 62508799 257227317 28008798 983713671 390838214 57524368 704147044 496725348 976159803 315691061 850872359 904670456 468316439 785295461 491760040 792178462 567104248 950133760 335821997 505692740 698563832 877811050 266591255 878395989 485614403 229716806 752354055 90859605 408610332 603841094 191223045 915607247 838890159 965151127 166083628 331046674 951995649 139996604 816033584 719883703 830400214 833485454 568703851 60203024 505123259 387233147 471638804 494037762 866378343 109422548 712533437 935308353 226881984 635190404 852260789 838118058 666964670 428613789 677821879 31172980 953769480 41279409 79996809 846555904 523974375 672156759 743374611 376334658 692576113 378574589 366463021 575741759 519140631 209523452 837870573 105259380 352178523 875181648 784859225 659984452 707296784 803270073 161128454 381933736 618584438 779272104 954818546 363388141 312519406 68678837 732714521 806674467 825216848 285818088 178798140 373705776 242465848 608630452 66852070 892115809 85687603 802062876 495831116 144561339 24753894 880736858 949067798 693560903 832844991 776761234 598687922 190603127 757402268 245191696 473044624 707914163 376300890 752161889 486640285 606601003 846201055 664346263 584912378 331035862 141059381 961259754 714604423 880335923 719645192 805184415 770500264 281323418 756729880 990151581 491814575 490992917 679940582 739228841 476833424 611346491 64574214 170100556 108096347 290423380 902054280 67727480 392356611 911446629 547049624 95653168 775348604 615844214 166479006 378888931 111288230 705880223 157044677 683194780 464969279 433698532 138628318 761147529 59718783 969572585 621003538 622955890 878321060 698710661 144928094 809218770 581431753 258819479 293705140 253549244 691329184 676459532 86594496 894740133 670939918 431301529 547336197 739656607 554646404 162331756 438056659 475276709 95853653 139213601 20907503 450192857 908291367 113341428 544690032 473422529 614208613 314741154 385481116 514590270 495502607 373175761 824297115 663523046 225967650 703363386 711353797 954363383 480673791 381838289 679827412 565210907 647616434 460250939 766240319 866212705 245656801 599374771 828465733 361080074 892407850 77529616 906893199 160887192 867472497 554081152 796188732 533618869 243782040 420811539 928151569 630887930 545240621 309282456 931773921 823835645 61529643 112866915 56904230 129061466 424771772 187611726 9425934 335475436 861003702 933692763 861826967 954712134 928043329 755436156 430159612 334290970 238313090 160554437 965612001 765573177 483260961 929060503 421598789 102860322 984671271 205670480 990176496 768915606 325911156 845394889 349806655 91446627 919895170 149999420 928796301 547314893 965330042 348551710 742601961 888125501 863807074 728019458 84364531 871454179 268841593 924907504 916390685 849466261 204732586 867863406 29335858 298767009 573226529 715074943 260355249 204155674 704818774 598885203 567260951 509478051 22954176 971488518 986065264 680662181 300954223 558893825 679673685 366564766 339331617 822408863 447126757 692866044 852899050 468613504 457728053 348156459 120688417 606571742 493892849 264543222 217456378 875529208 193140153 863018277 150280402 851355949 897265928 368536259 995194569 200971808 106032665 603711082 160621883 563616879 700217932 340725689 142698119 322459069 928064182 119676997 990792452 496628733 961885312 289308102 338392905 924290478 4206800 147563931 4639935 802241112 208964177 191653507 416484592 9804372 605033276 961421441 658347810 352669550 341339514 892385953 829074174 972610212 876688170 680229414 141300057 731327373 661859331 290567979 995203915 714742723 543158337 619408725 822306671 577866799 850026832 334651332 482037965 303230517 466249158 559813982 402303778 582284267 724014581 570332703 720515616 159054304 364885439 131374219 327494632 732272918 330534514 267880090 20185648 118967825 668562123 284840858 987950438 994137932 77893208 775737748 6411379 619736346 516561923 909429691 742861763 132532735 768974414 777334496 978364983 750252947 24722552 113659241 98564560 477342299 109629013 582889325 121205927 915944769 297692156 559672893 147679554 13807530 965592224 875118141 41503230 988984594 944345935 193882357 501140436 740462366 827078913 287439518 672250203 108990787 297275903 322225621 127190477 685796024 678655603 811384805 53433046 798758392 238685231 664066959 493141838 826847535 13914979 223533232 486865616 936104869 834097759 796027348 174432832 957006658 37425336 255757212 22897606 801947042 713120922 902227308 277019902 461879546 856471562 896652775 456544505 745234146 504009306 607882260 930026541 760407981 806571092 226187780 111279793 887875761 114990531 465108185 790610775 426552434 597257266 909980757 714372152 321632592 909831633 454954801 952068940 294905157 207289672 887241954 715834260 959205176 657661536 214957745 206599202 588659223 500370982 785306700 763435836 823742255 748130261 841428903 28464651 326679379 432844106 595906538 306855543 761713983 456147418 726168549 158305958 524442266 934683775 464878330 225717034 990030376 883734075 527799522 237223868 366298021 436856061 688091735 121580367 52913410 546283552 37636894 531470219 588052148 830440330 282083851 976301688 384164006 663365378 800229867 304576796 185393849 632640555 142077007 155224200 549082866 451306905 744410403 245148786 173149850 530630069 724693867 862776960 702763340 29317599 506423600 100095191 705946393 781501125 667586654 462798726 800986744 973287801 957881516 52751980 252345315 746481878 353778095 28423385 836368975 221186151 733588114 882172670 990157727 499875823 731463606 479442117 184914725 731531244 259134113 176015302 868396973 283422314 620597907 984250663 905268690 930552386 113884191 743166305 748260036 267173492 983795126 555618297 122215594 416562514 469492037 721527980 678694707 759989421 557873967 39433519 655417061 477156496 390077861 731995077 601965549 573092831 79983318 810648934 677892969 816671571 62934941 434125519 849232172 287156716 264304459 436566649 108164482 256653222 650392103 552102592 957708511 81111544 465948930 346491107 185893226 72705600 34930756 154867568 433025942 689595292 610188849 968136478 161309663 196629462 609036175 816944713 701476368 807773802 85313309 357572827 123592078 746401186 644591940 477708574 705009784 190423852 652730325 137985817 114989511 564575618 870577795 523516587 434496725 783526245 9685608 935873136 828976354 434702741 876185530 968708015 271907036 448286143 377049339 847206419 35818958 143964743 65579284 521580151 203011907 39078062 282993621 826623938 326017348 815498488 735363833 316155400 225456710 682283691 428435772 271076981 866241491 409305779 32931049 498375513 798033076 907292782 799450719 532691141 291685902 934414360 303866898 981285068 175285994 917182636 718146090 763485617 952816380 741506963 766928925 803894596 949021983 313548954 387624139 215536264 857551638 993051388 652617835 270011052 379597785 717034179 624494040 294765240 392268376 486407861 525311338 286466851 234150064 462849385 162842024 326825231 513875465 243588662 585692638 460904415 156604589 359954574 878226757 816075071 78250403 952267564 833696253 82822432 998436531 739387969 932421360 491660247 801073374 650018909 401034974 124250026 728432445 518586702 609771630 638532561 215362709 716386229 341018336 516397282 531365524 206307500 197663775 130349260 354425153 711718163 328546380 866933257 947673913 856904960 822435803 545936937 89413453 921573311 486248445 184707743 491833665 853208910 452827752 592924973 117495814 728497463 335069899 330772805 54152969 684647347 182487834 289196414 181047152 458603418 79076054 846911050 964313241 369955725 957302275 156713223 800397744 770986259 868539847 730895727 669609287 824203700 253013873 664787503 806538234 497871513 156911682 727363873 556923648 645434144 755627564 963920556 563333652 755906248 844037140 994725444 149862341 271056445 896510861 571883891 478082036 566104002 332492871 630909941 143334884 686969314 175797818 384092068 23408828 697445825 687433251 551942028 552493813 604111451 547028914 404001323 251657041 308969848 274778916 940468310 97048503 822459935 440161914 932069726 479840851 571778311 80060644 269630641 431180204 748022641 714983133 282134343 52585910 251472903 385310771 518887169 116616614 377784434 860634531 705696837 530931263 141157960 814389332 103328446 716734839 51323938 248939948 731753376 325235101 360970915 339621800 191086485 983032436 75400774 955516566 981457552 870421042 342758244 367250157 752590067 517671010 355287440 921535436 813689804 700820465 164074086 231526816 403106304 392629378 237021270 929030306 934749273 34538125 569316944 238254424 493254232 195643001 415948172 955646231 604218838 619779087 242087600 441558931 75512187 706069654 75183066 873047032 568713211 160564492 646508588 810215148 17644110 368146156 895855465 471304593 183256366 540014588 117371329 27053675 127445691 785905169 698440062 867738312 765756672 276973804 711904544 147648891 734569116 37427424 329390154 928602630 176381215 978949916 20224404 43403426 64966535 853053537 552344914 597457750 163428830 50624768 718223962 634700970 242106906 389491043 893013707 6090038 183419326 589078645 412488298 870476943 79682713 599094705 286319500 113509912 378273756 319221859 745686200 561240432 621255939 775053411 386663984 822310001 850729 295168342 149581387 217676002 589252670 454965649 641537964 283394174 504760784 917881282 105804001 105749791 264499066 840080140 307150245 919823438 572944415 794683492 559674096 588423429 922736372 919169336 809243858 842189675 530933037 927845045 988722927 448535638 396919749 617434296 21754526 334959507 711300578 719681148 369075133 899219482 518007143 22227374 667109158 780990364 214306606 170977631 287859316 553773136 758980648 658614505 94872843 783060273 747978518 434300811 561127226 11802743 709381860 523968240 408181823 314835191 551429149 677010639 336239030 247867659 681436516 40057757 276584667 556522318 451338248 589744749 121748791 981995575 569324763 769039296 553202447 788690010 528279132 265018314 534437103 665740932 840631334 286237645 189616243 874286401 383521380 224010492 745263533 603627629 755249379 800861291 45089816 506591996 38100719 405708297 472277398 313692342 778812676 192344344 873776580 56656529 622700152 270388141 39990131 416236951 360440384 318288875 169931409 459041191 453494790 755485947 806177168 315793584 407840565 185795430 915290431 867053677 200463585 131015024 174228403 204037729 392764305 534877408 331285866 597156868 760686712 540209865 120032775 201467825 564357516 367978395 368563978 303362661 333823314 464478998 762393114 237627449 189115859 33256404 514476120 914787678 485513678 702569132 832195803 8798302 75936455 64617274 920190212 640745694 246063988 331255723 847140946 146063908 534016661 814341297 776851936 910701084 753564754 574034730 857778844 732589855 743889346 708983806 664710323 693094324 341873675 742238625 849457991 746212778 230802469 485360077 182595833 846441065 227891673 81042081 502153033 14330106 526861168 874162650 746192749 640800300 850263925 213353882 578190271 585431590 662752852 176966200 694879668 764232798 48489243 512582210 773423612 850045213 679453423 612913741 688126131 406704114 353505693 684477606 612512357 581408707 925279871 924410518 137107833 24217625 615156843 479553841 701472028 989432255 440591477 467957871 577095929 298780299 398583052 385773964 904773299 805104133 760759047 945316263 309068793 672481728 830939600 589374767 685877948 233353551 300261645 808451950 482884036 299212215 598876232 741515579 640794169 540742312 759545342 86128363 657915162 153277823 453123025 586755932 169754606 354624433 725815038 347886480 723790935 783222729 239810562 648111584 78343917 271601590 948789561 799554801 504033411 257808650 915542859 890891368 148884530 657106952 753708988 988980877 888949352 430897653 168574897 373743218 262641951 38627521 715882596 862180568 898915413 160829609 480317393 930292034 39747545 88200771 449191881 126189787 870477592 214074617 99597420 317324254 273540996 950004919 351694310 150005887 77542431 461456099 722463815 425775359 519825130 79047467 211526645 539229335 833387054 642627665 852521634 974204531 947026868 114709655 114012475 749242846 564063607 458556484 236516963 402083101 433990857 733097114 152656336 239460555 66956682 594163364 940088042 385027921 316159170 74609068 190388114 901374056 128815919 964893196 603342143 836579115 39625529 980969851 238707001 864968892 500898207 600145278 161629403 525943578 592118705 628483387 927550839 628246000 798900637 150042098 672718603 633749345 522783163 196467216 849904282 394450061 466818377 924734710 545486182 327002616 897276536 813319171 438879465 287869108 962665944 24930311 256060339 809479693 935066816 21067772 444849677 323601770 163016199 735434361 104676712 252703733 95191412 559915097 358222755 546586512 447293492 551465071 988968632 706367793 317657308 870826958 234982348 608147038 257684351 340488731 893831115 338857899 547984281 526086257 368011141 169412625 524603946 589792506 532165818 465830107 624164112 969720333 694865109 514760584 333169291 708991134 497460210 450611777 323476733 919706567 266866315 983180342 842072011 385177139 321784087 898438882 468376381 934211411 658101872 583624222 785314799 982443539 995807319 722859984 821563180 252787408 591790928 138842307 274782378 336697699 311108350 424950022 418438468 19041764 775483012 379965417 456288089 890515431 725918574 61398991 134483161 528971438 819120126 95518366 935740336 193278802 782025802 645382308 868479866 803756614 236279585 603004454 193059339 540451937 631181901 428742595 511221292 289713375 1777228 536999517 417917580 452574573 716765889 812609335 194398135 747892092 952495171 254229737 892235408 716912199 676955818 180995743 108644915 430959560 934835579 228460091 871753463 247966461 216037283 596184588 773386158 106520889 513733656 677329438 381124947 171289764 148142272 157541937 257745396 288207464 642532398 87958701 753688037 941263745 337715975 114569645 670408405 798852806 993387652 93787681 546436044 121046384 179955028 644060646 419594842 810348952 366146679 81558533 479701470 211198965 923629525 356696557 894175571 200981819 496021043 177330921 924107733 483893845 440644208 603800122 843428832 184677321 441443173 108296330 607421227 578059048 586420676 397579055 601183156 51936534 658501294 708686160 540665119 413902882 819722700 799850860 558363638 487041447 663633416 670030411 111517903 255338047 98250409 967701409 323464627 185796962 832561853 103004292 647860574 723040206 631780777 233835757 193236209 242722014 249423416 735467264 409761721 109407396 89829734 670693758 462161441 279715272 186341542 63909363 411458777 297266417 683157414 136082832 83560945 187287719 83472573 862842414 682665152 720491362 937740852 101685407 554804868 805104073 292820930 722823366 132194462 221544928 979789975 493422994 393907789 578733467 997587697 253125814 423851074 379994462 541559407 913163968 845641316 521828051 486844126 902574754 97913736 540369206 842138060 551920031 205538780 922981698 59439957 131259257 792170574 216177557 404682584 404874129 649559519 941989332 91033580 446399513 253930924 766069976 44276031 175575894 489767858 792744980 741344114 218276005 598970553 309992523 378047106 483606594 817798237 111793737 859357963 131068604 310680272 322926549 757542430 747142476 80194729 11492307 637862716 180801040 300521816 351537290 525861395 333217700 740770437 514526819 983108597 534826233 246993204 453610883 902879855 655451608 187467305 8273711 518444298 180474787 965402278 381950135 197447171 791128569 45229373 934534322 595414476 719562440 231626354 797029283 442538858 899455644 368249457 967617200 741113924 276424276 127924505 956775058 972403614 725782081 475770326 508491620 797195644 898971317 588339251 749383594 771599506 271484120 770379757 582581437 859282948 17751917 7585151 261687818 31729066 65281327 624403508 666696016 27693020 801070897 9543217 901518462 377583035 825435304 809692725 559009479 382475707 352105937 903658976 606938164 15801395 663835434 713279420 478899430 394890700 731268202 609012034 862515574 499096368 405325572 808037782 172267026 106620536 328326440 82483782 637568650 668103929 897848061 873916023 565882697 277346723 898815289 866774233 105241012 284849139 109412236 453749317 459111837 751881895 396943006 145693249 405099198 142164861 828766471 126011510 645550466 124225650 978018564 288613237 515037722 243385271 754858912 897558556 928651181 572786062 877728830 927660026 693268601 991315836 704683300 617691405 440752708 767655535 221309538 873178815 439119657 412921171 650141066 770141470 676126797 296415498 331006997 301650934 385868489 699215704 555205679 676380913 508959948 138787437 480111198 224083940 64999914 644815862 454501264 706462791 589988370 734943744 291617214 917682975 960801592 49567982 676704169 664125420 869785550 532225918 136813468 989151532 678098188 999442700 797019581 659398532 245499271 940619309 617039560 839606914 957676486 392160861 410297926 933478305 178262757 545551239 641299357 394902808 975557557 208200309 621950741 106837878 410897251 38216343 994944402 473155549 923823917 676201070 260823130 650643591 166221072 611410808 659150147 598373722 286326842 555582413 422986260 711073867 225354619 329008717 773523589 348499585 316761136 190244234 308294474 741137376 548623036 550981598 336316749 171011624 949726685 69725181 846536325 831267832 208914653 425998187 11568851 396692494 82117386 998390455 69908832 397642697 468564233 130856008 659417448 439799327 587834529 665112257 952284179 757264125 793972214 428306522 912057051 616937868 732183989 929575970 329623921 196955191 217176123 846786941 580360531 837868300 769502534 848209795 574784620 619514600 778457173 796668053 930639202 971035327 640264849 77428527 682838077 751557253 227961736 879541316 80484637 329240282 475189480 224131823 752471094 463951028 510846495 240906857 698766760 60363772 328447608 771297588 406022719 553215846 378302381 541966684 522249887 589768701 476315661 411738535 560104285 86554521 24257148 287629074 641303059 813518582 693726714 644719517 789531439 283312870 846424868 432302607 244930152 788941145 28749972 389676473 739258203 349130140 638385060 780257934 602888584 345429210 493091740 254074385 531335393 507691026 834784717 410177212 669733629 269234689 137312631 750437002 183495739 961854269 995708320 486694598 184812988 262914398 38846258 209633865 872827333 433558181 918577695 468281837 746209419 956903652 200989156 379931089 392431352 444558487 411492643 505562913 253560164 954650491 944096030 959049338 732334891 299797234 637601711 603458218 971030344 988522120 477275927 338069327 330122491 866161655 562287521 127463369 449646704 604232167 502813865 939209012 228083647 744834208 652703988 254272990 352859043 969586551 577099181 665145463 878416303 566148283 661765499 74262254 967302174 30130989 888570055 73815524 449795083 809732187 597422695 674213270 139330652 18457106 247088388 384057468 655051338 422064641 312404355 75652535 967616575 957567251 777024478 317790692 831334020 699766537 426943050 26835569 900076632 412648976 560542728 941235652 567814312 373736983 287647932 800436270 517891392 756442055 755723424 445428638 786329846 817281787 322959931 54660210 137929534 475864442 467425827 373890893 947120539 580470439 298322878 535252315 86763566 284776609 67259012 776300287 974956439 462740500 880689506 541727341 266346025 771090415 532147632 73370555 599949505 865868187 405945740 906643552 405651728 63205391 932290275 189741105 707827199 914514832 661685870 365435944 199244186 737968881 922324541 260868877 284784152 890308190 942665457 595392578 813369444 658261788 683257414 131786543 735318295 227221423 336269309 12367273 637715297 956484059 253888664 430688103 853136791 102915755 259504867 817862878 925777272 62671205 195259342 41584664 699270878 796247395 217954475 570159149 142885133 799502586 93899896 306705261 424953959 680624949 965516311 778522521 75512796 863356235 332049022 936676247 612731029 868948155 570511568 343996011 269572880 598103358 338378931 235192201 735240887 299868718 20424091 854252050 490832285 841980904 711266549 519810091 696195174 655292247 871500860 719641324 185093025 163939677 975850003 394756156 387857254 652060972 261045175 818981970 330584953 288960099 862080440 652877333 46147291 448740562 967581244 709005363 424191873 870942371 434789397 232605411 794471583 566036823 496431444 616734061 592057599 293461853 57195708 558629840 680777228 995233505 139371599 832878760 386421256 737024326 73417952 529143082 981471 943712442 737635591 655268714 892171882 423918529 177188875 753156622 350734152 898274072 379978762 107193259 123105767 50780716 212686363 793966563 252358409 80024639 355180424 648560016 152235887 452178707 203808566 683258588 5849795 526992913 52113347 365578530 321282547 203489718 790514030 33596066 838798887 799418058 174630132 187349619 808704665 887406662 578223625 683382772 381960970 267865363 209744713 683360418 723689405 39923090 76530181 960713371 744402445 153411550 246378101 758696520 437635611 489952530 382491158 931308551 215160391 192010943 127937731 590350253 213282656 711380819 485120133 936855131 365317457 607436228 943201620 685293949 252880607 450028077 529120298 720653865 979672271 200883244 360852621 896430632 201911673 652734236 748594150 14432126 795671724 390583681 362588656 350172782 854123333 980539870 893016034 727185736 278442160 62344639 217971518 953170051 986619217 721955286 215592420 131687188 436090799 342467671 838294498 395490728 463879692 64475491 990774427 582684156 25839428 436694452 158127492 594249018 647408551 586213824 268728302 671156271 518951945 492079912 674383799 229628415 779687408 21161187 2037166 723160158 668717926 388015565 294512745 394012117 432027499 275173997 157326941 384365087 9931132 445332875 731642652 639840634 322568148 86951650 735207204 67341224 461967650 825544156 54141377 304586107 295739163 932666020 237897098 509042323 285691216 67515457 154485408 383152313 684087458 895676076 443537528 403217844 69905977 372617781 959586750 907118766 820917407 343025590 220367005 41449631 353266712 149531742 970427576 345863755 299479630 628279858 68658182 678019642 171888442 702155066 838034650 255957139 343968260 489995209 37903356 926226122 84149884 194756943 944472254 537814469 315728560 787868716 313875489 788174812 777237255 147343293 912680337 15410547 804267640 958922115 157558349 937342910 252036177 807828141 875350626 329175613 222570955 572160694 605316778 353020225 276329716 67358856 607110666 936159063 950067241 517806830 572869665 964248178 793385353 475551476 489942308 273476778 64821936 469733686 808017340 111368625 987847675 885942517 767197098 719932490 732422465 234091476 61486742 457793564 573732501 47758593 785026250 282809565 807069428 378073168 963120901 742411074 759218309 490867986 85826467 634817752 213880391 681192174 903369809 141205235 234734174 443152062 308624088 939505759 377081299 890735633 470981956 549144109 933368668 915864930 354914611 166524366 743549236 640007976 680369650 841118728 523956854 88620957 811737716 365639703 804151681 834014628 41921552 130277894 138740065 618711298 932511500 684295160 499074004 609259321 230714941 821928591 68866234 958841381 308018176 273752489 908486551 917020009 34714019 43784967 420877787 262479598 35113236 991206285 227243187 742053669 516238494 922553108 374337966 235909876 836112980 823017030 181015630 198086363 344222480 730328551 158683375 700684854 120128166 226617575 745991764 579752675 357432137 886525118 883828916 759937133 886681159 623436986 767062900 883308799 347520906 158025741 573663278 153184789 467614338 704352401 482562578 369266857 766305658 953099435 127143549 130903012 78086687 701848419 758456529 941109616 81409676 404988144 823082609 975556514 340450503 891509201 694227719 670446000 962194628 173134886 836635222 161789020 151770436 322449840 8720968 672373265 385804133 515990845 658866688 360268702 988993222 323072395 466444015 601275341 419615930 558552660 145332281 772057330 784130992 958507857 877786328 919940663 960769443 885734228 18556180 787182492 750176366 633428839 18071913 648781310 967562854 985124162 134416142 492774159 27296098 367175216 665934976 419545099 135614788 797786615 627995725 589070738 699202188 872236641 271041148 842406543 329867018 505502539 808796578 279712522 899565233 4134567 19420927 588479233 712045985 459325385 735105781 655847322 527244128 550300589 752207118 166230639 644601540 617656509 248985884 967629307 994503271 449369269 867713300 469038169 772313293 578173506 384941732 132853366 79980411 536279263 363007633 83027343 898452292 524548350 808930362 362684927 739801439 476992309 179534871 647668342 350171753 490883115 601073400 598916258 583481267 994775963 334965260 580897951 839639799 780549605 283623240 954548336 139548979 981780109 712489030 642756730 767769446 330434606 469827110 158744035 27844473 763293608 96646338 709928952 782652254 713380197 208425497 627336060 115376714 880663013 944746766 22861907 251137055 289237320 302457539 331190522 986150244 43892635 509998998 345996204 50725540 560514016 997958459 318020817 816814888 353071175 408321254 452442529 995533311 452101928 916707815 599221618 125040586 47267521 335178771 88395673 34040630 371091462 719155458 682384038 451448702 993060791 244162313 236896530 371423937 486849132 872765607 996649090 5653942 477477559 763532000 918549049 605541327 497776555 656786639 28515283 820469194 650954351 964801044 325092974 48754244 299548877 831229250 917377896 489169887 623734994 554747339 320837623 632176595 348219218 965054925 232719390 727459465 448639166 626649783 307085102 507185643 239172586 548530993 934022257 374812160 705801516 431096460 924159488 409706696 747379899 101409248 955555060 352088555 528405112 308157121 329095358 325885026 966523 673096136 627987833 316024515 402499616 203092502 161072030 648306760 663695604 133573211 498832320 488504724 453779799 235714503 898904528 710876652 815699337 817198236 189726460 499601538 106849190 645109835 505006054 177940901 396308062 978400432 778157351 884941777 869434459 709153832 98270706 714788976 58307005 527612267 776368304 809043202 110359108 410015461 287087574 223697123 418475172 833524359 831207172 900311657 556572625 889410319 497372731 533308719 137986276 550049883 321500800 957266779 835238675 523324812 342237931 420567808 182539503 612974330 387844244 745371751 660654309 742078657 150747501 388568827 672063436 754496793 328569077 715457696 927193964 215585137 121334450 427336536 429170141 96647572 451201069 499947013 422204841 132303430 780377009 38349221 86432280 175898611 995181956 39788077 822535074 97936342 30949558 972798575 453992207 253954294 688880970 811709435 342458382 793159368 630687991 882843616 406985166 206341950 882755661 4483701 932881679 270104812 788734582 869901510 413917213 159464366 883322617 576904723 701341473 681369135 49734160 505488999 95232311 371681336 592741810 538572702 383628607 825943388 401741327 780423913 20722491 793637070 479137197 257076857 335834057 476976294 544161395 998931712 850171252 897861664 571855627 348536549 575169357 44044218 98489123 532276996 961574370 217566873 265161915 649490781 953580095 882688366 949508080 559518934 62916410 343402644 256590257 70201484 831926609 870521291 318186427 606898992 206647238 578213306 194071477 696556007 439599800 831556404 623431677 739944091 318439737 377348882 594054581 322762874 776149355 45175432 292909646 993716550 809285683 949586668 394542992 698536421 117411309 615650821 412644117 833233899 636292244 960708378 660582528 892098161 65048435 60979143 527877963 214054919 808361200 178411495 334605723 615741575 156651940 761105635 753121333 480150970 920189066 460486235 296829610 873723169 301327761 572447123 602845652 593002159 297814752 350408739 260000773 733680463 184452380 797640796 932317034 591995335 463549343 315018397 214503013 564370398 506724204 314637861 563177381 959294856 494361689 435734377 258556866 298835279 165507958 200452525 408709631 407018672 694221642 307321881 134546077 563435691 220928018 289411425 602809529 436060069 109151830 121191480 956376176 987477096 138118270 232294262 251654998 389860640 473071168 200980096 181352259 219532995 156765274 621941988 530396951 927094356 514675540 996264564 468150705 890540256 832866757 294808498 63185295 920479503 189116358 770110186 122055768 124076185 549778779 815878838 335928677 125764185 365833435 144179017 323378422 743071507 935140804 574436523 351860784 552782429 94319399 301400477 816254443 328063933 305949448 622949511 233157208 995283638 373373791 51206069 730469010 624373162 406646073 827861336 357828089 886072664 93917797 603356655 86071896 205529936 155250604 303449035 190142736 443204153 451485868 728882503 932724500 638271211 395001432 896869645 941423469 299252689 415732961 399292196 992896413 128462188 720709287 435833489 291676510 503701948 328723838 591238191 702607473 450226960 932987022 657743602 102011887 593473188 787592760 808160308 4827820 733728597 99311672 842244115 683618681 953617168 192004946 723542824 914911550 481721250 689623789 869005627 808476553 885789443 981141594 854785933 388494615 32905223 840529685 568298330 220225194 184325643 527996679 50610145 396250829 614034686 304329695 260868047 102642087 344764493 728832038 380792578 718558320 40945714 387289766 833063656 845619007 932013705 573837238 179971994 312705372 532965513 594927415 157928970 611630344 457143822 603991383 569026199 367786839 236223594 171638522 78876480 727723368 954258656 721010241 827176165 572446544 272573429 560554154 326819042 326138171 614424484 932699232 396938591 75555380 284347483 791841468 86640597 985343046 451702917 915611949 819413205 524243427 934444119 674905634 914431501 8276851 585857939 785666215 794429860 757644562 441189918 999071065 631817056 235678965 683116073 571903033 658245980 431758592 777664670 699750429 598430936 76453188 258491166 525194823 965669402 64727180 435153412 34434736 599650006 135249637 76044943 446919002 667002971 716170259 125137516 234189652 973713299 11910910 97378760 653379086 641851242 875128153 57787782 341268957 615174437 16301035 260707881 681212793 651990534 341836395 946717895 363908558 951202612 177138313 866809760 210538106 286825131 506051782 497187807 923923575 206014236 892570617 215057860 914818366 958217054 399756398 445779642 620147959 625712797 508200451 659377393 726345952 717417827 508179754 919179436 674225762 682725514 62226169 424300607 57793331 200029397 71393621 865299670 217642303 187830777 794867638 701979038 677143850 177678930 859070468 853816728 671747487 811785899 506325818 16567561 53414936 220494191 658542960 334210057 508724135 208027780 645004934 396965049 479894848 743955862 833291538 253509407 195946544 388659816 19598663 678934507 106113492 825206423 683790548 605678306 366941651 945188566 684140976 446485630 696026355 518543010 543434994 448314645 112697851 662584119 12352423 571906452 954201735 86821184 537376681 900190355 451787123 550740251 92724016 878717232 23843712 937493262 192798422 300676486 4985593 754612300 180035677 281685139 148136024 194134153 736768354 407907861 837536064 94023011 695501298 427161856 554877475 852714859 676266916 840469014 241381118 245631551 666236758 254910487 280016781 140545865 222207118 736614503 429255530 926706075 595069808 137999875 422028966 887070243 991012154 967954409 431837320 480649376 973806065 194811925 874500337 394339142 234671148 575026631 297583129 996474096 169523077 686995316 589782173 315147850 376007002 73475775 893723728 823109879 478818204 488341579 317586234 597182289 706451695 678815286 223713065 784633238 265088690 421316207 250065319 486918813 561113637 524362539 711149896 542541631 648932436 51688983 268249750 172148746 136908209 277568801 888317066 572375691 344441133 601027673 99359920 946407765 648317720 625160017 948355492 699846175 444519473 982130726 810898012 798645034 312766824 35453152 401048684 153591330 128444502 271825752 921975658 313613010 358518027 855461336 435630184 604738247 904407218 756599378 764875630 22858926 629397761 738625204 478894946 982354601 207816683 56191662 103511272 760024706 155075607 548787983 859888444 783791204 139221296 884015517 251552585 343452567 574809645 23945426 790893325 881777661 753705681 406970267 523784934 673175837 926528021 922762262 900351391 170787372 184715233 551238367 133186768 229077152 798687029 200424701 396729729 89496298 9211286 810376347 494618373 814623416 169700538 65209977 925295436 401810178 32660429 548478615 414657085 924582391 427786458 277960883 835455876 418096357 245186211 804634932 588761494 795853923 178634968 451946349 882400934 47418906 158736088 803782544 735608851 658945665 705958135 557776939 792019520 110315226 662896590 295887455 928145854 303146486 767458997 554859807 616863922 397588305 414850711 942371541 886095680 928999090 377739974 832975752 400157003 886487617 120285693 346331745 708305334 975272950 826563991 310090563 148830820 696577820 746646637 875796245 717524638 840746431 984969730 198901027 227220550 119448995 863234207 326121260 521779900 646897516 379788795 349831909 382606423 547831252 280621892 807748901 184235757 629931375 979707742 997312353 477933007 566440576 622281626 622732295 134602676 823302860 860691964 549622599 798148890 455225888 191272547 431125716 399665797 543268272 748200973 983159091 415934926 600440295 675482982 192603899 680127823 775772575 840782540 857844167 808011640 106228280 724588789 695211227 882869867 441182297 117428726 146848351 780916233 402790883 41190608 881797984 839210265 499735237 166529526 750189879 934310918 143851492 761890294 211834790 52363870 703876280 653636044 58264410 875906570 192364243 915557252 260623027 321242504 351229229 110442721 534228745 463254636 743644794 688457778 246215845 996663457 343502343 957220961 96101881 693968116 751396521 428121251 604975902 628657698 639639525 168038593 229193163 703493504 694060998 937680 755489057 409909402 182606872 235763171 896031333 346351828 824640382 178193364 565252985 728848910 990094417 630558179 381648741 675366360 891395218 803490450 120820983 632569076 751800060 171389132 929460022 382031831 757042534 739844376 278046252 315503429 336322173 204698417 879032903 367481943 662548995 905725992 908524661 960194571 947337341 230977091 264603550 322731077 59581043 974210988 178178829 777253798 364258147 142990926 122049903 941995751 290167773 70078807 348610338 795649740 634637825 479520733 618207950 240340527 204984868 840516910 206043009 478423173 793727811 114191497 332675048 135222238 835053494 823629387 804360377 827712320 373603471 949697706 172464790 541256787 596109089 2667406 208737436 411910877 420381620 515929235 78698442 101318815 46571484 792767245 458389983 124959965 742913934 173134722 213442098 933863322 787130829 790239688 937302513 244236690 942120222 551063652 949958568 284319006 548390146 463851334 431252175 965301362 726905302 466113594 349352786 587294597 905774477 956425570 376200520 226152764 291583407 363411200 895618320 999694237 685456564 347512503 500954995 394887548 901620717 288758068 363873925 333005931 778425881 280734515 24747934 137372716 100305243 490531477 752062753 487452593 773301865 919880813 683597858 287220211 305844456 265063034 980200904 688229078 121673075 594654072 898472036 359523353 656283194 851293524 245281552 109827034 928492716 549222835 454398615 286835052 898299923 250146648 881938622 257760106 15710439 135570819 328395867 265042847 683833408 236735841 938390721 635374860 179326531 364909786 554509850 89758271 639480544 989670741 862786895 279809286 249120116 591776538 529137960 147515790 220123391 929259419 736685142 680073795 811202951 825515014 981883764 581871154 711131285 397995516 180709783 222956756 689849512 644263938 315928513 758368005 564403804 951308881 307030740 342274594 31507016 9666173 123750195 633196070 649894650 625198505 202317038 156273001 4461003 851394880 190803203 496662131 611080121 821000443 261835973 260260390 815719322 316507837 196213439 794982297 11931892 177138968 474438981 884298966 864545595 242338789 915184739 452397927 23360762 463963018 24297476 9183732 848327829 288870375 359771693 665966200 754115415 733747672 997106927 659309425 170684012 680376896 231297096 157499533 103879427 50625952 623967099 35670356 664418730 700099556 346534348 749539188 984116395 234749894 846998250 448926468 595786955 602409967 697619095 382275103 513474070 842846519 172208671 486102722 374860197 238709883 885534229 682061110 732216467 795623048 29597741 152528131 949878772 602588584 483208321 755168227 384898002 558344738 545466253 247610999 656630008 397966509 425880325 324549973 727297079 343595074 878501831 444375638 670314029 605828343 346345795 167385742 140471191 609799404 593912812 848145893 979406595 293139504 113061580 649819625 862568676 84066377 683213026 54781485 336501278 114721963 598148164 484307480 915016600 224053628 843445387 869408163 994752216 767820602 830010442 81474064 708077286 762698065 25778897 68839777 540117315 939580942 956790245 22777906 572657859 728576773 195770849 848646363 415636145 831174308 465558547 767967498 362032628 665145624 747324541 150334048 180850772 651044242 357255530 627601851 64345079 720854519 834730626 596264501 137528405 20366995 257672650 914636707 891082618 635880486 294756360 851655477 107011155 969242094 651969062 388323208 700579851 624103714 385487923 61974647 76046005 280611015 138933748 622202069 209725095 982598809 655813331 697645339 207487797 841539173 368323491 199695121 470821738 834979649 289671837 848956455 400908232 313946053 298833335 184093417 733296117 362892698 708259132 141131662 929496956 564460812 412668531 655218974 644283217 329851318 209770944 181620044 410835140 97400159 242314569 415583052 68578264 222579213 434877700 509276561 866623049 191227936 798496531 791179490 661497890 605281629 429874761 789652780 627081019 299711225 264759948 15601235 923513117 338182996 19587374 467065796 551220100 829512315 792194834 176369991 562408712 283997910 165871012 470602529 309629141 840715922 329224581 59364269 594531949 30433711 343124635 589516477 726121434 380137632 294391059 160082573 461157381 99795894 245014638 148130402 718001953 610588533 134295671 608627033 971985642 678187385 224908936 448581335 554985522 729280508 645253343 75572351 424833827 558759998 896437343 370532874 61069418 953898554 289874878 985699581 903112462 991770643 835923861 171038218 602460695 747380310 52502807 37507702 375893347 884071392 929075933 405510425 975767437 91591453 242825646 468720523 846957995 859998870 128657291 891703217 983675718 874399819 727828726 935860465 640271686 409653815 893758807 55688958 42475991 942881272 712888674 33196328 629886960 154569606 804148161 6134938 126651186 83233550 919169228 879434924 998539322 569483301 487084583 935190454 727047809 634329566 724939597 871481100 881887037 432577157 856249409 839033508 22767443 890914147 698547650 388445386 820773181 518650441 204445453 669644261 274324181 175999170 781302752 106843789 57998111 753150575 307197140 297368685 723935660 546128101 591132113 640298791 690351375 514812196 201781126 362260514 400331738 797737634 382892721 263118543 969285137 341016329 962815050 103084653 807198505 414017870 685760795 188062610 818765609 867945211 262997282 201375259 421735659 39082903 40953800 55868484 54515865 463927191 2751962 363299939 471043751 43306663 761565225 674713890 252355418 144023642 246793350 390979360 8545996 142093652 982407932 605058316 87088828 471243643 800200898 709035471 416297150 479085238 546762942 756792703 734794732 348609270 259202914 449903233 475084551 495282431 163277659 56617850 815000853 925579202 297104132 536135211 839918402 792821417 73986314 576820295 96053042 618334657 424501094 869163018 798624162 3139915 218325879 18149656 176420780 133587687 32756916 218096463 262995505 780819852 658025566 533136769 958999367 143547879 450580792 37829811 242322108 331173232 705623551 554441796 689463814 739235309 125071750 42075730 162657580 47382943 266210678 307984761 24491560 680938492 895580012 740239877 400360268 723965419 663861365 548406302 685938156 585259890 958784137 254931039 93134289 712809155 114669831 929858852 571438733 34962834 692055762 272812790 60016003 599476367 779077387 233472779 119410286 256600239 650250605 5950275 594863605 811179059 903481009 578209178 652910485 142983846 222669512 752768071 604740520 369442565 88822932 534995963 445697042 634731141 731448917 73302519 321839821 949052879 144058101 945285605