35 76802869512715
7442412747047 47052332558731 1126462118759 14143786119118 31234029296590 68842979952592 53004676978402 11087731118033 5005641554529 63286337811885 27516982211052 57546482695501 28792984176675 22849198586914 66170449121685 86139043276340 57664422156748 6734443911023 94503304200035 10152036453913 38380727583805 45891659269762 66937990491547 95947224577628 80827332760831 80142107133281 28118708850904 77157198501319 83660286980144 5900358724617 95218399165200 95523469801995 15146558833790 90232375666186 31604643312312