688 1957
948176148 844095983 250278653 133474197 623846705 104477125 657806788 131920091 474656723 393889635 297778562 911265513 334412530 864401387 185905108 850002340 245897352 380688103 478330048 626450642 658376376 219446081 806680367 234644061 915844454 564502063 805564540 663057313 57642399 439658411 541270236 20008669 472095480 249989137 44869738 805941435 246600776 785737406 44511935 400755902 882697003 431027391 40939500 710772749 939749715 233426249 292007617 93301725 565580212 461519963 809428673 747075257 118159814 708780306 388584870 470951573 813021025 971520521 705031520 926012488 305668923 462628815 501724065 817235180 969770828 703291896 455358222 494883730 288082471 801729111 279846033 76463046 319922460 737527334 409923817 743988195 453064256 352191322 281786441 464886653 443516606 154659559 291311277 655361 877277501 330518215 434484386 917337779 438760280 301674994 80464390 553133845 323612447 543834647 624977179 570022256 427134215 931161917 360797700 630312233 227982512 841233082 222329804 569695253 627681963 288047085 474625767 798790717 490538822 582675159 852611877 335298244 803913908 28925309 880926706 576547011 435773565 369145971 469571753 987742639 986822686 736502117 978630247 891755436 476472097 843748772 207739249 908451034 965903258 961628409 590669955 602162092 127000973 425298357 273350781 629579826 415607754 96528387 86800116 576601183 723020287 56756899 951540632 274943857 503205391 359396700 824029538 877586116 427731979 386340946 412045364 726574547 189112863 47238750 64128753 567674765 92771050 610316578 924542357 67947622 379579802 208542071 838834215 130711861 500912074 669662104 405698114 326388611 281781499 488075045 11721512 289011397 573352598 396294924 690792200 627820278 947758324 103572855 394187955 674698780 201579659 996812670 746416704 312575252 873569064 645517179 252093096 292251029 954608007 453669302 114867984 53623190 218642479 889213338 165356716 10526436 484851773 987946730 620697346 428092761 285250265 255810510 475685564 519054269 48003105 430990190 702998198 454359407 107657035 94776997 674066855 418788407 574786318 898052115 950702684 676186502 525001164 737085854 444326031 306489293 410681100 357673639 500309957 921189699 634897181 370480433 631793610 292000606 355212465 500614039 190964263 845548861 553257149 734917502 354660416 952585391 545115945 925033513 773575182 989247838 421778595 853133804 431816431 711511378 793603856 467430727 666781033 111495146 398287015 596163828 156577833 991414404 495126418 576707819 788729990 71836761 33240528 219746200 304311440 172757046 175572448 415880038 429876780 456262693 342422740 956096673 180116222 259873792 787482204 458546412 223962460 394042833 16012899 234354815 472888554 620502344 167223917 878296991 787357161 57577378 249368122 153010791 259365550 44208031 190271181 950168564 495974115 928239712 256580216 614947930 201987191 394096162 420953041 103183888 415889020 605039454 487141435 70528262 842303740 603102063 785340127 166889503 215426860 274591567 249988907 806140714 461575552 140575834 129718372 986184514 277404140 499258047 704018311 176731308 649721232 344543431 646707668 452647576 268649427 281165928 999762165 132773854 752302817 451018541 914417331 770795669 668545745 699235073 101619661 799621073 607568559 340947237 53535841 171583090 529774190 964462644 265647810 204515319 683112920 10370625 644722334 347873738 203479800 804758804 578356889 664869755 111990899 313096308 436705230 581767153 754425807 531748864 563203267 343293086 99427751 719335173 487008390 698349169 938617400 603525056 691348498 40902822 646417300 768383432 165653066 142015895 848568247 45660491 944919944 245072361 697856520 406463025 217435924 102870289 43331848 5460417 663239688 987441271 612826287 531852539 285240945 907040597 977479848 857948364 802445733 969643437 667823388 654001250 781453959 750433454 589020611 738202052 699117195 888387143 123792108 271423687 314166720 398807217 876540619 644540879 9358124 518591316 883285849 552864998 470830398 988009673 96421003 965134292 237196234 555934372 540108892 572697815 944313892 481313647 483995739 286047467 880240267 189152765 966062643 728538856 948593788 72990162 841566777 383243438 885342224 241313943 626122432 46405945 710939364 493750658 696938194 226942993 563931821 954748240 560952778 505954345 949333559 684894898 433932655 616494020 242266415 580407040 825853370 297234059 121984780 256136992 663592659 494965486 244395219 258412380 463544974 794887122 349422355 811503304 41636674 121208414 139933855 257792190 516289874 617929940 331331385 491194362 134713542 528693882 196646974 33764948 384333544 107620448 324529712 49964393 340308930 951878080 292745940 535778414 111508441 223577627 6874507 945823044 712018417 437626038 856153369 761440368 103872604 955598177 344587197 916569240 695527764 878102564 621103706 694490880 543352853 525053527 665697024 572831955 9130037 198524686 445830267 544539233 240518396 201844098 965715967 242090803 386791937 122026960 82720515 829561872 363581237 277590755 937046127 867274056 72733827 470544263 364014835 675897570 864286968 413930770 211262490 676676611 599010161 456419367 686990818 805227287 58524697 666138336 280659620 465120701 17436818 229990155 371791211 32524726 145696876 660954678 176314519 75732727 378857538 899940855 991480190 763809258 523881569 219242285 215659116 301385237 818617809 948372936 671117366 280562692 672130495 362290669 555476477 549351515 444732794 449619808 278607276 181206159 385293226 501288872 582969683 525745554 304886775 468311434 783435291 982674354 145469152 735604984 28944054 569402427 519065890 838494823 821651219 507382350 984681888 128103745 8426263 796809931 955347775 175246472 447086581 270553106 428780101 651930038 510122452 821881711 318174601 108203617 773493198 878954818 480198332 374726152 431620710 54585537 153544955 382050751 743035637 223224874 297553031 487386376 843479760 341428225 160721525 268182131 156767994 766881712 99204405 861884589 336763646 479214364 65315439 750113149 793310664 855736546 895847891 74964830 226874553 868894137 655345011 342810620 3756044 772657353 162167273 966443460 946133610 353477825 541067080 40275447 360675909 501288152 972505288 471484580 842593695 49208527 177317959 347586892 165742586 102330459 557361502 374134660 560808416 422206159 362450534 111529529 124847656 461784646 780745670 282633641 542450900 550200904 818591905 255511242 942942379 921544836 401849046 48955913 475309140 50053902 532642263 241773769 841285250 655037253 555165794 428187988 235310336 245771307 891764466 364535124 1006956 480427717 560887485 210119712 336633426 838950548 295737653 718445397 940683862 353800079 964672711 30946696 477128159 698274709 882911088 162874675 535377703 386461097 414007115 832036214 600168379 621252823 602956772 693296562