94267 452984035
161010101 356659712 558952984 615867986 19072822 543173896 527356604 300332589 309635673 403850999 58015780 695735026 874218868 514592078 330970680 612633204 586210457 987652650 449380620 422128288 713516490 609306423 359495807 636216404 546799306 581397670 638364831 830071181 959993680 308825831 661220727 737886717 975300410 802183034 986521889 80525765 786903469 481042152 464350961 159464625 189389952 494614402 101170867 280990490 927259706 167352255 316950812 808158155 920942253 367537037 498636737 891681853 294978380 417180162 436593947 251408777 477957021 797383471 651168073 565622729 681931013 508815239 78564287 12118087 29870136 442246615 826342212 448967821 538086930 101622812 383488542 262413315 415340334 691187771 65493042 321558622 481760133 829014024 22341398 181095080 584294582 574906976 71309283 850317183 620335639 827839734 660206122 129882555 279618831 117985982 221546425 667880055 372010356 809053271 255712855 201070187 763659054 616331843 29823466 334894110 627917302 451665254 304515348 251929465 14924660 854013673 824952116 559531042 942071840 786760495 933584904 69634871 518614859 549802130 458325042 423675048 813335161 751312186 888303751 904039137 550936475 333566917 695825177 449260513 989067098 738541715 973148460 509209387 160765577 329284085 6384094 455870435 832562401 450407695 631855440 235480953 463969889 695439815 221763428 860210253 934795568 736676234 694105433 73304118 754411631 20019954 633920877 742254692 19220295 684178306 30395345 865872371 448000069 259268059 53397938 355748557 15031636 516043645 964436386 362834547 765313914 337631726 764365145 429339258 922855667 789445345 201758512 912503707 374176710 952632386 196678864 386572339 329110443 96231251 91590577 727208436 308993605 348248767 897012838 63930134 610086875 164039961 523668388 677598687 98213417 944435254 975956529 787256216 35914833 175804200 446487206 516789447 677306788 90789447 924584516 95186948 241555128 878362038 995030704 634766758 495526664 338899080 38985841 70676742 119724859 404186895 192159117 193181764 917738504 496686596 132405660 52471492 427802474 957675866 826027424 210777529 635402751 510720364 903246631 70731200 652105747 264251753 182220635 537170415 655904540 535367540 279718851 694498223 814572208 677040326 435006442 97064615 968885370 629723304 829391159 796838303 822852986 923188709 105921684 284697672 67498047 557976217 526731375 66974864 511344345 503562555 282536898 679109158 24603698 586619410 998791489 409040095 923977716 850962079 393677945 136857983 848374152 696893221 375471538 697196564 1569186 874124297 402722721 130497250 18018651 651043203 834692311 262656553 38594783 783457655 631095969 167596770 50510070 161710953 881117542 846492040 857193327 341408988 507675372 789793144 908152997 492985434 897451087 678144395 685449385 871036970 6985450 369204515 950885206 837252307 75491294 325407731 692382629 267542224 774488314 618453507 962589041 991780710 884386155 226238046 134969464 214048000 685609110 108414121 499696700 392229963 751015542 224284739 183795540 646883333 539606889 142697267 342191707 645746844 163126017 564969781 124224304 318491706 58065432 790417731 98636492 128993921 474735240 931838375 511824987 588363922 927873998 182196595 257785351 625847853 553870095 197852325 911462133 889556870 130253549 588974188 108188583 836003821 987990611 704845701 391351742 844140033 969804856 805438543 902643399 476656563 365092812 942168330 858249763 570830632 909840941 977372404 105603707 330367952 322601943 989224193 27436950 291251690 868767138 931664908 163744294 369677634 679871644 219892759 763701957 548120395 837472211 917515915 680835222 47113526 729335661 691301809 130307187 617460175 818833584 305066096 159227982 374643161 351034876 651220416 487380427 17413104 639598217 271731192 631769668 138234203 204967947 597701340 621404542 767140837 52483980 320361642 933790022 105129549 515425691 60691729 807651159 914887306 222801843 673457990 698511901 135709587 8105856 134260339 662195233 110600346 414308448 867508757 82679826 934387716 153118826 940543439 929944276 175676592 826058499 768858570 826610307 674755425 766294030 123674513 519908636 581122081 639460008 268661149 162296609 792385932 676807553 340351096 53903995 319229103 474612726 94793318 5457745 907184131 995059301 119586304 967570128 947482866 130669902 997190141 978066035 942928052 670163364 400667002 669449623 218213386 674811601 196099305 922278506 71514103 278957354 685930735 307085713 288263839 85731294 920064808 900901504 915823551 566848420 99487935 512719392 693720498 397242755 72734952 549256084 281957818 507114416 504658460 653389794 270125140 765197570 366241872 761252623 970038034 716696488 345466856 364987693 491281877 959695067 148495212 80876977 787962064 614009526 140146446 573664382 867904819 313968359 701710200 70122924 198358246 533817766 466716835 341873194 316941721 616315071 372937495 226045770 388757068 100327066 506451825 291572618 85445990 585881308 6784608 502580062 562535117 517545394 394000233 880938644 875825136 314989781 750851559 497067661 970441325 391408588 484133331 694470104 278033569 782818720 951456214 601809633 988581337 136312111 156862455 288935111 143301705 635151329 464519750 758710480 540997135 953370927 157389020 735297868 493248442 290538304 902031456 968175573 551540613 43109065 59911692 897774822 93365298 195028277 751963504 255690758 420159894 713667634 559991414 357320725 608812411 549824997 49556304 221331475 345325084 499797418 592512993 283552793 124203037 844571783 675071808 166189603 162630288 315106416 360942468 466830164 823829569 769945751 266325684 865068920 36329663 397430878 363395799 289050524 358319037 603652359 573724182 672196715 87388846 952790356 766084336 688432806 297696735 412101225 59131218 792758019 241781444 698252733 396295876 6598645 603377512 41786615 379126002 323995657 303335001 202278813 5804928 141858181 60143641 298176189 685806006 251349810 564695700 55556493 408603647 837382073 785333223 372665644 43144519 955615331 326126423 201693097 641360357 433542643 898893304 915215065 23895562 420565902 411440448 90587880 34143275 86674140 830749789 705290304 242334831 270623426 296886363 323852674 264984929 417943765 775771287 173680581 547845553 547460594 716985683 199873401 876319767 322952330 586741624 23519170 16426423 464364796 659637918 737986053 951510152 547949267 41579541 327351460 193915560 296358274 511503446 56550347 806590880 196318423 201190915 569933450 461910370 48523 968653235 444918987 786362736 468842658 51022762 397509970 40465576 993446969 148160868 348341757 47497674 859027297 406169580 209295840 992717802 972399000 451283313 754214861 524170594 795158813 84721768 547694579 462646321 9532924 681998156 699205469 738578863 306318955 655955056 758954537 87782906 229058068 220435375 293365786 616170560 979253832 791565230 776925580 461732699 973404752 2795146 426705914 443147830 893762698 618284050 294830747 512589375 18395955 100870448 288786347 37038434 427603659 352952713 133982978 876900259 133947641 804497813 516273331 863236724 407924743 543342320 853527472 685921233 947322044 994159401 516310648 914726905 683348044 138781520 494302681 949613868 923153270 332139400 857424986 195593072 745219213 896502326 490685770 123416676 896493326 707275975 656889964 361386741 688150465 54263772 268761672 437625198 717576175 883241387 298027376 898503678 98595900 902348611 254491027 448727239 253700496 825090670 265747953 518039611 335041231 859383086 883507582 872790853 653421343 864023267 681500135 914897782 56635892 926070438 358048816 784725067 742849779 347191415 340333410 260600669 834162610 597870680 726303117 867026058 957273495 417450005 702850501 906077194 900999651 968287584 818082042 382503109 833048048 158335634 184265580 820052494 136104621 988594273 997906031 239565601 426627809 638826166 16901366 708289299 170222321 708696190 995834217 918492098 111659502 763624828 301630148 949250680 367110571 924401906 316982510 933653457 230946704 835855537 383888787 176867824 874311215 255037968 877864554 886289158 557412514 240512401 588315920 770205673 214620225 116411714 652166637 777675263 432492646 808608766 557284352 771336303 639291600 240862057 954167683 532997664 530368691 741888458 419006404 346506725 136767282 954841170 290502302 902436063 472403116 468437665 43350016 82502973 644542193 803870936 168826991 793692434 557291626 575946580 483575903 416579616 228367968 414965209 493847987 56503868 680216295 410064218 874880965 228486097 97749224 978321633 735523046 726514672 682938986 258125171 2378318 832616520 53670638 714594379 564774270 325389941 60694267 93989220 342491961 312228094 885775074 487240478 860317253 750488069 437899834 705875325 271349107 303661097 656604201 670900985 259728353 135171863 21982712 2342820 55874587 431713380 318922158 565456870 751471907 387049920 476936486 613210723 987313085 592326349 793849421 654002098 963772818 553809762 189940942 639708859 422658233 583897489 205763023 132344639 958989357 800172152 392922414 965358307 873359991 313022259 424910908 333926786 18856548 13498621 781501859 926783037 779449647 951380306 439821677 225947354 288742367 956925738 152876534 230028965 547729322 892776713 718747818 576224685 917500165 835024516 625489058 752953828 248633039 815019092 21579349 979002308 293824237 367768436 314374745 520429464 468926398 612686921 937060520 205018715 231301668 761105991 500300708 496403833 785501687 380581546 331120490 856980122 988764984 240956758 727130997 212119247 219632771 708805767 819194722 643404675 904247184 402229465 707593287 316498830 466083061 875276428 732065591 219669158 156731895 980535402 646788848 198371110 846079677 99056971 358953545 670812196 77154084 523491939 722936883 556538644 914535861 668443833 248305537 200939197 895770495 244939324 514683569 805538143 996701157 463924372 876064729 43980797 694998973 50260279 986775123 977732522 911265294 294790805 910253318 370099355 177374838 68373573 412601367 303628772 619575407 154532388 951619804 156485038 777412349 140233681 426782600 546409171 210899393 454580905 59505421 155960374 386601567 994560781 90953741 501028314 31290139 252883556 664753355 261192450 527283432 390861461 300498836 727322635 27991528 177763081 469380188 50100815 477595615 624126373 286066950 473656420 789306418 309157195 491477645 567306210 679423444 997559397 444029056 984001982 650108951 371388238 174297922 266503756 163503680 879226486 780556014 824726158 340657623 216373261 891206704 349546769 480896896 607142039 59382403 240370766 152874310 671017497 229538284 186983917 351922183 175136541 792775958 572837375 92707337 548073969 827959564 695587206 648594665 291500523 213555438 227340756 474356325 447633652 770233310 565865139 13610366 917582948 986701095 365903865 645044210 933357376 953802733 226505928 223086029 461697105 530701356 973456352 366764753 362238606 45886625 998231332 925209048 886970187 334414487 794617932 164410139 98141112 271807550 622074960 876176847 356342779 665883811 474615102 552790126 342326707 524235092 403378082 465697291 402352787 617880869 4011757 365714300 205296757 275632625 734715700 183669574 833211056 831242760 605230278 626159091 387532163 506626506 163656350 950478494 716995869 347460866 963973764 183618971 120034436 391847063 516274710 982057335 980503239 325393061 36119387 901141126 748442672 541409138 474945212 134198103 944302655 516708345 839055229 137474972 942033252 277249791 16867519 454177831 322020694 605105175 827079131 897589871 54482930 689737249 654345271 794682467 722384114 343611413 771008305 891578895 495315892 623858835 380816285 989110809 875477751 328835709 226890278 780974628 559745365 470543243 987241931 507807306 692502216 206744863 390459725 261168203 36997585 190437572 116052352 611954135 698373049 67812229 400058909 414225383 111524965 988186076 92851004 898122686 241727460 359143644 148402247 339832157 823205760 353001111 483631938 560731821 685088721 87147322 310089775 28666559 366905711 524174332 434160009 444505520 311676955 727800236 619211039 366242430 417255207 199108990 761761196 868365795 652677318 492994700 584189089 565488833 252838024 178661499 161791481 929805603 220583742 729110292 820538523 511970156 503891136 660165172 192599507 542407710 981387395 496668460 465185400 844101094 242489811 787497213 324880058 477629916 399266575 775148852 427793735 96746979 850720754 654089081 640344219 544164742 207739796 789234924 878559509 716075377 938723203 914928340 159737620 51291932 95419128 43814043 129514340 834441148 819214289 36153442 978207915 754047879 845260090 689947276 736594552 811614317 54429590 233537138 205017103 868574683 549554516 381274997 541826094 249480467 204226088 623295192 871856926 632673668 633255562 36954542 356365329 760351510 657978677 469489326 209060278 854242967 677833179 831456846 8995566 313621582 384438341 533821422 948783909 817691248 404988632 984059638 989629183 498182045 789442562 280692864 624209585 857105926 119555338 912165315 670850716 970947882 737410898 385723197 70513171 222762746 807620802 291423284 380819943 783376534 14784791 618873899 379879796 102713289 34706104 449871564 762029474 710250314 893013666 31560097 476359139 557546688 128092267 119225926 614998299 650828791 653073299 668001715 870896606 33084059 946036509 950958591 842435823 480880954 197464689 709766424 44330654 940688594 75157127 150600896 941640405 568664648 512495510 929022248 199292489 955000262 30589011 536945971 571089539 793309647 583869569 199805358 968675047 50891292 726774899 619550218 326017624 681411025 391568342 636061811 938627782 394289562 610330949 630794435 916674566 736769994 405563078 582593523 662904095 797094877 554721057 434205774 636574878 214938103 889716419 326248027 326114835 241149746 200598064 513480803 638402255 473063794 541761904 304198266 997431340 898113490 810678229 205382187 162431490 397107837 429219023 139200259 679807447 856169988 656549990 666088353 652628568 935508624 17571112 680737117 637927678 465113228 179719679 812236705 902418360 798548232 578898267 766156334 640846720 194224298 767609958 563751313 567873525 63140331 849227372 21468324 857932533 238102315 926983947 987089572 948968245 570436680 371138362 58637996 487710841 298386221 374342934 72148991 348615626 32288461 210398413 162306973 639155570 717539040 575997041 420664217 49335552 948434386 545718116 499369690 740726711 98060733 993055992 288640002 823362978 72595373 767636786 174666903 590105627 316726155 637734190 5603502 192886011 222071132 31753663 188162709 129810387 654099715 91863507 658489212 983239729 660438944 153640988 754901711 214574971 96885245 868200049 422348426 80125839 564000324 953268163 556486522 108133805 733183538 856548254 548169402 980502939 50635868 894494579 677485414 807389336 876590974 627103033 300759625 495493590 849094378 951994676 44378815 290714890 124382118 913679266 684342739 411326221 432027992 646715207 996106243 807241195 160934315 567966421 116888686 135128018 990167556 154003674 245820064 506181863 319663833 11761969 390394829 450615147 12768766 508034037 260723654 142417891 791098041 761261017 207838543 319209097 902696063 684803410 573716484 2367557 461456569 978754711 645622082 54825765 1504555 690096422 191952640 378708858 433937508 425235596 500698049 111070875 252252031 496366502 975818761 355968071 688876823 578313172 406992821 46372081 244792903 271134228 646177221 109119427 968905847 555183508 235246782 188550976 440450968 953542422 62651009 228333199 543741005 547788338 171809113 473266104 2615149 433174779 824642944 265552321 255970961 911420654 220838386 307197191 827219007 261976268 470204870 786819062 576547279 462185246 477009249 489866317 550897562 720324508 862829305 761537797 991200577 909437722 776324394 213371346 810027990 169836634 753951774 484602738 242205469 829872852 741354864 8869790 436657828 702325955 199649940 840088317 93757402 734703567 623454528 542869760 351853921 892639525 475921087 890564525 758338893 973910301 893286560 36763131 609307349 880571351 238186161 535185330 28954929 692535901 659932095 860982243 663966376 570106253 486694608 874620006 933735249 497295925 773793238 424166278 289708541 73728519 88738632 801942945 825060268 95374931 192528603 40635654 492827270 389763484 990020345 418797351 298293954 633086379 160612474 106113188 850185133 1950630 32683835 6603047 185365372 652837245 172248997 504643441 698911755 990410268 306012668 812934086 236195755 120205650 717799960 656076513 491425036 2875385 655325674 197304696 852641397 689132186 314224067 27555275 86284939 803882714 159904954 704200218 940050841 247398132 966802653 339777875 134955087 599094330 399458741 686428139 281555536 731093353 892663226 711375964 90618983 289128410 167522287 320613422 411579014 266266887 260879688 651123777 874027168 913793556 507801414 208807845 173285084 528813400 204998014 97185652 619701047 177799721 620279262 144378959 971754098 860725613 147901976 294960460 494655653 648851700 554933887 82107850 476013961 329122280 136714549 844796375 767428363 28704282 666404911 59508059 406759708 996786234 871105675 354168248 640890242 910073617 518715515 272868629 263519148 690208406 471260513 227144527 902953109 351129359 823961268 111197880 771464436 708750633 749707448 198130447 766330010 97585806 560590582 534222426 145060231 957836089 76286027 961203785 489969253 293055620 711453852 293687106 546804254 656467583 555323885 378272083 113743408 829123111 102275561 233238040 102755756 758604684 803374834 50384803 293149913 34187749 311004931 858526335 318142571 787264120 39279470 541288168 25249348 366068646 771668923 42122161 829121574 163873332 295770100 469925385 298734743 547703943 264981170 844524645 470273046 378796162 2707137 40270404 21908596 489544231 438339779 672116209 834261434 275098531 684671294 881301219 643849932 987119927 83142395 696184384 70739846 272412430 767457082 573807650 925349683 411768846 499828143 470203347 262325022 200394793 204796920 100397674 368068121 998309391 934828876 445252798 819565659 305651024 471811158 6548461 613468056 557311230 413603935 387429135 363949105 722719916 166189763 478637921 737769128 592757851 165169028 167983535 280769188 748151618 969816470 16433224 821371688 310390323 394558908 867370993 537446312 407370539 305744041 567145840 958981933 897389024 475022988 908715614 634896518 376867445 860135877 555559732 367182895 54940294 924360025 933155482 849815263 100111240 929259345 742314162 591827980 455144850 117595794 503531722 810596615 771814087 150839942 261058081 303786874 976059390 485870354 470288159 102663290 149266121 510244275 646263616 312346471 729418714 982696370 328382237 864183645 898847793 446019988 222374432 477458596 78060893 41323181 882388613 738323271 4786196 883363830 179800694 275753068 788988293 324794791 904150241 573177558 878730087 210793719 994397369 970108639 447405078 448672920 563982655 721360919 219460511 184745369 688125998 856762703 788345151 582798136 352054326 47088440 987673493 713669332 526737953 168509808 689433438 988280802 188929042 5367174 710092243 883456531 905368442 998371589 234010743 832880712 863877331 795131330 615713391 833935028 426963711 129531016 548979691 731893478 838533791 925507738 825879830 802315492 161459278 96261194 576048994 996848313 304384385 236636443 152810931 776740867 690775362 445521394 148413069 316666185 961161929 429923256 394037753 323870350 933379055 110231318 751547885 374882749 90269115 859512697 200735380 413487638 111531881 524491885 543235832 122239133 426464330 688153214 28213063 740825201 959662216 424825116 964516807 524263987 851092823 557146713 218897334 314600889 872496815 27053473 556097830 239933759 386706388 439681802 684132023 941184633 750780001 646423254 285162390 458472091 927396893 936777654 471533198 123149966 652356612 578881793 79740632 87128158 73222430 178918704 188715166 236344254 741139828 818947025 954355850 258116331 66145997 729331191 727694639 517338916 540091116 860867584 793920707 929153274 355120779 133098307 494669707 413082915 294388249 60358062 470009611 730518025 321902966 239453224 373782095 93104601 350666821 285968564 429286013 75619039 946645931 753768683 209032284 986183476 551509382 808403797 100176208 795751386 630276531 389416857 926103777 69290385 740297636 258408528 534205646 420141623 949570312 975808377 283477513 210078560 148340268 978353627 407288897 824806691 989376273 517477968 452585208 692898126 865739003 585825587 403386850 634453395 936077548 941695929 34433547 286657475 385235390 38999464 37621371 32527189 342098541 776669948 170414218 7627597 763836473 331957000 834852113 123070932 571270772 857718420 738043055 460856745 607226866 247747341 123453779 936459778 128732706 156537854 594341982 403697916 733307174 888077176 463739622 410560889 951713216 228338888 244611279 939979169 819278373 122693523 867305876 781325448 690642357 994921323 537125422 160733372 116845692 483031458 581713404 85912446 118997315 370682443 407404308 31990298 306294832 914376379 745213510 936786380 58781633 572113098 46595620 741927726 144334097 68384192 32877222 29070885 659079430 115757551 597814154 429636422 97066767 39670582 148823273 705950598 981372935 328797189 40636774 516418888 579055737 137868604 159507283 322632095 934568090 345348381 91780495 276575611 896403104 195172155 438673114 989184156 312289978 765872737 447225277 441171007 330436107 341719001 738489482 946887734 262746049 439985672 576782604 213732181 241434776 729155411 486346796 374288222 424182409 280115316 705767460 376313059 222220799 170932709 680863187 526174753 316079066 297057940 660708441 667761826 974845462 447692280 405969631 982242647 602356794 275537348 810650338 79473700 961687523 460249663 128951987 987339191 266995700 577614022 70989286 921245688 462308424 301585199 77069799 143676504 467221584 593019199 426149252 227081434 841844088 192370234 501910670 820843372 608149322 822600921 731094781 891016925 345787907 706796821 947860946 793998009 129081562 233025246 115777072 561228824 224648273 539808531 610151250 446253656 850812727 529433541 929231975 206956387 230794532 747617012 90861321 789929362 521817057 148209660 497945778 20851334 877938178 588242999 660774614 297926754 177383350 266143651 334328771 825596793 923400609 637754473 778177546 867468192 350987338 780218091 125844872 342867618 365938532 453736677 906290202 786960710 558248657 888507530 108434198 48783574 594090843 650439477 659289568 242304838 893069939 382363292 908947710 539840789 260134042 168662888 781188780 823733003 691744524 534163538 671117082 168412347 129030219 841169512 81166060 510540773 828464602 899901955 165349374 274996731 628114297 314887070 839752495 64955278 842786235 664552872 773129718 610921889 567864465 446278632 580655518 933012757 182221895 406759718 230612096 453634851 673878453 947042745 314469043 152173435 559871677 869905141 653665201 640996949 538031850 547809581 188528009 112964903 381859866 525955330 642797370 996491420 549600844 945098784 916585406 336004569 312583864 181235041 271344553 663643653 202259121 900067802 747297268 562576279 332672065 517572599 11760837 285794089 821823693 799334038 398078299 427256773 473082818 157136592 829677597 769548836 439509475 286507897 227009320 718378321 346419529 248218377 868010817 177686367 686031652 901159928 34070247 68526471 857203970 774326318 824185618 449384381 664414011 10400771 819932718 339713530 821936937 781700960 59472725 599821094 692323683 117387571 937326465 733557042 820680538 378924583 542255821 982126780 25601913 471239492 836041523 605852321 616348973 480319859 512045170 527846093 51286003 650756453 178221225 801874301 844102018 900425906 42980519 524895696 243483300 216328115 584070606 390416006 416923938 362245411 7549369 933446300 307585262 411990230 410165876 521200144 73434800 289526596 61833068 190028603 192746680 114661913 757005247 235795904 849126806 162135107 25118730 593308199 848579978 467496390 231262022 308287140 440174440 175979616 859460981 822261652 32273099 631321957 346053978 68747669 528013417 431327270 124005280 247279738 896454881 487755619 1245040 240354893 614758928 191091014 326223480 136865935 193350874 727566139 683903593 109647564 628235257 909833518 396918516 564944202 375448132 525279656 83102642 819580601 379144594 28649379 802140622 82523185 239892117 105420064 630024489 712766771 386570674 253939846 336478264 182117386 348384019 248335235 135563609 458502553 897482782 368919095 922605161 903126177 932389658 782054050 237021327 516036490 480203632 282717150 562730665 696452777 705310497 733900191 320075545 203680591 930570259 190292165 913463128 94340071 536398227 93566541 707957077 272111548 28582736 906665025 20746881 73298483 69338560 993216975 643146381 741389065 748646278 786227691 564801674 95732745 545265043 674269753 480904953 651073404 722958824 837433638 30384520 73884614 989595689 369482788 371391193 844701756 85273607 885854632 414017962 958953841 292437537 549506484 699971178 420619063 103105499 837085295 71996185 848532104 485441838 170804918 798867174 288474066 229113508 249358896 418309921 803741109 238901186 993766559 607349037 135415381 864846971 465049549 786488637 891213988 793594067 262381288 241621273 797680263 640253293 781315096 206438070 2215945 884673817 961902871 701466133 143099208 734905051 145428725 148336183 574727696 715541862 809747367 788673429 5616301 499340882 33260277 295634589 142547779 713056580 202978277 112244729 794191341 214737516 829787108 942836375 623730907 816497556 632385564 153609604 426399687 560820357 866997635 190635068 236931658 955896720 39838642 364853730 801848423 444577327 212954081 296021246 432730369 861890455 100368771 639023955 738266094 545994341 242381208 707799875 825751328 338095205 688260125 42550947 926562151 938262836 977227163 992604817 856935708 820360755 639177716 526660135 431289118 594502951 948125302 814635575 155969963 845395711 595413592 519858655 399450174 317147389 440501072 939799939 6144298 718642626 288980023 954887185 46322955 386492931 24107025 593721570 75175375 130824357 682126370 60719609 351367139 840328625 784023336 917267832 837146644 7726879 352856609 481261237 74110119 44307930 702733928 279445819 395930268 512600887 741283290 887228669 735045604 733556845 332051695 313421370 234753090 9119968 508222873 219690538 103647056 944742991 587151338 11023174 578986673 928392641 876557161 429110943 421106776 702275971 442700679 24752482 871919101 437893207 714967393 800912987 887893291 541441860 176432855 525758630 369196688 991207606 892520137 42338478 677540159 573169795 358636459 358103631 675215836 684635256 269637019 794984977 409741251 486078855 743288284 159632659 951451903 703954979 912749926 1379325 61734765 417599841 471592673 593669381 673445368 928607148 945925174 932715586 622492978 156910803 996653724 530241411 240840878 79013522 169672283 671696749 1608247 686712198 735853236 921415571 108694846 206893455 925273026 642299415 684978104 671019131 28144306 869866309 757582641 547192477 303165470 238452441 461883998 290305383 694357119 810091101 988594780 525880080 473322755 352918483 527632813 1686754 542380424 130641635 643038689 969992799 976810593 563144711 953466366 486317846 961281778 426335400 216079691 135843829 657750975 775001518 497527203 98087527 252397922 456374974 128317673 58246040 635677807 28986018 248790598 731226567 795921519 754759950 97828094 883621176 915236797 736946365 893728945 713104021 660012562 249172754 448200999 712178290 299125870 875661767 40749231 502549467 114714904 648425067 418417976 723052184 686837000 210541102 681776044 64770171 817742060 876931178 286923654 521378183 931523817 944482712 350805713 505464315 807904413 309175661 74307946 439663372 356841652 164958593 28424978 738108729 281776186 110217616 794294935 941437138 256492916 407642254 173355143 965140850 443559433 624524654 597271392 819338364 345539685 381720928 388605625 311075929 914304887 372574295 899347948 674254034 288816390 638909107 992192327 933700603 461763891 336960116 451324224 463695577 521260305 423425003 219281072 303902649 606052830 226833921 792634765 454388299 50469492 549949982 53675669 152488902 155674614 384405922 512364117 872507504 692508237 914937177 100331034 576401674 427411174 798178920 706779053 383779232 327192628 609108282 79979560 826405168 540314765 17703055 402788558 898211826 322249283 247224286 959699071 502468879 37976823 608739019 349669109 934056312 368558985 895555005 34570597 69072910 785746922 791441803 517289831 894451848 528897585 34839549 73413424 965235834 59257472 167835239 872953608 872700347 714629583 181220393 137631740 240281489 885639392 317918482 887975410 762638771 370573323 331558122 141029021 506916298 156109892 134371618 453008019 409657792 390792637 346846582 814386025 388311221 468830503 890007822 761649460 758525340 65529031 342936911 196848690 300556438 910308531 887279936 721965610 687316814 956944517 799925658 305755124 766642310 695877170 277197666 853878130 413430862 826476407 664201514 272652677 45211857 475372893 923828023 642041339 227120895 95113334 597480765 841226919 508621876 751334831 264405328 605700200 702614769 490444688 393985241 121929068 4638517 716100616 585527832 852803294 373183021 968992835 359945315 437225526 960345244 155811707 663242097 744151505 549997227 886886935 82921473 551980083 447949991 399271129 352443235 749896165 590740133 423504540 366362000 752350664 143077643 31861558 839461696 491450315 769183446 796120808 184343027 783721188 585742474 10390312 786108193 123622829 910083791 603025965 471695200 372267242 926863831 843429289 191776403 266122823 159427967 367594274 455465300 439730900 851572839 698263459 421883625 99375823 695236478 446050607 258819757 60851726 573073533 309348420 91635927 904606128 397662039 949890061 670016217 854816045 452891321 329994925 645659822 994226585 848998420 863795243 394348652 228923981 113346956 57328219 248721660 619769785 448347404 566729320 273000045 786187364 746939196 496146246 154488379 895595036 401951781 290291919 365601438 464569308 898108573 260985017 977639850 515406236 33447281 649327344 830167533 446297160 398185223 770016436 549149559 670960415 923450702 70459510 147100737 611952328 435577142 104846556 116686203 466732617 99194457 340239268 879185848 844532756 703970349 482236214 110289309 22368311 445899129 252523581 185501672 963071761 199774746 839028910 94007776 226323877 652081216 196418651 312232887 389134360 738813951 61440042 77457182 437975872 979174159 766027647 876729356 277297173 325483582 844806383 953654700 135802118 287961771 689799122 522019735 722475786 944681397 891206849 526555263 161164257 497539811 657795295 592495949 34793128 549260011 153597345 402542834 127252075 632724798 141898107 805818421 938338396 530444702 680312266 271641097 397098728 522150575 437094064 955456585 545476520 425039558 776096412 16707744 715480562 63805246 764922576 548059418 197977992 359733326 203395061 784319035 157188193 417661922 978254144 141014767 787786925 561090056 702524423 189013026 135424103 272433456 57659869 876087569 14190055 173668013 886207202 929904030 212822849 536255857 129897750 965556859 773242728 316481177 44572570 509160518 301074689 398508364 574427811 734493947 473795499 891670034 868726779 396802657 177549504 264615228 305248604 238653037 643383415 649162506 477190461 84596098 515587912 612838644 508681663 190024602 249439094 779471388 235264178 553060702 644353966 982439626 730818680 535277200 688211400 651123804 962446728 251520998 672235053 60751548 179533158 827516486 820909928 768514188 850151154 653591657 399776802 953015575 973424995 123913310 828010524 893930659 853936547 834781146 778832948 541921321 446661943 816206777 496352401 954316586 754040228 905937071 879710162 205424179 958821658 18724852 690010808 673949824 80144274 438739485 406888109 321937726 341417981 153010413 482225059 299508533 846502947 649925565 781113430 961567260 17698284 418745612 194554995 119026918 758717871 91396714 822281884 555668426 566061898 108622429 978922219 556328706 595842751 623268016 139870506 867083246 153531534 663573052 784499519 279132122 620925591 765192115 197397152 698601628 866368647 297945480 104224766 19825695 298876303 236369549 788725753 354953505 866615131 337597839 481560452 534571484 246015179 802352728 298824450 996326492 478557082 170745871 423911489 683636338 409250643 525714815 341869363 884489957 863944212 654847867 764363622 939036393 124881724 488042140 518692805 625275116 163889858 219212420 264152799 960396022 621177298 163603757 701408150 979640841 613407881 795314221 773273513 901782601 721052728 714276341 569804568 107683960 945298578 277916472 684629141 525052738 392360246 856931274 214414715 16326906 638256828 281845417 405044213 212319657 622358738 53351092 350809090 732125838 347492230 642899881 746465649 570585267 115984246 350353199 435044394 782550765 995409937 670351100 475135363 363620095 763472480 8092904 134673269 470119413 664794605 520941765 750779647 497110737 642789382 950688857 186318038 199928510 581642299 361104137 631413247 140964120 623623490 438657051 334177943 768739471 710160766 608570586 313734090 373128401 635559259 736361686 85443392 416020285 181239758 1142667 759555956 34450344 716999676 765242274 6872485 487322899 262956572 917139645 475986044 74814932 452163766 54156524 953421656 286254812 540452846 692008262 152717048 808458873 929678080 210027196 523281825 450034850 491249327 910375118 348576481 561624029 890409731 670889491 837104910 418633759 74822458 768976238 202394465 931836705 600330702 589375650 825022202 508503219 46910325 79506754 437995904 44501072 507407486 968233176 74783106 703494935 377485152 401928146 817450146 596896117 280829724 315341228 519526343 108781591 569556041 541568619 220011788 944828480 984276846 811412471 182303394 756168824 639655050 654771745 528811175 20547851 245690326 334641939 856725425 206515343 338089751 402316636 985195337 409251435 943475147 438085713 489367873 661381469 70286290 423505320 308060645 437675408 188866913 957342114 401252598 523708219 313779593 294238835 29178571 730028438 545788020 44438640 592355466 741368649 259486231 662482247 998624857 577955641 334960991 924748826 514017731 410353592 686280935 322163983 377218807 834203344 278669057 605172304 131631933 272642718 459638711 513857332 407448551 819684603 778133445 550975715 371087947 591032645 581900797 687530048 623281542 17010408 367408606 817216790 333229840 336525294 592029608 288134697 362033452 160670544 953191735 15210448 182131538 822110543 42023396 282892655 134355798 675151036 583010523 196166857 584127300 892867160 359433566 772925953 915553559 535583227 817113557 370742263 304547859 173867097 840861608 639959598 629576328 657335840 254774133 859247433 625877107 328422853 282212486 98567176 253641318 54085993 431570670 470065289 523481034 418903396 169913688 111163853 827001278 325557439 277595101 84070016 288370696 425449082 951434020 885235816 769426393 44185187 997086791 383528857 329028392 313672811 954936669 502921919 109684566 319659558 325368105 689944653 993965964 317342038 500818444 313702998 977614340 178725014 870563433 704392405 995681895 615654911 118005648 8233330 440341965 22975862 479640793 906944754 107964207 735407629 708295393 395816307 696752204 13559544 856429682 960100128 778032498 524907419 604909060 629671830 488579075 130856213 957820246 180962333 755917389 661544115 248789610 677177091 163268169 246271376 523212226 687235535 69498130 37891189 623528174 752057286 684051310 635683688 66504423 763131508 546766527 110530487 84671926 263754239 593361799 152662842 128078359 957936931 228788429 944889496 393907534 587526759 795272361 397948669 243069831 384154580 386630312 379053471 169669889 671644258 879766377 635227437 261970444 528733822 910326701 997844411 754571388 541292222 892452735 638384958 809581550 868928631 341706068 939660463 865657582 348195342 701364517 862694207 988148106 296806293 526559768 675314774 466819505 393050062 196791949 646373011 643293337 528461101 882528140 811463808 238759406 936381707 202569610 701293276 409703215 314206258 750463126 990323004 892905227 814448553 474381901 144609894 457051086 566507438 297376918 989529070 106412479 666024299 114246026 930605936 211792044 335304061 424366762 197716881 565295609 910971501 313074275 612213961 964802965 599740894 301813637 348917774 903792059 698004413 74493213 14978297 493872146 771409567 497777721 31986589 995362129 717815335 101345815 909096937 949627289 873320252 619371384 302068726 224135695 162790695 384305111 790167709 601613392 441930631 933564854 802230262 317792267 714016061 843010616 119974157 536020783 556456538 518214285 413552144 229552357 818548603 344668362 445806806 654568077 121815121 564737395 480937844 138966591 646441504 780377168 879872249 661062152 961101864 509271441 227781721 503974515 496762032 550032492 475068184 46355766 964337407 957108381 38436135 346223751 984753746 723461109 806772360 363146991 624312211 499907615 953330111 481267957 831648172 844211497 860998024 502359114 181259328 337234245 858837047 689580717 628448962 528388964 169067653 139656930 415927145 894657299 459483546 130384467 498510312 469736764 148861255 826533147 83503086 471607905 388242479 879170753 254992443 65975240 428046739 832820119 415785272 395449668 323974697 267272877 287560263 131348895 256816565 212623719 955216052 858214573 529523932 963504369 316209162 352441723 331977938 302688432 790403878 310841746 891317460 921620098 808796618 770740716 128628221 818167192 661851577 786739538 420643620 424872829 548892565 468052181 234231171 424213862 95991088 308201276 600048133 128563042 423175412 436985079 386776026 727654645 994059320 257719895 623676116 560984419 86521470 360345710 466952605 991685131 867698384 716752188 901368302 65945172 450285428 568527514 81302558 705384067 833743461 447397931 56331357 485900687 370782375 422729973 849099444 805843474 969722300 841681146 813568352 124836245 307250257 263143805 881763262 271518907 307510092 976415865 27696392 404088333 905213851 52231347 890998193 563349714 519642262 554513421 515669584 87377077 345640450 681434225 900115463 758434474 335547054 174155794 899404594 347883646 332377520 246635642 591632073 425256621 974912197 973300506 626377443 960393521 197464606 13433444 339558268 905801198 566163518 98835374 58677755 34751083 147881790 896981482 841171906 632605620 83240927 157979064 547405497 929418016 16548523 762418013 538993781 34947690 213429337 106104795 964693752 237688586 330197367 288058704 729536475 185519246 611140613 732074252 920142728 480356016 710084136 935041074 951079661 331112120 605786986 717050801 441083742 205928490 742621138 314830599 822012530 116890405 239265735 456433677 539990694 418725913 142973470 659225643 247027207 686844526 898935165 752827748 483096287 972281311 607406532 40727817 434878956 738547552 887727985 906124557 850562787 983058566 982541954 659540574 722970268 812183590 857055402 111018102 632864402 192459547 368009404 359763639 767077015 886728692 371641686 173669343 581226105 271013333 416321187 351496098 720574695 989139540 427784972 609559015 848537772 140912617 808152351 400567103 474897767 93777956 846531439 94533374 847068296 806319272 852636000 857425431 90209118 74557364 470117268 935920901 300930377 666385142 437966107 821442957 211955405 810697991 474318993 406719984 558979878 738553112 711533409 655398447 615989150 665356435 886464463 216779799 558190975 426523143 588105569 175996759 232685405 931492187 896524490 571100203 399389655 997486010 626552492 52969901 873869193 183721334 49363931 283715726 160064307 254628516 911110210 822300288 498493491 246245936 834177825 155975938 1512647 844476423 630218946 510725259 503579307 770884665 527074614 52537800 431935775 378510123 558178881 454150068 829103253 546744461 470281418 295773810 72365205 704617098 675420848 360131544 183219612 767497669 379155960 603757065 64263516 597688612 766015307 826949670 43151580 590753146 693558763 492450957 154467771 497494533 442772280 31969830 625032556 763663546 797851677 261966572 526595666 273133706 963863845 653447703 48542611 447296151 592491127 169260622 924670779 870977053 723358228 883519176 836803763 868488615 630754191 310677050 152354030 945645386 657006417 57807019 138404565 41163528 935839197 610220681 553888047 47635490 370339451 937444325 29551865 54202901 700132336 691068699 789145966 596582123 446492441 218304161 450350776 22166572 513070994 869317339 532123033 759454621 915600605 428608460 212212189 631349903 158326466 531817147 794941668 243876852 997678555 634341261 725082785 472215653 810089528 844530147 443328512 283115903 363935879 486036638 736734731 743325839 968846906 809139748 505963844 20035564 678355546 724338605 225881421 779398979 997447691 75372605 420602424 320557437 152255960 969500268 94904982 890308881 559258780 814855191 718654309 163333977 258862344 408415569 438943237 452452900 446789567 445106372 512764231 806282881 744702482 358331297 820176678 109416421 839513382 815853307 531401258 944193494 374284101 980886092 681092562 191077351 112685651 411961961 138099425 689721754 549838897 901412734 966199785 639739624 279445061 312360421 336601957 607558014 828782953 142781196 57365290 93402794 836632536 194365859 521442148 215174544 492155860 737210109 970797682 583239770 414322718 43571266 246223153 179653994 61465638 132667618 370017471 79111957 790224922 416506393 631599919 791807566 793951034 855926054 162322140 94761423 255680387 329664177 458252015 526774656 890773365 785641216 90584384 859925363 566798176 615525083 253548664 133305269 96087735 728348249 822134140 848543393 526450970 574289425 780991803 659135846 294056212 274522919 684395520 598800806 886640371 498163736 237723829 102652142 902965620 84796945 515182550 973473351 806772302 111175152 352867637 212142554 9445705 408197228 309878399 807912597 385997455 801153777 387849351 871852229 89020455 259849944 819647477 852641667 646819411 941271805 997978884 418347359 323442193 411463292 806625344 435186969 674985064 549274329 675230520 287996985 230508393 318021519 571566106 290023260 360702170 391267566 397414681 248297327 592814421 323620960 155985575 109129106 616627920 861184869 282148965 962301873 124941459 367762336 257918447 212424936 495542928 728944555 809930809 833095988 702748528 461858481 432757605 795509219 414211631 656670906 833131322 873281799 237019644 918705375 320233829 278510311 710177618 394955388 365392466 370388415 924890490 375810497 478834824 950902581 101205517 663534559 79908441 488418610 755594471 657726574 203782590 755144329 500729365 649587156 335370039 463356122 689307479 689884697 833643947 621498397 988803731 903169522 952198422 828339776 303650535 708761586 643303665 769314271 681890082 564923308 507366869 852910258 604897982 129431449 537463450 358101980 875436718 945523030 512710260 154074917 792423245 473916243 974848574 444853383 522754288 869127944 399250856 241465774 488458006 647206079 370191141 676074900 41199015 965536501 613094751 865046974 764174691 607039576 308318427 784583305 567263759 665798227 251400235 956571610 71059087 199261080 809898089 46133414 130378339 239429716 903947744 447738780 168144801 289358752 753884773 613549447 422386735 783687774 152638882 567621009 894833788 940398691 20472633 876795938 40624289 554962034 880984651 477059071 801603390 528131183 560164596 159424527 192145677 703700432 461037213 629651844 854058483 445325043 94888101 650215184 255280261 67467040 111342769 778766187 223786755 977683635 754429803 250148302 915196442 570358358 950222748 989915474 765408457 192559932 23768752 557693176 805923239 47069410 921596636 33576621 969615028 94282162 534127258 135255716 455906003 982705935 3312651 646849213 775931090 436449139 927302420 443533835 310716282 293340173 21392185 738198938 740451283 251001579 662007382 709839146 910201683 715479623 765646685 494396626 611503306 556157890 137233098 234223929 799788350 611877192 179413701 488089510 131791150 347432832 436466931 62138431 511463877 625640461 655611420 348344053 404792714 535229729 126763738 526919058 423124170 620204548 297716119 198203791 513444606 624150669 46501260 354009807 318284456 539137008 123605566 596792433 699660040 978052161 18103779 161589424 546643521 638257013 553849124 468208154 866479116 173455449 664090809 269919882 367283824 910596637 947273384 604934297 330292975 12831786 995839411 534599223 15520024 726740452 763847458 27568940 869273097 564994238 26781693 185215167 929027314 55504069 304097040 934608989 719892068 255336073 176305566 284969462 361217999 119078777 10299182 745919413 306093510 374033483 764083671 523366056 486761663 385992876 834104862 599561936 697402387 733807691 940096866 530402704 95187915 579341181 39992271 35154529 37591967 382686535 678381032 952708597 941141730 458406008 14651612 383549312 517108825 27655365 946625609 636242075 389424563 133927881 611617882 963008577 798926951 726722872 168720815 530104649 454077712 640474747 736653560 443423958 957692821 524988131 926000222 324996733 890187033 405299785 398679101 150096389 38022142 238301791 208575104 268596660 850893445 570622022 179538371 283979959 145048416 712721131 630620636 243806299 307718099 917165729 715101622 42026901 277863050 664469809 777641119 828464507 297281474 500349403 6210960 379565842 693213320 729349452 947234833 854492513 631592154 386584480 196227085 926403404 619572302 688599693 899962594 988189913 207655801 430344477 288549689 344736445 364391211 87865089 510355491 341728536 514355094 95744914 88926740 460817924 565605500 242745905 368102626 780687469 661901964 614736541 437246265 837288985 32889670 63812543 647857751 302984989 300779716 417142304 707503819 828838102 332363337 746569577 399508632 631150233 191422513 677075966 687666839 270517248 624890492 971134222 694806384 494480704 972082094 515991433 191535192 317636718 39132976 81335128 477628430 75176417 420732413 954234241 225900047 401177649 260136633 291845362 528364133 981085679 611032570 986286196 78477843 475257840 138246562 934990389 487821261 374194660 988063819 241085116 446443792 378091284 965116257 85193446 435798957 687737419 391344339 815621942 109016116 590801565 854884932 477883660 795940430 733041539 960653604 535285449 945308423 729905041 459707870 365351749 662516389 82423871 416509271 265016922 324388434 840594901 623399188 168993977 352593020 845167674 238854157 244450707 978321692 787871063 198990785 832921962 16738070 891610971 387845390 741388181 119735301 807167516 845859957 411872314 813958368 660509827 366042505 594396895 854933658 69357961 804967674 373536231 717729237 187935568 583457855 168884900 264134849 961199360 534292472 725847575 913990826 969712748 518436902 691297344 393353047 269509637 278976235 165361088 391228333 834925614 799500660 863711934 645965826 840001774 873283916 534592015 575048905 696624378 637723805 610836324 427019714 923770452 535188273 307421525 600163279 380171876 910960821 861006067 517504944 269422703 461074852 442010991 266709207 636904821 467430534 548830567 226259678 510209050 242054875 179030218 543705063 350147676 426885313 641740948 288422543 120725220 900618349 633730082 473795896 651859118 549591059 222021348 205004319 257701907 186763039 963157068 144108136 166859621 490038475 2385649 542671004 762865167 584168965 496939470 684498057 922741520 572343528 544999630 678740816 548844041 639824012 230762334 946687899 192457121 971818962 278493333 745028228 785527582 436273434 289535287 307708552 43398118 185904758 66087358 526127464 260765457 798663808 325374731 689413058 152243138 327123797 557058015 742284982 566307954 740887449 821851654 240252086 172718249 396366903 683106809 505756878 666391543 723055151 307285287 347110798 965880936 365628804 868604517 909501939 681065712 861440781 177739565 44303275 192790861 151210501 364164691 875348873 18279801 266012789 692332168 588578267 872325333 591675483 274288222 441830931 712894755 626199824 357058232 154447492 966362010 134184413 602047106 974450611 826856653 905425341 448778773 561135829 869115303 702049714 116535895 39439219 756119905 506187726 826638369 471581682 657994583 305845009 112081005 447676983 734824607 165013528 142831854 561343059 765071078 965930141 94349438 71843338 10839881 295851247 171580453 372296010 896783452 5127699 422346239 920706067 704818026 754309903 282725851 981682533 723364444 627148320 555673819 311032612 647107660 7093801 844679068 34969224 95517522 655146989 93263412 473233596 195193749 771072373 453161763 158336404 119831743 636979040 311914386 513615639 612097434 606531588 579259365 229880673 232086907 669421417 822601518 17987706 150668833 396601096 883671965 906084803 945467959 856977843 517733780 556655425 209879170 625006947 213880311 418007935 864685637 498322576 679844679 604268931 426446842 690822209 417968821 324882981 99998454 579036880 726664311 179511387 112493325 337830904 667756764 43353624 63817339 269207315 918246516 845520904 235773907 843315573 382629620 771409847 604199110 755044963 398042031 747225484 210462846 339628955 717055852 998548269 820123386 771311713 490960717 290345991 589862615 824573460 177844401 670848291 213197258 882705057 807024719 457370199 936674502 626733661 976892989 35818186 1216893 698366702 540310670 664354251 78706753 844924918 386750361 192917534 979821097 216407477 8502631 164084695 269847011 291377475 228381003 779292111 526581870 546302018 741327749 698750512 502269972 365283019 931310651 351587092 4249151 893273316 106709528 891288083 605094137 731049456 609086713 168335431 793920099 305361978 662214047 281955173 67798552 214929952 723404553 346702185 571969640 564607719 352753568 483448116 435122016 35953962 365941478 444306456 864078946 404634456 617196412 494253547 179622982 776282005 872042441 554618435 644920281 873676386 594145557 121881288 389624074 330217050 786520027 600342965 519581752 213249697 759021290 687082449 16369611 833813218 596537326 840347200 466831077 604266427 558527166 470826420 551898009 760958304 277327420 188822734 900305744 968645610 954431015 665899508 48208202 678779087 423118283 239865847 655766846 942631338 140195677 794520791 951807908 173483739 297216395 797662040 226674808 596861917 338756297 27329907 985955966 595234370 401477230 650126895 28015233 595774653 294563142 289704040 362686838 686801003 619046992 750762954 240952443 607777737 337833539 59663609 767510365 140422726 780697457 114077986 615502515 140978451 970808807 777458026 827633485 619025406 110955473 808836279 972998638 57563181 85001416 215322960 979220377 521647093 806435265 108665477 203040507 534752213 106770990 987553509 504487549 305393230 292045485 484927083 540878602 141939680 129347074 187885328 450584462 498788433 557341541 411002422 647580437 700033271 109594313 80842387 930144587 46585819 986150079 852095747 991645691 351858628 605142825 614477341 30075700 496047857 726512442 149081821 513464007 76880836 467240834 804698423 456423662 292867099 715338466 658226152 369762416 642453167 276864441 848399749 352451399 831787971 169771503 217560863 217216626 305069975 871714389 47001906 185783934 284893892 437159904 763280817 88756758 451220999 335310132 147605689 347683698 163896165 490626250 343396840 714152091 519089987 654227578 972372846 286888354 767813082 726194257 785801722 596181662 30854479 491559870 330974143 9670203 628349667 860639983 249404859 187207924 171697645 695961722 35025653 374528763 366991754 135784459 198275951 461287911 260584802 993530461 255589428 768820806 550948904 937144458 738016044 217000146 597826404 631791544 9475210 656270148 786474680 46700759 360109668 133438638 112771060 79079798 87770654 248164602 431502797 196475125 644716864 70017215 123468205 332498920 520456481 41031042 180124647 205213170 348301474 559324421 136397192 694931549 390441650 684680389 204251357 431761967 103545932 873118100 361158074 180920925 46036362 911864564 909194484 406376190 700806393 294607794 217933684 229662541 197477829 402544350 490573511 209985547 176166114 957410239 359027893 584051134 846240905 926726414 483652832 513316300 442224502 934866418 466307303 403040348 144740828 348616909 656081768 433721462 258247390 201894855 522921139 244691605 425378191 269693389 488900914 759220146 628558364 461676339 18487902 62898892 115617459 369665456 355180597 960509368 783248119 924721880 335831519 257328468 929606462 650072028 523892031 383950942 317271254 971013124 428499376 603042886 900188723 417663852 879560804 883865744 33378428 697001208 983852138 939075863 931747946 229768538 164283403 289380235 300469690 101912722 253557595 454205859 544139427 464656237 526143820 444629486 114951660 884415483 161225649 800956502 273567973 439738416 882935530 250026457 260624138 237306457 195712463 1538682 825833898 302853672 891367771 592620274 619337613 368461289 731471678 102155801 86863650 459522613 715189046 631755785 765467207 909361180 530082453 643031149 697106163 263500928 799218777 58478920 100165480 876714913 229536026 453148416 273468665 270690546 425333202 885058646 443609541 359992230 70792040 30531816 488997461 627092190 308576428 33899575 652665127 313102337 696996713 800758662 226574559 572798297 497793865 499666201 621828188 52867175 731921642 280281978 712148546 982474663 729209480 213230584 470168263 171260190 113402139 524431696 919162652 501670887 839752888 335551330 54917388 869530787 253943919 849959631 421525348 853261044 478594592 918379727 793567399 411039474 237390389 863795835 179693379 547798890 571213442 653347171 274080104 516438248 985070720 807353135 701899693 339727550 256512310 344639019 873041565 478554365 460389103 548400274 787987101 827639518 677405806 498501599 232770224 851664243 48063973 262719601 339225104 76977214 145457920 984412111 996698015 474105767 124824154 877578040 554855247 233737597 142144054 574300600 781094055 768437287 173874024 907236009 708090988 75080569 532461394 880981302 52422845 17927557 114400526 479633966 190847233 682106099 266228835 100411973 666027043 713749241 116686397 502735697 36814049 548876900 66925794 849975832 384661141 139965453 882467466 990602198 364655872 382174718 896028185 909183331 108629680 982562064 866029180 570628460 984399177 581816085 616920590 713804395 38948648 914242514 579743705 724538966 964849008 777496153 345442890 422044884 645356396 315867916 257482203 661220782 962569343 431406031 419631105 230571502 765875821 130833971 607464957 839800432 210972041 198010959 803478652 811857290 856753106 787425071 345334205 596240376 615375332 746079250 959728722 611119474 532256289 944903599 690304858 495774649 712454556 895863098 232002980 260959624 505186151 240109042 745141912 436182477 679914241 587154127 250927047 724749844 463657994 255567259 689557040 983718245 392171562 666741040 629836329 181943807 721695574 422013226 568612406 310470234 624632571 192723288 23432978 259809595 554569791 82679381 358902579 385565023 221936039 169867769 930029160 883441482 428409641 15178631 812220646 715683174 938349833 277194716 66372671 934903538 957748843 199880760 479065168 494467544 609772608 214876715 803365227 570723868 640806412 870895247 953992198 504351000 986509431 703361433 482799725 58986140 816949219 443267171 970737225 334076055 922255074 521916561 479805876 587020074 584255909 307262780 173801666 28723208 339644963 853115636 128306003 840357710 719040803 168275643 979569866 353429216 838937322 752152143 216363040 149842964 568620639 57048018 808509452 384371208 842867426 179712634 611474537 872423870 530013267 984384785 532713435 682349916 825243302 578362829 277308066 466612282 374410480 235657821 801613607 717037001 208226932 241142779 315676384 875259266 192866769 589173386 302148672 927074676 992881154 84997006 913349352 364283469 165068606 863883226 578316678 826059498 135330428 659023071 408518554 151209428 161106718 349578990 201809043 769229821 213573057 678375053 498968803 744462994 882439212 873825709 932451363 483141266 608376629 384852624 210822390 227027442 519138100 146197587 572227142 525474504 106144426 490386339 778426758 555121716 742966448 786960859 245250218 931570218 560155838 93603950 489658030 697199789 995734175 232762576 801866902 193210072 551526198 799382334 108262459 57688024 961541450 846858264 439813146 865320019 754358519 54896692 200583729 622288270 832779822 448785150 853918448 544987165 618725564 492417246 85459491 311365883 992564846 183325349 131823711 26173643 687686998 160234100 28456356 810699841 784221392 316873917 400458542 699037880 875959412 838839091 12692058 299667495 630572004 16136374 948874798 782661805 104966381 549720402 170009509 918040932 309959791 630694547 667508832 760954875 503862048 168966291 140644567 136970970 250080321 511211890 553423880 59789684 890262164 512874247 606110424 522675458 104582624 907062148 401569026 327191727 402882028 830460939 317672778 979734818 332185529 781204501 689349107 306249229 400179884 381686703 242008126 520285229 964894047 438773389 968681592 554351226 800539630 701908669 188187840 680352259 594808353 544816835 642518015 996584574 689795597 86714422 171682099 410319761 351510187 152143090 495947723 982867341 258912740 506680696 938607710 925857728 534478134 615579622 562760136 775592683 356190822 965493032 901465537 526638590 309791436 800784432 261438675 248253202 641189255 740421502 293112187 699651770 760130504 301659597 862015379 520732989 681939059 311245798 668555004 694295219 96574431 980060707 119226587 403563551 555935008 246151935 733528912 177857914 48769640 104457011 637492293 329097723 525875009 46718781 837312276 465835918 262029341 848978636 253230136 793440278 958188208 260395290 4174505 782306524 377029617 995613998 70532371 89563837 118345695 803964518 823602749 735585638 422973645 709704174 580049154 414207991 752913474 316397992 454889357 847688141 443746998 170403643 575938024 833339948 934315332 351820348 60762271 24299545 950055300 15986446 518450192 703237735 625795480 710238128 868970419 927433297 744709528 817499329 743963221 288554786 551997969 788065025 920548882 161338578 49152090 764331261 632682390 272555652 672908492 924709398 669411978 64512106 693416107 992560558 475940763 340608525 796551380 113391745 625981725 111244900 788888143 229989063 579440247 456466667 725914031 435551545 64128509 557576391 550143917 565398230 417510662 116678605 50439175 70184475 958525178 440028546 662306259 599809010 582517496 552344521 431790969 974287671 985503247 642152286 611568131 621374289 539533976 848633615 61864602 826243871 880883968 530810044 125165531 874163221 818530150 92997530 430442616 572311436 92527606 467892025 577874608 819048399 490676328 944405162 297872773 569293474 105554801 142655279 738258022 846294616 190312120 242581849 752215471 613206925 627222919 515103046 37772273 38305150 883642157 797472359 442521007 509719466 868219339 896799620 687322858 43210696 712772940 895861239 517609706 914240442 114847967 131403366 416507362 441807738 143391546 831204727 43890122 275640275 189157969 265439730 15035309 715587052 716584958 941260122 342607281 623668184 367207506 891435618 539522600 481948824 906590485 601368515 871774460 845280571 67593206 137619307 974439866 850031776 921172893 735014773 150032726 140054351 603203615 187415502 112310330 331676398 560218128 127365765 952731776 955058419 492237087 167674101 552138490 954066919 261507816 654447519 825106656 798736196 645686239 94256472 576703134 840164679 322077986 460563351 863610167 536515761 679087920 983815681 479586715 608385315 586462642 879187385 294825730 81152086 544189744 834654004 600460191 878298939 264091827 794144356 222723737 853716530 276519156 117328379 125521850 537338708 928796960 605452174 967767325 85874114 281398279 699226461 741642308 951463178 210479943 392176632 488371499 136189145 588535884 98012047 573960851 293591808 931509695 897000844 259775157 494616956 919269347 927056832 191848717 415936974 504555698 316858352 789740463 750089381 62959340 825837814 414550111 704636247 846352615 249270045 423503169 181440802 51336829 715438785 486228509 715022281 674952959 536061348 215076653 114605335 881411227 976412261 72396118 557197809 577523396 103575041 589509237 278004847 478920504 121925854 738371463 856401388 420392551 745351595 602827667 328629081 619195546 233268747 536354436 243429965 837964417 639670721 39527799 700033729 998408179 942236000 734954449 313930573 311153654 160190804 516464650 27843544 621981344 643188341 313583620 683702385 780704424 101241604 135552727 275039631 13449686 973388857 475683143 170332562 750967685 591153852 813184518 670183947 807584598 69041961 173565179 335118790 641750460 30786067 168892419 751339201 316947932 31360527 746683790 770161168 380862910 258436107 259629317 854847052 631737953 445242960 483418620 357119676 308036133 336610704 832169566 498399316 161087420 168139637 731644888 44084389 549153512 156107733 667318135 183661244 918589117 264304915 980002736 391369622 898055369 596839278 512696793 233279406 764022102 711428116 384260810 87428234 663334530 784823415 772761314 360665433 250887536 798261362 788632950 837961879 927538872 771107937 564419274 1377890 137420993 229524358 241403881 137006709 984953447 848055830 872401592 649469556 623006315 479521972 668028830 818672336 330676910 722892651 988634259 89750559 395053317 943978858 580810073 341165660 236136346 113325108 541342040 160239282 562641069 807866222 622968231 326856380 284241943 237154237 176031738 38043621 94937552 913813458 114238179 307333379 520995526 517762961 675664734 912058655 234373182 501485833 326154645 79318066 28976349 650678041 616455300 778273856 465598631 389502213 178292781 753073277 776161833 555267748 963923330 493617882 133737744 646391198 869350448 98534308 601432107 483414573 344565667 682536728 131078293 240521003 629438813 185730640 27130450 70381028 227732844 634416173 856834083 260980459 363945164 170894920 257794120 395050335 176147026 621495269 407257791 614454393 705812355 340752299 930937378 857349025 424426033 733403988 887312911 415422562 62287921 431645219 332173532 855062729 123037905 52081537 375080242 278437695 313378096 860005093 245590120 741233787 229745987 928744808 75750017 872353137 212271985 256382622 574335388 525222349 80482330 958526394 824421757 175167713 676158593 104772862 371074870 773020011 75272453 402074901 106974353 900176290 756840099 884610242 884854005 500136138 746879080 12189516 764578716 574229879 519945188 598797587 825220469 126949770 12001338 365400155 56948969 160590717 287342268 225941138 646170068 931080835 359661115 209676153 992105104 630623635 733115612 494230950 631860626 9234186 187820553 208771672 626556572 328209060 24044561 672715554 459583955 1034338 744135976 90952426 492022879 843000815 384916358 623435314 388676546 679994415 526110908 548283714 862737752 720268046 765721624 70964895 760922337 651313355 495512303 584351898 488214932 997062577 15607226 144236421 501260216 131501014 875849158 802521729 344496969 883102962 672620588 962914762 550176732 270987372 555515002 736886651 461323131 903048977 51359768 315142041 801782289 68125285 262653132 294062373 782907116 546277699 812763480 308553745 839033254 986465653 326828143 491181540 275804101 604112389 224686958 427731177 434791325 911237679 886137694 199605897 883943206 376656137 112671003 426909309 634005461 984356334 581649592 482728779 238281519 298008255 807383669 366112294 999039901 156197699 368926920 671561037 461030413 437457348 354851489 808716096 876019968 598165855 50893025 913672648 921219659 522822339 188313881 423600368 944312059 831222281 77339213 239046078 167867222 891841763 377288534 268826448 400711722 896892396 878454564 438707692 564981685 221793362 500653788 445363010 474054672 975401284 394831670 648175969 155022174 76356662 291802367 747773213 381268943 729333519 333849128 422794039 172425577 70861988 968613554 140410636 461168307 674832641 96059765 652394817 578507125 321649737 81434695 39190340 812217778 575705177 834136406 219118888 424895865 766467758 822871851 979101349 337069933 288558251 273114770 893365463 214675485 19479896 582276758 958072711 277590948 14311741 989657569 1832804 396505143 378713013 994346298 21384038 65519836 289851557 178650456 570738442 921859171 370357947 999318232 812087284 73927428 721935470 314506539 955365465 121576290 640354570 597541120 260572854 881064718 335097913 994995435 699738705 978736221 370448074 876671230 413470783 475432611 233396889 514807162 356165131 5781330 324352042 274428198 259369054 682973606 744962637 278010200 546559297 435851768 488894774 537647987 334611292 704113963 632541990 85128223 844225435 572483836 222257950 734171919 664322599 512877894 180479359 667003109 492473988 883742037 118520266 680646139 207198339 810741144 982995911 225273669 142728039 113450020 508813145 726428801 667470315 528108248 149833528 609611600 729848092 771635226 840608441 667826280 3201917 200100811 558897833 669542998 16832417 899186072 418777487 434540920 237415878 510197051 432193304 698240620 665651288 981371599 971316312 53569462 418229159 780454808 813741269 494467976 844413304 620798537 661432892 130652188 192348148 173583504 609720305 516615304 981120139 121654551 418452803 40140794 536597234 636156519 917755803 511288558 785765403 137917793 988185615 94330252 152934348 528255690 434772036 506583973 977382277 207556879 584114414 628460662 52270446 635222724 341717510 566172322 413479177 321505278 726585257 589047478 852761054 107637802 171124709 782924948 465783313 341591770 341059923 843871650 172037148 971077463 715732030 678837740 956996741 126091396 879843769 403150906 564207902 252452615 161795398 599451513 883135044 410236650 543569169 879318491 279300664 42652535 705970965 848400115 986834281 787132475 790247646 970618329 175370591 427422240 164136142 519802373 295256542 601693894 213309546 192473625 789682034 29585438 471716512 695295175 85745965 431461738 480668198 310090927 611533664 86881054 46407833 337262858 846607175 635303540 157556576 707077769 641683719 880011170 576555699 758034531 608995540 892785206 30453213 255267593 423851351 79018052 96895541 827364379 873432376 30149749 361912569 671348197 524852490 23045604 736047468 541978475 303506439 877417308 464669362 171899706 868271621 855063839 694498496 372162806 298143755 686948852 598200243 760011905 739070435 308672635 201553768 235744074 458150187 143466340 605778078 383237765 862221235 603543630 368076941 670892657 791463164 593949909 316882544 340589212 408466920 142140912 37885056 313392355 193384228 845799508 492117331 641363770 313890876 827455673 743342724 24625444 800576796 356988196 400072227 681125466 698236400 68584108 566995116 693326256 2727778 909546294 122081347 246914847 771959463 434022000 310583783 887377596 508407620 695178673 74223432 231666895 522735908 379042250 335683346 350641814 857497650 440272786 655559038 656319133 177112730 953258240 685580050 35850531 138895331 690988110 348962755 842225504 411195017 662859321 901195653 43362185 493953323 679713074 161579263 61083484 512044783 580463470 960230263 131151008 555916132 483659354 459555311 47059055 430127724 279682615 918416135 993169731 652643480 71898429 71727778 48843301 877269898 342235936 3440007 288968465 570672775 9785715 898613319 487845145 12696482 574370483 917421253 799692913 589635649 78914100 825679934 224301835 828429848 343119006 544116802 869221022 125125278 190831035 54707212 44074392 18098050 674218028 393574306 398180676 437042934 238361451 849900388 589032321 886629558 925359325 562472650 383565347 635738927 584726734 434644307 301238759 24878838 237574663 541928290 683496861 294499113 614964751 786693666 3790087 98794137 414732820 242114065 688209791 673618604 765097328 277042595 439620031 149203628 497913199 982181680 705000462 645947957 944136920 786632051 10641360 270027820 121986151 228828099 674175681 220632303 660498690 311730470 336453970 512193355 22201725 868807925 308920356 165125523 240927089 496675287 869497090 799900678 570591171 105433823 74154835 28490167 803093340 529756094 795888357 705172393 612987020 456847990 901700112 501885788 767822991 747127229 587560348 407370850 730969405 303063385 900820883 247063447 210418492 334972583 618998531 726189688 898165793 877338754 994548935 220599970 179655934 455369560 21741963 879660883 244045893 557981461 775933408 637299761 988016318 419860550 180441649 76465634 808784023 434681272 239570864 188286111 589406683 580915682 355509254 448444599 35279890 493569704 869078595 881048033 33204202 693791922 777812170 438240533 471115884 639834223 73764717 729881140 380322765 666104554 258608298 193540839 343372362 104363722 310706269 543763438 700714130 536979129 669536279 396162278 514531104 225713614 247488121 718970478 849226912 831530026 445125273 773193145 519942557 14509148 446843483 103721749 880012887 388063100 538042850 936408325 616095592 587432922 42671027 141956357 494961358 859713229 407019108 296659496 941325101 930534557 839740066 789796652 667180417 200606834 879944682 371515751 189672634 543356407 465235574 541894951 50179279 52342666 647120238 114426088 653505842 260966846 102529273 870982665 32909949 618101957 77273472 447571530 109841621 732613310 423409023 319495748 454209790 285450576 390611157 322382292 256551189 602767676 458655394 980944600 182580128 186897905 356064287 245333566 503320331 690375885 122341916 732027818 700584491 227365706 248805307 501599587 728856464 401270449 435570832 321071503 986717344 33543012 113800546 745739080 884479121 730506913 272361808 542591241 27246668 334246223 862536566 657572114 955261776 705804924 295646657 938917883 262147026 921510757 91068636 827151370 146162019 543151894 110000076 692138104 680461276 219600380 478977580 316181148 356583514 197425970 556301612 363631227 134771878 944315104 919745070 715469958 232356134 432776007 473430881 326843960 142550913 349850677 943103183 759306506 824507661 185718277 717331780 744735967 79656625 525936740 853637851 234440324 742967413 808738128 728517863 451810652 382389072 706008542 20717772 417959569 162260588 223817693 552439823 292160947 32173231 402088060 425220857 775968751 739331000 383998800 601217415 967936728 64349306 263975494 66820671 694872281 700396691 134294586 827761169 459797882 857690403 553485667 937052747 517565232 259744245 855930401 114117100 211623803 778259204 836098446 849292885 580727916 463034606 841994621 727930935 713003402 415874657 733796611 507542267 196594019 696368986 55449384 674222505 135334561 732223671 512830440 788188640 891829885 291728159 397293428 240126803 305726664 703459507 562706852 158233550 164792009 697991741 636368247 185982072 497362051 223670382 337776651 781338417 113658441 952660390 989826020 653216287 827121970 998810180 864954204 271621280 167304177 649360972 642647259 337010188 918215427 367694081 260785759 267781215 734938146 631542481 781447087 707914407 312071766 386637646 638726486 7112447 271465034 436862705 132861750 894561220 99236759 628861467 285275473 812189959 955480797 463379938 570574435 38571379 230562850 745061951 710505747 192645111 538875187 783028408 681138255 324688804 650542062 919956066 315807676 149534461 917747386 870532290 569265997 744267599 20497472 178508061 672401226 797641377 128879594 943861666 681049809 560700930 82092060 628870235 680372610 147125086 92170301 872467311 44748258 347791119 91064563 406176624 298098001 414319148 166955978 774901171 16319717 778019885 688425828 372722661 668001645 432814174 685232291 876156103 390317640 954039300 252472249 743310957 842030369 315909581 587305092 768570117 592085672 596952858 361212689 673825660 268212565 742615264 357425631 588329622 218922810 795146119 845665481 491847897 627133313 149168470 228226955 556942846 480936265 966641699 765824877 75631627 354705135 694541490 757144312 536038969 139658996 183542890 823457103 381299956 147554771 513297770 954785743 84372067 918987188 128420234 936891034 209719768 247933998 359708631 102431189 769123523 832304066 621841836 589507119 615779425 525299212 402986981 156912446 648285145 56858502 369543831 281337665 102580712 405899277 829564066 851122990 780204089 626599356 486123342 245958335 364108228 657643235 742522168 927784547 206765125 435982154 622299887 95017861 868795890 139501482 275114280 302501627 172620948 18707691 224202153 195515208 489211711 837031078 927544378 676672194 633490812 668388637 356229826 600522228 311945388 611897395 612469666 619852051 172752599 608562928 677073446 108305527 438659132 349096969 939311172 350499277 359364426 41274943 785237817 731083078 193969742 285470660 594971148 53510420 421761310 680504085 76103250 277811774 60397165 95313689 611670377 883862519 438993376 412507487 22365628 544770829 693808975 230389224 856473733 971707420 157600222 596636795 751046650 366949200 408108544 818049087 663958180 599423059 750144759 154783511 686407992 616848396 999052813 296524211 981983125 297835572 286961577 746693066 684439499 929586173 793901085 595796091 894294046 895740174 237650287 825344045 709979333 318424054 591766277 379843890 605910839 831081657 591792655 432177021 706872394 641716273 331460764 361985556 891031811 58641252 288515355 58709295 340182257 818719948 144699370 284611361 322224306 855014209 562375190 655035183 865830157 945935148 359729640 405870648 369999271 747234850 62309447 72453413 612609267 289190313 88367833 683817769 170372686 874624368 759995742 188661319 468700592 810430982 264385095 715572203 317479801 106967441 28254941 721172124 182841695 148881337 738430188 233540357 487528486 172243962 453347194 963689374 481145440 908507718 116051243 551009560 718819200 550878700 328257007 121666077 842573763 456627400 152365779 911628618 914431892 380328320 309739519 733153423 488371206 861516900 500306801 905376244 390494185 210030953 621840130 182647872 103628091 379500430 8414914 465784591 860447032 105849054 457887744 48233004 443116249 449638196 527799852 401295151 211158211 484382729 53491294 491182341 662736552 59801698 289693414 235648295 674926823 494343930 622436346 62591297 563192365 617672288 142825943 534921681 955837286 962869772 181639475 857406160 495816095 109491412 991798691 15060483 639111325 442267460 691136488 313420485 116659589 122844213 395477457 701631675 195503125 237037445 9403989 909023010 306136758 142335667 945781147 234720139 889088504 340243847 299963472 72893598 973602952 496604376 160854476 804114586 352158674 625668187 811541552 538353190 765825187 236575252 178946236 947221948 361044264 507213075 452241746 234499387 78231045 962058963 683231984 95491511 172877961 263500974 355031438 621357018 833206516 798532327 159820955 655425861 703460900 255961055 741009145 56926227 866727366 747255663 167531222 792845555 511495242 304109113 842819039 281321313 892856011 536449049 431519737 346830824 795817512 141814666 55981913 867460531 632253266 735251143 672194644 504509979 943789509 191538212 514495724 761099820 306033500 453388010 935509874 891444045 154498996 36999701 369907732 722043151 271392247 206724868 977263252 689063025 819081116 635034211 648042095 395649011 287755119 126049650 122884825 536256561 890666669 805794648 934656134 862284549 264077425 846622624 393298229 280933245 68871941 853269003 920174136 535284414 356016215 689042267 831209433 554685845 105484666 982626882 158406046 775000622 35556829 64963122 969240571 126012805 437211489 84212081 619715061 324257505 121721018 430647656 548512806 601150705 485782864 414899610 385753627 228027314 653645449 877500674 980235364 429631969 95836002 135422808 427006422 329156062 16592715 168729279 647258250 549479264 832236862 720003046 135850033 341812173 315572602 871379384 37935578 277569850 207048790 619799361 336355817 138639529 445212188 179638638 234424971 87869985 13728861 81088000 958610189 754408315 119299459 203177995 166613685 205563900 654053644 541879322 756778929 828418318 819233894 244963399 936731477 16853866 354400034 364405215 241594244 771812443 520292684 273388931 554881326 913929887 797292437 457821628 460638977 253785398 507824027 234203607 786132232 58922714 839279724 765723132 699485910 477459358 193330200 914006531 641326645 795638164 502120998 570732396 144562197 595836157 924114015 342796437 803291106 870113374 553636578 833793039 984259820 712793592 38487638 392493954 492890600 3377522 833077749 394274353 703042052 246089845 947661749 508089 759126606 755269719 519790773 362369156 49327294 286842149 293084437 799111050 540157829 990998128 830641339 376521181 12401366 92427509 970884562 931425705 652147164 70428686 378723385 383840822 936568358 448773809 314028546 497821599 267985078 212501460 544211060 880724147 824077835 753983856 59926797 195375051 55561385 895416239 909684134 476574515 470240802 621102080 646207377 774105272 651479681 891779269 116244930 792862619 689151246 138701583 608550851 908947016 245435877 619336790 265080351 815058447 315682016 526466719 742295197 238168759 205454981 217402895 620760908 916676898 770209601 46059008 883003505 150009497 201851502 768833871 671228587 572506044 8155879 752487361 806597383 260652478 4942523 116090568 288479789 106162271 232635312 471565164 469657812 468842593 406521246 842355824 877430872 43535694 761374915 938853834 533775346 843672267 760621395 630209992 742662375 354097964 902260467 690998144 800987887 39589321 715415989 414584777 498152475 746443464 439188537 117317811 565896940 350232459 661048825 379668890 57507303 820011282 277400574 516974125 39311799 764453452 523560769 969891396 489220132 368789027 519597713 162345006 700927849 512167681 454216701 124186089 532041918 739997416 995948823 950526079 426663004 267406834 156754246 26051384 455012076 331616187 714384838 807742400 331832906 806445639 985911602 63508976 352603597 805167480 382884963 180122210 782166612 795543328 547346269 683147235 260536375 765516859 207833723 4362402 725986844 29071842 783197131 935872803 493044183 41760912 268992315 200116009 879844032 442461595 150603639 705704415 906308402 648494027 483049142 561297704 542150042 376203960 702542146 511662962 275659138 854339276 731676199 730248476 414150486 748259185 540267524 75513227 105054203 693779674 604130854 124460693 669669107 165842415 626989722 639016102 730931305 485948155 850419712 9347380 881620545 184582917 696869487 52755100 642052607 505058371 959263273 800018214 968514218 332792649 64193260 396765445 233744555 18886963 620002078 70675586 446887239 498001214 100188452 674438315 374790655 896639092 49387915 240480764 117434489 670244594 537503047 742541177 571932300 165963718 79536594 67695699 778143241 584641267 878695412 585488226 362950285 908336031 497338934 781822743 425653649 704155335 936799991 326259465 877487098 777795494 531034310 35648785 762303420 989916081 281678438 572768228 412863038 506452379 922263126 332315959 409941123 264056757 711411836 591322603 42985610 241379210 965855744 579772398 344935070 291797992 456762580 874877282 569095542 805102451 280384854 885175541 17215357 8709214 2162687 59498622 202286272 554794758 41811668 433303612 734685065 502699469 35086453 608509782 851419345 901812973 110118217 772293011 948784316 607737033 511303520 147714239 338021411 203355105 527986990 176774314 938360681 581258102 823909770 571185857 27486137 220136105 181087821 742841725 337594301 787098696 462775636 330280668 874469939 945437829 523117029 135169630 889109871 719465776 904277977 919171132 229866432 913113859 63302807 510877408 81408252 102174372 428958915 857227022 971129056 798822758 606454955 129277305 544290045 846157098 147306311 685505565 209399697 636370549 214721430 866409922 258400471 133250669 334360456 554697347 922426215 706003713 280949877 853955374 288558978 957554852 628320848 404202273 994649335 9501420 804607212 903178595 466164239 359854184 435393791 467287262 527667684 140257090 622471113 8799586 545591719 540641690 107867726 200437053 989089576 640903809 122562290 234329099 30653185 427181313 746611728 610996695 855080850 295597720 736146991 209765905 372154140 447647923 385162287 39144598 696155598 638531820 483490699 838198093 546749597 484218469 662392864 548935593 225353190 639345543 476274763 518579787 224134995 766350794 552267232 205483741 494702869 447950814 841427455 249435976 274185042 180253852 769202959 389844579 777531224 250960167 632924208 306351861 4419983 848764937 276895931 583340476 838094489 570174851 812370891 682430125 145820160 917856648 604697133 239179655 890418176 112546261 154210957 809097715 302271002 952824782 228903835 869685223 802629408 374132705 853209020 707431193 129482011 347543059 750532498 786161776 49010504 703822747 801815399 2327880 449138535 37316757 396541266 889787799 638790286 289580223 660513376 958986246 402914294 972855527 709442547 324103481 973164834 455053264 241885469 304050580 19911175 509024310 53648150 72854587 146034299 455821008 167603081 264380181 120068918 566178221 852690093 944916623 459408918 537258376 656603931 628558301 243484418 402314247 712643383 520953820 386896865 229472049 786669325 303739575 639316642 850467445 955264753 338295360 267502593 320921885 145465168 971649838 88276676 751511714 902400622 282897450 59902845 845341313 263549830 5106075 51620680 539774085 195618871 876832670 885149456 701581286 65050082 192242811 214671436 721469539 433931477 304134645 686211847 944305065 555670512 206947292 22899139 368142563 588682549 157780502 107217204 322318161 26392725 373000963 271774577 422477089 972546348 424092156 579207001 985245244 392120770 118764817 614684116 89318404 553001560 893463054 336101891 884377642 785234420 867709310 368661268 327096252 975030594 613367880 228740077 622842499 903975989 608182775 799953952 821208776 522978806 378944315 19762517 863950218 50436753 589885161 392094052 170995319 70651511 484722187 465624467 201636538 997318416 931395868 94993406 434813626 979931204 228977545 847862870 806229354 654419485 294208081 785007075 873256633 95416280 265789346 339286933 979364315 565147099 110872735 207590483 967785885 751550961 106505152 240509647 412421321 501543945 9746299 584301809 853394779 449655997 935358856 653150213 526292414 950403303 443231432 261805347 538830378 295943032 530296920 597786745 911520869 242778298 494849441 252317423 781290018 198625844 326318110 884200995 266552000 505720079 624124474 242389999 471300042 274961113 715973609 186109259 692978077 101578157 494490935 823551945 412674063 303282373 816870820 229714036 337923169 823482979 571713173 38617854 411257690 397406283 242064576 968030489 536971082 965738440 146353035 606314191 251346264 282781225 987800284 118793581 905267543 478187985 752507172 382105489 468708985 437723893 518548801 940483867 52469050 743882595 656736997 296316126 267780739 533169235 503238772 209840418 427326850 351229771 294732732 657246643 63965973 161183278 11518332 533077361 83722834 965712213 724453192 840224060 791295218 568107148 685159807 350030711 421236678 833496098 614405589 100368491 688595013 701467270 880084581 539394881 324217956 447890105 602852494 815150007 372760565 91495389 24029793 914762195 482033036 12422983 618357286 764562364 17417692 287208089 647025732 184553954 631893208 824611037 426648209 26661420 933549130 429256992 14981790 773794465 526657704 477250791 112608810 143087684 525570931 865138282 225874676 833484752 343113258 666447588 590812029 182731029 960410028 63330768 53731194 154064348 737571250 263746457 851183145 486311318 121308592 557094830 686611585 224512746 928698000 686706622 533220576 375987671 47696433 954909526 700179509 182386835 255275632 610503632 568171880 487196592 964986275 753111011 903326911 963785780 656794441 549863860 983862158 536635622 162711743 685320994 741898716 653139372 206148255 403045188 520674721 176980012 179435015 814526691 617130362 207948064 493912663 221420820 516640041 891332051 749680458 784758315 647084221 60774136 585784890 122331935 37941975 188747812 718077244 61222573 190822835 880110814 424254189 704841021 371961038 505085635 136497613 714880210 467778435 177431491 348013845 625685774 454293269 717636100 999366036 56618198 834784822 753766808 476839500 786287065 627690685 267591668 103461312 244260160 51863997 400592262 750068500 653412483 208773189 991736195 769118402 529621015 589378742 700892196 304502924 594284208 873212796 699437569 871176893 660795486 864975218 996785319 333609870 967148886 584658791 356748620 934140374 862245218 667712066 768592420 745786867 198117622 922049077 184196833 659210335 41327231 468951822 770171729 612676683 67551669 926163821 395807890 188222823 265130964 221591314 354576948 74572563 563727450 553678264 264304123 971478345 439928506 476854342 374997126 400609174 63458393 720660263 340556717 424593635 792133972 669378761 827925266 665079242 799645563 494479009 665404489 236782093 214882209 700085442 296392031 540858693 595756486 165318808 634228420 800278412 534400834 534801140 938527368 73110290 457355397 23473593 939572843 420074407 112189863 586221825 268791100 221398188 417468258 199792536 153105349 169391203 426430335 871197291 50256067 895117457 810896197 277048512 494792042 253673977 723092273 976363391 828141909 568707655 69866702 123315616 627203039 368963653 196577974 731583845 707876401 496273110 930610440 827057492 382075781 249489551 772014236 422866888 490035843 269500131 513801392 628983163 466523742 46695654 960314734 258683109 106875604 187408471 338645878 937908154 403400283 718861476 93777370 379428192 297099835 472598447 63022657 9907145 345525260 551344302 708246787 353831966 43681525 921617986 745818154 733557317 909484892 399637756 5818883 459803089 115047666 215539752 916659207 338840840 267619592 963043824 163445563 510414938 698072495 878560755 755752690 270362963 373047953 939512094 410022146 503427685 271682828 898172325 6690900 704169525 857889185 146129869 567912637 94684168 689318092 177495923 97957792 102612368 103373387 183307789 360535168 322313963 701216395 49832129 250200591 227691800 883294293 700110670 510916130 777297227 128247764 503421589 792108346 295398894 307736717 267862975 42556556 686945627 935340585 751052925 302190644 263670143 845927584 853863827 55543356 377376594 729915612 457917243 629914382 600003016 811373621 926837178 247785446 131372468 844766995 900893659 841731921 233291469 352339443 948388599 34699429 996564946 665368323 902547975 569315242 859347877 484538883 429332513 699333118 231569988 778216301 158710296 784132091 168332625 911496827 650997488 313324439 595348461 920898188 309129476 646067361 212684817 391848140 694906623 595403596 767097827 801382248 728837321 336500213 710929485 960645515 671065181 826974485 98307572 69453991 493380887 277366694 656709141 767891464 970730256 424579522 252009600 819670768 858570287 513901585 718453480 896695022 28454488 205485609 491919977 783933982 569561496 643222296 347612663 852200938 87438796 597658674 659365941 680979598 590672941 720312683 303407284 82315450 106601843 792411667 467482925 966698116 54116341 833783656 587053357 291391433 874694421 113113448 708405298 586264404 433728071 492578083 48585264 267193027 615492046 643120921 574489112 171120731 870419455 788754347 562001003 311149594 741510836 78981006 587304715 304104417 623220056 286504186 274548607 562938830 822843595 324137174 794519802 570536834 235398247 96274891 616210905 630860313 353009634 317976010 702760916 709860615 224967656 373584264 718591022 854609591 653696601 313034693 428699516 656237370 43323042 483496176 83339448 138924582 590291528 675664637 924513817 693745587 387191739 396298073 174395291 244103348 331292518 423514105 486300157 413120159 69724654 839210571 873648592 1003823 686581355 394869648 251418279 937553995 565363784 341195762 310046778 132036221 490483965 328554807 943732206 789868208 53263389 570653477 686871579 190940832 996820048 671157605 970291002 133216098 520037407 623340410 642890723 853897041 374599857 64626564 261807635 735165382 985679528 155457092 92086086 521040451 744992183 396356084 84472970 651981418 770975851 137204768 606581035 285248478 675715733 27252309 173722887 253023247 466010057 383219920 637458013 832471526 79361521 986717636 27346077 924308209 941713096 752454379 412870616 343438261 630362541 179672939 27109834 559370546 437603659 507488157 833281106 149998405 353637206 386713544 262430171 765638565 69431901 390377996 267914556 979666897 951776950 634548807 910333958 495142424 437097965 813494391 666603534 595694413 646965692 186160766 226096391 172019710 918249752 840938563 642198511 763007139 42860189 137743933 896622884 286867340 176589842 978308650 82477758 711549579 261394007 728834143 76222518 463883953 114333550 344127719 704242173 426633544 480144071 743702078 467677465 966294852 184026830 724246110 296938184 288169576 682415092 457476194 888794361 55015217 96414102 25299778 486011305 525528326 326411774 451861219 878863825 470936896 725208153 960283724 29827628 817648289 885507206 960927309 635973779 645425758 869212016 954192391 694881204 626994300 745446931 472876205 596043583 829414971 606050941 445929024 437671906 371510213 577629995 5816108 180884605 421658931 337439724 819342970 334306687 892991775 731278787 723206776 868530307 351337683 324511678 375469289 309974470 109580905 257532639 345729752 761020733 605340600 216449802 244965343 521779432 746333241 748155362 675880617 537751832 932169756 337424663 603365187 531081939 611553073 365045570 454621813 497710080 86044943 978771819 374289973 757613623 925099479 174494113 499436907 622115725 637354079 159101231 52712898 296175186 595249596 754550487 851469188 316521743 493340192 677842165 508852064 622212013 633709839 102276165 100845565 574538629 310428738 226008757 572506825 994978954 763813856 92274682 270837918 307369696 319834858 155092753 266038553 721937654 761792721 997658861 730017002 400610317 307022987 160736589 509224068 19945901 380831222 959590754 99483481 561989560 874357168 724485380 936822136 522099491 611946700 813321019 890466661 249659879 252071191 171079408 988008916 929875582 995185113 455171586 637741583 27727699 900305903 602403456 925799211 727333810 6622503 383302509 213556587 797289735 806795387 378716487 921686731 928923510 67465338 184245472 103342545 157696363 330218035 813268488 873004641 303906868 974861304 523882926 940680074 975811123 925825305 667908587 329120348 601465150 755425032 25278252 957735152 120792275 101336372 339327282 495667862 80621651 721814702 588744512 109243310 343624830 430457199 891926017 676574330 223382288 440413718 121550652 370492530 730156623 630605105 898747441 360233207 645639856 500569925 442503153 348203336 160915164 47641593 675704287 947198772 52652175 172761050 877348123 484831268 377022966 903883473 329316008 977823965 689160866 763489367 639273317 523261688 4651131 617762200 672243456 738247641 124684983 616003658 400456644 893334703 295240036 926428551 769216649 803358596 65014900 758617803 189838383 115479888 936283878 557008648 205112658 667670316 15931712 778624232 191288638 400833908 622522332 663191945 737292171 277810974 237861037 305298838 687917974 582838148 533142244 874514759 903378069 135266581 455003418 987180259 346189954 504563429 590591369 431228079 510008569 697282215 468549711 734123910 942808084 88426142 312214088 595030919 452536871 441830162 25664017 748708609 841956742 473871288 920026741 934808611 4668444 811905867 16207533 769042857 307403518 886941482 663732120 484046999 622899910 234974242 860384351 136779483 808378829 391804601 718476212 847639139 92494225 473157210 306973394 793708466 867001225 903072608 110954687 787301286 61353862 968679822 842551922 682020831 547203327 325007462 664898113 736773607 663867709 602868094 603171167 980833145 660510418 21381935 467727990 825834352 705649235 33262180 106417542 719629208 594397289 767012618 382775252 442685560 783588359 111113566 344727042 565933633 189163595 1528574 779934147 705458242 962437235 828706262 95139623 770759390 778879261 849736406 759409105 588794262 701367973 819963442 225847350 160570729 852398536 476632497 498752199 598117460 699066348 927258121 341493078 912340977 637969575 945611509 649974719 815728479 775660086 776509163 514226881 267759045 545781736 213307945 310905733 701203740 403333552 820698309 755321124 910284410 911860367 63006252 725574248 921417101 194806073 949487841 922531689 54734745 658138643 120089993 232764507 234681028 238600913 526593701 644722717 524095427 212788820 181686005 487703377 571603963 688725911 928107854 50857371 784455901 534638509 399921598 543677625 100505573 710998781 811178736 305904016 875534430 52437758 983687798 318139235 114771585 836369838 525454152 665404812 985114522 582856946 855640971 297895112 344729092 907986815 324048539 741054014 47484559 316115660 625922361 87778921 373382008 7695881 258427230 632764392 285551696 805294708 462714334 675376563 126604343 223246601 313806736 940048115 710404384 639860088 426374105 97046355 37430977 433936340 801624952 419299998 581385840 444330774 51617052 44417138 745714604 280833943 707902916 942555225 340937914 205861892 143576338 448979282 871869586 188630046 554760115 581255309 579487157 967816584 362696539 404768227 980014191 700226115 63027308 261895324 996344660 64401212 913692814 864813903 174909880 724822805 767898669 359422468 297538566 73629959 784488533 680146819 53876921 482113920 399661009 966763423 516345423 795212727 482691044 772847813 991288809 284784761 647338375 489266532 518534198 848182191 541999495 837187904 681298592 433949087 956052066 984342308 338919262 16962918 338174332 976933179 436716332 91850674 349370532 188490484 257838442 253361846 920375947 180065720 447106000 37695181 658694969 617079164 69231686 853283599 80824351 730403056 172262271 462302784 772487374 343180484 633293729 359557715 809737349 998309691 540269991 980427338 971338359 732408388 472119286 284215485 338552395 672417618 601354865 866797559 799268137 146169702 872265953 718299089 832793694 423545552 226690380 168733274 857376693 648388525 41398694 699565672 549059166 247078181 266279124 426825218 290753690 611073068 828989674 791895902 178795823 455666706 771955192 957423349 114519897 751130287 857782699 901738492 747881369 609741809 795866272 462840578 378813528 152651166 711140322 126014547 626335284 545586211 441587424 839463152 697201568 977423929 6547418 410572846 733348930 703504652 346918297 238527371 488960483 445328437 381381211 322128292 619076023 250891922 737235644 101306087 653850804 715859757 828294058 315191467 972425428 59904109 692528490 739701584 863870339 846122883 513936143 261788367 906370771 597070202 812102464 181233964 787070453 361661155 97136285 765921781 304689368 961067024 532668437 185467662 457107560 469953123 678583088 874200599 569421891 687312507 591225379 813941367 385444438 956994659 856992708 950870731 680175700 890911214 962430976 642287854 895840750 568186536 434012567 774349373 366627547 473477031 571335186 289238521 430834985 400491244 9975519 515085020 295786177 996863267 323238517 935174202 383681034 33573757 804321145 160009523 592941529 522593283 586581232 808895718 322696054 431130320 686298773 213605715 634607985 338405227 948895138 118807162 595855178 623478889 439761980 479761126 800376611 604850200 220027779 144433553 686427053 329467778 686612465 808141853 832844707 453708326 868283601 383455836 947951349 987002856 459048139 517467696 473705494 720267581 597019952 378017315 261888851 582316325 382673096 648730418 910010183 220681218 219185757 718560655 860424052 790627219 798598699 313349891 792307983 16403280 112947144 428808151 125156035 442987140 797259478 982062300 621967879 131352690 48440014 983953026 120996208 271617910 496178977 455537384 29904677 934978600 327438768 837085641 147479369 677858662 852290373 80989847 943041617 472535064 557752734 127986272 143836040 75421365 760474597 222632887 409783869 528468888 357087685 544487559 987448560 270085453 510272773 421581835 567494496 396901790 489453042 860483189 693444832 578081187 696414845 516527576 3877810 271548885 423024869 821187345 732237813 732251878 551796597 768363196 610505972 794565297 359986057 628493043 262392830 125421370 903552842 357335931 606320720 720589414 428256186 885720373 747415752 373479348 544770434 744323317 609138214 990477623 625396610 670156789 873580064 214937085 992798189 458470584 359762124 525322034 33780742 919491974 955275289 498884194 815173726 659767561 281527458 322298059 519934199 320583592 156165320 77201522 894155834 607971911 711657201 949114070 188240509 339174110 874376160 946544911 443779263 849799648 495083826 654708437 616678961 725982675 325174648 528735756 880721103 105573311 632598980 251136441 423439192 359064501 943550118 356323463 759304456 179709936 333152438 230463385 497616800 300091867 964375598 105657943 811049477 282971795 748689868 786514536 991919594 318778331 383184642 860454606 534309828 802428942 29987535 992212009 874721856 736502327 91304114 951393935 414301299 337648594 181951027 16335114 851373856 334178534 8763481 507074048 955465554 819576521 762675190 691342165 69823512 913283776 591874864 751797220 930115917 217867351 466573393 667130025 953872806 136679789 698197479 786189169 379471382 174667125 854664190 509032655 214574714 759212751 240649510 407183047 518844107 255410588 564689542 477026748 876089516 326560605 54815406 379848805 99296457 410641773 264516420 729756975 168512512 376659468 663436883 107455168 964300497 288791482 607652428 722741443 470574410 646633617 617672673 704352869 188467146 720135761 629717762 465175382 719985560 117947789 37887671 273158937 209889991 127679779 713119411 791477205 49209479 484393179 494273090 957271298 703861326 937933714 460916356 579427734 748572595 73669048 223797408 134109850 86159429 327927110 674382113 216820903 830601086 561777494 79129681 301881484 129335315 77052475 980455721 639752689 686324589 358181348 212393978 108633931 857674676 582117941 51699991 340499233 971391316 279042580 822046440 538931297 52942308 191157141 46122888 719967693 411208005 94226169 621894701 796903681 916286713 177380133 839433595 45051681 974340353 467543090 789958347 640184060 632562912 169286913 535384469 524664192 8455229 136855135 922830996 736265854 60644064 899189361 516043300 235388778 382253573 762632865 195314850 773247047 457404775 329987965 471779137 247871411 618883100 427524037 917330450 195280157 162912543 483171359 193932902 940201695 327173140 912724818 54967146 248866661 587610586 387379610 889790140 714847597 752413384 269866878 874594470 257010599 519546705 742599055 222164474 121454376 766564175 488641770 305254050 221947487 743623718 726749977 67270843 429235338 603398611 888036596 695852547 520714731 928736006 835192606 324017701 776844006 739079884 372158989 743362591 370871721 288285544 468764760 663590812 83625963 641838840 354432181 957430629 780792248 736242390 784467554 791062423 486588946 747856322 228416165 200821776 843560180 178986060 592728454 529939773 998968772 286436370 337540288 127508760 392177515 958959209 733917595 760547416 154735847 951906297 107502316 572232635 977876142 841123981 394445281 181035497 629051062 477985675 658227111 620318330 836142610 250208997 326088445 326473276 821164247 877960026 479393828 768148672 466051817 472277090 232593070 339052424 324528560 142816462 206835306 694213469 551424548 926007807 310428192 798891581 603429170 88375622 960079671 144532975 995018610 230155681 622386826 840791096 823669597 655570678 473912753 962246081 555265828 241735767 88107921 627676618 83273503 847853263 869541782 688988054 245367692 865334035 268718312 164507132 639360453 496959852 156050156 420207903 99340747 148635561 299295471 100765501 597095110 546234 907745089 797638224 545684900 691571980 898891166 628986926 76715007 29803852 798404544 599876705 378061191 445338067 834093317 130541238 811654298 363221761 461585312 209784923 845800881 317901034 214239302 261547577 79398222 388291458 921974419 228026451 294542523 355344060 743454513 175383007 786239188 921130713 852355640 332114092 251666228 744606257 753840959 813381076 921452162 909741879 311272462 970537414 132585551 93702797 45437249 457831223 699646436 376122987 221853287 989416032 712417668 605659072 63116232 599801202 400432213 470527891 773015242 921767987 592597022 635284097 298840402 940665046 987223110 2430474 578350994 791176490 709040177 187333655 294860056 770659575 330051599 918302470 395456273 450244983 967227129 662821735 252071412 248811563 180749083 42593023 213714864 132261596 228622794 600051722 266538558 990463462 410724195 892197882 919430111 456341971 100143212 428999264 268698807 6138758 748018549 346102873 237056619 962959050 271629107 734368549 256785068 559664723 70135460 897834202 582677566 440339993 78978719 672824359 329415581 146712543 109500266 883333845 286910935 873580979 82349339 497813654 523464787 639426578 504355688 155268330 770880576 550523834 110343797 31744341 2413740 841603792 347458757 19688897 326386137 435290305 764631135 803067259 47138992 51091106 193416783 473091827 942518220 86148957 430751237 403762574 960710375 715534172 727924153 372550813 963032344 169351382 759195416 146259205 948885584 292763608 59931127 677838047 101655878 856883425 234762147 519670370 597939941 187681717 675463697 839074797 400307523 415598867 272260126 318677529 448212650 100226955 596728371 717608810 769941285 487737063 782550998 660862536 3503113 305241026 9833493 776553119 217807596 224821855 269141845 327045388 306522847 233684847 284949768 743465582 849553033 443955322 928432554 455286583 88327251 953675854 265352663 251567703 383007897 14978363 577644417 516255302 626757179 561632955 43855176 571998597 907867990 536155122 731693656 631825009 436487341 111036406 356914714 243456205 262758436 42111797 822862168 980423487 39867359 816559666 603347708 249473726 584760875 514304272 270440327 780923028 696082658 7235861 246209827 170298613 157139175 68523756 205654548 594491891 690502809 318721067 272381971 326746992 469659113 214420302 352727293 320767647 826083209 873846443 497319527 377745106 11886416 400004434 544258576 590699294 882056401 347089496 895801904 107262980 691794718 501774395 593430381 878376341 607142904 264427655 392461120 71292594 534628857 716825264 754138250 522890778 622415445 415869258 970058216 167258042 423440755 164116126 970974323 462852999 415396802 334270993 819569880 498194065 389478759 341747282 234895399 584968873 939990446 306920053 510755110 801008339 880191984 347750783 980079454 544562454 525108918 601997655 995029303 994151633 576577272 936555013 256820996 248974147 4242110 584726743 924597979 783375599 285075518 315075769 46263059 408799961 179893493 744424770 428777814 884267196 625522351 819193647 830628958 477012329 371511220 323568911 621023084 536411585 862759725 408649865 877290036 782386548 62415649 735135656 101681849 902692496 789759595 941820409 59393163 102448381 658472576 237545131 494421574 310999088 41156260 992978851 387758453 953023276 857207754 840506653 224466076 702238540 483188165 801165775 612945737 14176896 816300145 93575322 790224459 611982045 87243573 982420574 318960191 628790308 760628760 137900470 421366606 832269989 383298336 403765233 921507606 50221429 773189917 535939673 895897657 661400105 613932819 463538205 358306281 682009477 825189434 708463710 275756412 654935521 490631726 862915813 93509846 676949802 839177538 44610344 942820046 77146645 422470221 209888017 622998427 454430756 295935092 101658123 580770225 78268085 781642086 282061377 976353954 477409976 577362795 108069814 783864475 917883536 644599467 234389830 956302228 952768807 627180900 246471654 502077915 443176131 988762833 825098169 81815630 874439601 984761737 658907190 242849215 566641573 510466388 517642875 234053791 394286441 187841750 284823029 308909493 526722698 369878708 868248877 286676321 519695291 829494751 231805135 187459968 733982317 1040388 157620003 662526049 472037451 78934347 968205897 146727648 931055595 672178919 630553180 839080194 845963492 620467513 701650301 143185326 311728153 495256782 712956996 911169621 887123371 730847870 127158441 222785099 439257708 18510124 192717409 212987025 359441456 634999743 743995573 685500306 467676813 935702891 599842287 530674208 465070660 925710350 454069431 137464718 896870144 929752172 919022837 926990987 475631571 448800589 382076165 354992098 801057078 750051284 229316429 321585393 38242323 771671504 154099730 414912117 165163951 794548989 60184240 158671227 495096511 692772800 558758431 326038937 92676178 430974199 859383022 230363470 20008785 116084199 953663403 774466859 238483867 462015596 812791116 426180162 599179844 713972350 801551112 749094812 885274984 842930222 177198421 622230832 487954720 556036361 855830452 783911091 347590930 149559751 216429651 80241604 268603575 335877047 831761401 661942493 603580993 530356894 990338207 244648941 830040703 946323538 397682983 110300998 782225429 47132871 396358497 378249586 617837091 104687694 785912941 130950341 110479156 87861576 164977101 11462257 162449405 85066250 702258835 140987335 45760772 109954140 186422082 289203600 154650099 162611581 688197056 374616971 917910171 305640345 327129461 966224665 404000951 476937529 63305410 350747961 559746025 415963773 638368006 75513297 103318347 448519510 145180352 509318831 658979596 175598383 527892762 328433582 160262676 230639633 591395059 109182211 134822777 246034001 83385904 988490340 85255865 5754794 687375862 13297824 288405601 844665736 6332160 610589663 422877846 977566067 502938413 511358415 696302236 632226482 702864481 213786646 81158389 952761324 300337442 112036028 223185299 94917651 621854581 858678214 919122537 164094543 874382811 579423323 804546892 115191821 489183607 411641878 726131708 619729014 488257080 326110769 920158571 733498565 376139660 96720686 754163198 55662070 138168841 729099811 133631506 837985906 635127787 863632228 272313363 511868989 755451807 201963954 944288149 718123285 307610844 940225358 412246328 728469464 408400910 324294369 445959920 670685221 62502008 504376654 363882304 342358990 45610511 303608580 749452994 962110181 340978505 789066345 951003086 589058603 197162533 509200880 148799310 925161867 671547774 693446364 509221042 869394301 95318562 743110836 27837698 131556361 428671039 987214158 696902546 348217459 171012411 859067955 796025327 389943597 958711965 40124021 625223770 171709399 73094429 953896915 825798144 118981133 205243630 326705526 273701611 636100436 942013347 273567170 462002051 329705906 134460500 377417700 370955101 613161632 287855286 210760213 959938860 965812235 560404225 993058638 224123256 50202676 389725374 627212244 655795495 43781129 29151331 494856494 321348119 676056568 554849223 396383990 141216810 336289592 673992809 742214157 994470778 87989647 714400216 304357934 895654623 233314395 244203675 181280151 315635851 575155511 905954522 53236515 754341590 973593483 838000919 704140360 283538910 68668885 927867452 869511634 843598424 921371926 442008150 876540772 298707918 847698169 135367887 748390896 535758411 694375008 445170937 232591456 923202359 249753942 851105149 720763152 104900953 790597608 923774731 181367423 174044345 398644682 321260322 926937905 721982714 782078012 903898121 574159513 611959789 702810451 414345176 486543391 496945563 610849244 574725545 517696891 9331027 53561283 223316502 713911031 226882394 100914415 66596700 308757728 177066904 756836539 225623810 936324164 400583150 265362209 108085894 444165222 801141440 719138315 641944445 323779855 613736212 502666947 599234696 101667851 133057643 908724206 744681065 719656353 152286358 204328071 580935305 484606586 14736117 643308559 278618021 457144242 794720495 734557919 665712955 578260770 263315046 606048800 139967988 985210751 9077255 30249173 860916692 533890916 153490151 615480893 134326587 989665818 267177497 229613852 58454007 95604291 337045431 749844089 229094922 266069523 914789199 217643321 834058417 292459024 257058864 982554518 215630648 601848092 499368578 679369879 891380422 404851864 938843237 860194443 57224746 163500792 132003904 964177664 256792233 135744906 482155351 303067785 712810743 734236215 95881687 420524841 599287687 756202252 889056944 51609743 110277435 229419315 385639680 944817926 406882100 935719183 81654860 950441054 626809911 629312400 449192 192154214 824827728 14642068 266260842 533404076 167524337 121349744 506288481 734000731 967113183 38969952 243557547 519088283 785441335 518544010 990907105 169632681 978529740 330768524 554033495 435166962 766841062 643277496 617986980 550493912 467905358 745861535 468375791 842108096 955120591 686055617 745711236 800911576 334644690 481539167 119893256 115847699 962543707 908634438 652882718 683829228 493903673 891623002 618304695 469037201 206326238 561824809 451794450 725011686 868381311 642736092 559158572 902483372 632734211 427741179 566162325 895328790 875083655 923915956 813234340 295190380 534556125 262380625 977063785 466808202 384989631 7798375 247629927 699974025 183733514 232598704 364917461 243213936 394641813 542350191 305305896 607939284 672247884 388379606 749768240 537991373 194290971 10799459 668140082 998432345 862551246 676088684 173577919 486035537 476841711 676712688 525873013 336574445 884477201 220866978 729675127 377822280 614071670 772402518 987845859 869185842 793840283 472495929 846730307 996339123 459731616 667948426 694503339 666932082 456754063 190228376 494003131 355221286 661825407 655293567 749463788 398868810 625803621 559697891 315408959 442105752 279540444 529272006 12503808 733275357 3998870 244039016 926852599 646844029 219031606 816817379 539322268 606343227 545558012 795302082 564561315 562380249 930568416 400406222 479318176 529118856 108904063 39340829 282601768 799647164 294624461 143286998 183199231 233679834 250818760 987305993 714649100 136301979 711178036 924642571 618515420 952189199 469071253 788155374 657288048 763668810 202644189 430708763 398617153 259893014 247475280 921437369 60822098 420361768 599015226 962648897 206010081 235078192 656505334 882064021 628021225 146105866 419736381 54910742 392164515 290316716 622725606 41995016 162113196 478929848 385131743 102949183 685610279 487282936 725709366 477068419 258954050 229342697 992942958 272740305 761689409 484033436 807146892 427693073 227613097 71488346 358217741 68293633 661554037 773050332 409501999 599097349 67815183 829702124 682298246 514361345 883988527 995040904 577311954 168791773 8856126 697802132 810947067 570515260 205533744 245538844 371867750 753542952 563062114 284207 911672939 21398118 832980362 620678475 247607907 122266049 265250378 240531956 438739620 563620818 196086401 973758521 473566124 419564885 441103157 46506699 781020096 879891326 139888846 199897133 83223723 878322159 256973968 202277866 349987448 223708638 532671612 876733947 263899611 507988662 584056130 520938263 812373587 736398702 241605442 63886507 877526619 681205364 597484610 342488000 871328916 957420412 841329939 325971660 313214442 754033138 410226190 751086060 566587705 374735445 896434930 652866546 365648121 359385627 593209687 215811192 137237699 879042391 29410606 687979806 449500062 278365902 859468084 919515944 225233671 297349731 913393941 801435151 552899370 962259378 349616104 405853390 156381585 457748714 161386760 198844265 236530441 605759459 481607973 849603751 220002434 604176187 171721906 763407975 246507981 170687590 371686027 543101788 734798195 743429130 429836123 300114708 792499319 304327492 142946798 404460781 18551177 224076012 30035299 663304663 304429201 878850356 187182787 145746592 361474384 396984737 185060033 290195697 96077635 675141474 482629851 244581575 7923658 656134089 745147015 252328142 771176601 694016670 438037897 689849821 700091638 872519874 173588446 458199696 987958612 15407842 15171493 610546987 78027505 356043758 961318229 230643775 351476104 871244090 643166854 608804187 783139220 319143397 293436522 465451264 471325510 334519939 163105532 269068543 488100795 134013894 117069591 71070308 603622088 875565801 243954408 682184512 426145729 138731720 844388551 233110510 896997151 530002868 682529795 654919976 298667642 851606132 508353130 990211669 862670528 568052036 632463833 659394952 309247754 838580006 28764669 196388896 169930362 87929039 119172460 686635566 293074915 274496068 759706897 889967682 819153575 297718978 188352754 542782758 800131695 766567224 80119366 532350217 747712053 772985247 515454323 142909045 360694273 416617282 989797562 286150851 351449546 870629563 841810105 865600597 505800801 137707727 570901485 80432678 181588924 841813963 507353372 487609345 250694059 329141110 951465801 927596043 100590561 130812049 887128761 802823074 941083096 777752361 424704699 898409878 543575375 347757862 642664843 696472766 646837497 354186262 833368788 422295663 580913769 43402856 68357822 2927187 382075441 147399465 535430119 730835989 560016248 605922506 587309335 591077020 612135258 811338452 461323595 330924424 48558950 671779819 662966830 470230654 164039071 29779193 74787961 60946568 299615225 545165287 660289483 129483952 661600439 523591063 389705299 215372619 242399743 555352183 419863031 995418967 979618043 644760381 215658294 103117952 740042305 780712447 615116802 267714051 251464148 835743291 362276984 121407983 6599265 769049822 248914417 222591585 591171422 215007459 54342464 204224262 636480334 753085669 968030842 797729942 60857012 7716694 335341527 897488099 284796654 559904141 581233628 110823365 549541921 631458423 256868001 586842276 382453825 377224249 370795209 299875855 524827290 292212469 98825456 334554025 70329201 690414842 381134081 273349931 284094373 989096664 682293501 558711534 338291326 163631004 36286234 815246261 715783073 399442299 767773848 221060961 969912831 87987012 573528536 802025229 653052231 258647162 26482416 722258046 710167776 631843259 754836964 937553082 281436479 14723485 636161817 332537937 633017322 766964873 344007071 79554316 97619184 48250596 617825494 75164507 142845155 929656436 510522235 917005367 558073034 579984721 874728138 36477255 776075821 824976853 600784100 279547069 94046160 949948676 72127497 122773246 613026926 432182417 423959889 415682821 485984440 452781979 828926387 594889568 666596850 482561418 905536064 572280685 471923064 455350192 907587530 914893374 512501987 70553122 707608225 871381419 556790914 241246951 229527201 693134086 472949334 581311877 252542593 990604991 969359431 872117299 217603336 255452472 898152945 521096129 581873333 783249714 334079645 850927814 181908257 158849527 325264104 625103914 519709797 631533413 591643769 886716462 63251873 707864662 987422221 995674852 35405370 775908579 17535857 286121967 725695173 416268891 697258896 716734617 895887010 660753217 145202972 707565823 805159709 311689003 177591091 97953313 441691174 926171554 517105825 736224356 68941504 21615456 430920303 523478732 980819068 197446235 845409975 265044607 665322138 947709967 927652441 685485997 477852599 448004562 988008188 370568664 295960786 651162375 735953402 875678350 452177665 662982278 821876116 251243330 319788981 267331649 509523807 708886665 150049890 171444366 224760599 386548458 6744669 714158689 327154692 32161651 84055560 313744565 171518681 469408236 343350449 571072577 188920514 205990111 943818960 560426144 813811168 64144512 704588532 29657563 336689456 337609191 419798252 680422461 262497626 677809293 838989764 318133747 668047424 802961597 842795866 927090343 832606202 309505473 631249635 397955242 341047665 645715758 316681481 606946291 380662970 884003269 18847458 416351720 794226536 177751896 505826432 924511677 621662017 15508093 953024998 752391148 597144415 467061751 620685446 750762341 955812438 749539039 221592236 977442841 810524743 243283229 69220943 590472254 318266427 574369014 105372106 859227824 389794386 777534239 613985271 92654643 162270923 815373897 49975595 331360101 824016537 768743189 955505287 225510377 353703886 552372153 570920493 997657977 170234664 403036524 895158761 269916261 818742268 857803291 234729878 594447491 38255140 459996747 600709334 653629816 701379925 766445266 653649122 743459139 675475946 428768250 583605320 967806056 594953250 668951081 953204889 367806993 307895143 113748048 316332989 332127761 862955586 473037770 589102348 584184379 517608000 878896705 46087179 538883974 953596022 1220330 743973837 525847749 232700998 498748261 281313195 194946238 44663680 346194326 646438182 169152668 630225273 586961462 648933905 424960337 339394997 337860968 518253959 519367980 532486769 532362594 729114550 549697591 571469298 45262550 213130667 773191580 435103135 464435941 607880857 505046169 255989774 901321132 849639955 911123526 672749683 630585656 563638887 160042012 367638991 744340622 87531880 226395928 741271453 191138805 720576508 759637720 539832604 294779626 743752684 674389113 337410487 285781363 955912389 952663270 618652536 830534359 273901200 639404516 598276193 613435820 220059420 14423113 512473977 386295392 991514383 349891146 362038626 963366546 130013831 262768291 39826491 230374233 641213404 666928294 43562586 696831889 543720263 780067652 575678481 41863664 386533423 506253933 229317939 537365100 365342357 920565479 311765035 511108873 362086518 203215379 465652822 682066547 324575777 153187486 375309014 616576628 411932121 374674090 504765729 405544020 848283378 132110326 843847055 302456058 486328376 399982763 96423645 378754837 640298698 861508655 3838855 312883107 993383136 702609483 285674756 808413681 142974597 732085077 629386374 884406061 713693853 725954379 175735875 411621142 188942450 760320152 601614118 640284138 979108796 889200994 695429840 982212050 166721026 971777250 238756768 663248948 302084034 48229306 424354245 532474360 520715375 955272075 22363022 44258681 230789095 557464710 348524306 312144789 10234868 906959673 605641642 243111019 135189159 617828666 516401760 263030471 926556692 939308019 842720811 169231961 407517306 768184276 995007884 51567844 957573099 733883159 967925968 981847119 267976566 961618470 142082991 425160993 595012059 298762721 937973991 367674826 16297131 180648729 415591646 243503084 36333771 103194662 112863892 375229307 299519486 979346118 706210008 979333059 355105305 532696009 252296382 428971233 222654326 785658627 478812046 450275601 828061151 880666112 156862127 82823190 645420763 202288390 952202225 225087142 746325956 283070008 566797654 769301371 687373528 725214242 474716653 35198144 772426534 562040018 631762414 783996703 136768548 16222827 271949285 959728793 468959205 884999871 573571894 320528812 523941068 789845060 108921556 853676065 771789299 602510745 640871914 189708339 28481091 825761317 226959027 534995425 903382363 317789287 375412648 813125723 12561170 209746511 585515935 973420790 548349169 562821902 587844866 732684907 776412232 132853136 309120326 209590217 62100310 104236089 233129983 655890247 708512583 756253190 48492136 89533680 58121480 246971100 307430574 924378844 318031559 608535956 557432603 139889138 32524573 729048047 821634314 334278718 355643426 740930859 852060207 953641651 371677393 395354817 25996052 712490889 178478393 661560597 307684385 341382528 772739403 35507468 807911666 85526066 120724250 686315722 907620501 204755901 769318912 55362397 226337576 255561541 330199700 683757226 571812928 27269448 729453333 228296097 860347975 987394304 347666640 225161784 700209917 331793969 884299934 924279670 932754425 586709697 244849296 534385169 614367990 457014618 12008527 412882823 920740435 610656837 138804756 231657241 251595949 855421693 134136885 612926157 711294406 604805129 615263290 294584483 906780199 215524970 802692610 345147743 8941861 115405509 310785587 558465627 302500171 69977145 504143524 213500818 18047352 213035559 632428309 930606542 211118010 621238774 194509545 588254453 424383731 199242879 584817573 306423235 39237306 135706465 481556669 689990403 761371455 228911804 180455508 503008718 102119520 7735957 604787497 106037299 103051261 834232977 650386733 992903636 712078151 59197539 285649154 671376020 747704604 855909635 824728751 850017214 333376261 224670896 698945993 705972292 89671934 194535345 121591957 631517279 342482188 221864253 223637545 63525476 388191032 594291474 357469671 905024056 884010356 504933570 980697057 670626369 705270881 262898404 381603082 55407518 759369814 658357455 357601186 463644061 226964969 721529790 980137935 180282052 477869949 475759319 211797668 503121471 747113808 221756668 747386568 986303363 90699951 960016023 14060452 44870893 827693090 145531561 409442364 713416647 657515768 503027352 31803494 918931195 790244731 232410448 785372901 779153777 613581437 419791000 307902937 151058227 279677748 179291711 860935700 97977752 616389596 970942407 213181075 662651732 849728703 680036712 934150021 302438242 521751109 609171401 248224037 9371740 278746556 344025955 232897808 254044330 777909053 487247623 871893769 908931194 408788204 991994145 693803374 353744295 821602606 402712121 994177087 841303582 105812828 113996383 243442043 745845326 952430316 690411270 366414662 653691832 304752396 224004144 727388428 324952105 568688422 856225860 73647132 41116970 672075229 178239270 757180550 71988176 958782398 28513823 370632164 362342698 920896447 891258058 998545153 293801518 83677947 639294870 619820957 126179000 519088581 196558137 25660810 688168617 793369775 194489717 262533717 218601490 610693321 82115844 789261876 813662627 40408614 2772748 722425009 201208927 738563992 762859796 344751303 86880788 681736709 230098905 829820112 787653030 813676688 569169794 264350213 249049238 171434899 975784528 33790359 486296409 638104718 221557536 996372419 53221153 96429273 266739625 608536209 227511026 658297167 967947091 402857995 244086213 84627578 566151109 104231484 741263604 511339107 786353278 643141959 257145163 835103112 930422921 194391635 101961490 487351299 619816556 992722387 558272833 904971379 619916591 926323360 417765735 850620232 575110278 923351718 313833281 548992712 226891991 749278 450261811 280241177 128744864 477047158 957929126 44707784 420026702 230983684 329181602 605201906 965888345 25138418 145396939 346481470 989387126 84085697 248773413 790025411 784695677 392717990 818695047 236473169 759224223 256410701 596643730 133836460 711734839 908367555 298935341 150289096 839918380 459277111 881309837 625643133 71213491 815822554 117145509 395039890 931949557 141078692 205189745 620276759 707912166 466695970 736872374 123640155 620773016 791356848 964848895 602800569 431233866 298185848 687352293 659482195 561136512 132571096 183128602 84453882 367753546 288200235 678839566 226495942 248028680 271170435 249216236 159979059 941915979 238019917 629685446 695644475 294050552 582187440 139341494 278028781 716847754 240985908 315859017 795414579 602682893 724357901 505321179 810876026 672247302 193911815 272742468 65359393 794781903 579776398 272838649 474069144 101321358 130090049 300438677 233670596 381106425 408323289 500127906 840110008 130318769 885874147 246068913 924330635 89777324 339520556 20900958 392691154 168744273 346609429 810902485 629938391 999960726 646438504 102518010 143619893 376349622 331488589 293846846 262253525 998629965 731499938 968378472 580532250 725216520 101426678 478807100 268633654 847222473 74207438 806437829 883289976 126084392 377911514 607976792 924813331 319419517 589942405 663909763 563154184 121150638 108953675 851590701 77496209 270126635 242918187 975144345 635147809 287005140 757826909 222325409 560993269 173939070 51779185 295782811 533299677 429628413 204077754 626149849 448359233 958641573 546836856 98059553 949729926 479796394 726200169 978911441 794955631 590710962 170632104 451843679 338702789 110625338 585361981 541592274 18466531 476774511 517047105 655047340 584174475 304542838 764327498 944041156 177036651 837715106 822308678 566480846 507174811 512791628 565082655 771114168 410312570 829676148 893395378 99071433 811620141 304217073 898972699 379713294 921899727 535976306 39343095 440860421 445718820 6124248 198739752 91744510 131670600 780900519 106255705 125864470 944987850 503832201 169534362 629265050 289584430 5820851 612842816 879070336 189308822 714820342 295453494 668456804 503478753 312608002 148214470 729550558 84872754 862768323 475950698 960469209 539468500 749359259 922224151 402726846 549688918 114262903 714963075 552431964 228103815 85611332 132058705 583344035 66516926 664435529 129043949 641174823 951462844 89815206 236152919 826387254 122564169 46420909 17682415 854268240 386113470 915390305 287978447 828309248 895777239 649404315 732524791 227970099 904178572 571795846 54467384 517225190 220285957 724827502 907514689 106041169 825422005 284973024 577100052 855347968 167844189 825967632 418915810 737762355 425019948 477345806 70579610 632144780 799837172 346943979 373856653 69621626 328744581 321965450 817661947 419985758 248677565 827417908 685961669 654238979 298269282 198953290 306567985 975126565 436985166 402454345 505086620 227421547 899182491 91500739 449461534 167294221 315567845 928853923 261361198 258809436 427567994 207010558 241178735 904901155 818066929 103888527 609273365 622167556 923865557 964924717 581178954 306467212 988085013 911594686 596665051 911383736 960841148 353827246 741536160 161365341 212554488 853091638 398896388 587372615 505760214 909840139 483855957 173614704 344042115 410952845 962039481 540331693 743719330 54172699 146088894 749843482 250665194 562980668 331026757 161202708 840588793 319316080 4434742 622524885 521398486 225513110 1141328 233563156 718426864 605484519 429806273 776458608 928995221 458708212 225755655 707755128 598689370 343467244 50931981 443596048 393560167 53675042 769098980 231218898 319617489 47749529 380356815 815935201 726207785 789007328 598526429 439725358 722351752 49214623 896727230 859570950 834701118 18635044 156261021 967536966 562920188 757876128 565267018 138141405 758487253 315827740 891678534 50627143 731446299 446989153 218777060 966606738 645069748 187356950 671123364 876933078 790118556 449169392 472145520 198878502 318208093 948531911 580874965 735514691 389439864 473971401 123127490 469815351 526218230 421281543 452496652 616907293 514201476 703320986 535319940 965375710 901571393 733312340 497598342 744499645 810715564 745553331 44506005 601307149 693217342 697740227 66402939 664510314 422337327 111179862 985967259 424889722 69597396 731909598 599269549 187594410 744921649 471870534 880611343 148785228 780918604 62976901 626015163 617336830 666254688 878655300 88388864 606648115 139629835 277953285 532116747 930995608 649109357 203763385 744901550 201076975 441462663 903368670 924742249 679513810 280175468 172065968 598409685 483291065 586569463 805374338 249513213 174212938 724648285 953185343 536459393 645259296 934326472 477963346 958343508 732005017 733441042 40326552 282867036 11707509 911136500 409930041 288378861 935501159 479669269 416375188 613379201 287456482 767278811 705245906 629719809 736259906 265118970 928438315 751560920 306984943 499191201 974019002 489235187 13915664 812724655 167376708 354619002 919422001 550777462 285083879 12169460 994580276 755963884 161690472 801602703 559660552 857669494 791740092 792221919 844679716 852068720 345581937 269751944 118120657 410874321 536908840 226769707 179136589 780267867 41018660 791502421 139802199 289098957 824528942 254686468 518797534 722144269 454112816 730342856 608230728 980380986 228924674 903890486 171833853 83566919 343781994 350641821 740155077 585891066 418582357 92061020 404197763 244883588 563584225 732196822 968148331 44951881 767198093 832419527 26098750 680910821 666035976 356063684 97804880 373994522 153941614 700875087 82544670 717834634 58992144 403549542 568856180 849984260 213386266 865793980 80924325 139545802 462072393 776468873 366807241 826929711 504843558 243274247 35637053 533801024 519818803 351796862 245795129 842055682 188444611 626024684 134814316 293694406 282829630 848724871 234897652 199174096 795523806 301681605 486618037 54418921 782597539 783334682 586141094 911820082 332666556 13534509 516784827 544857192 476874535 288824523 475047086 795374527 789873380 649012811 451555983 855399965 7382252 709109381 640351310 34226828 392897825 66906464 247319633 91824414 472572239 418941119 171990184 504629160 635988648 475351558 686880438 588603153 2446945 578979424 319404317 55773626 755591176 621838196 997531422 164942470 136278596 183914082 409545510 287428372 969802947 546313157 606152736 886158958 42265084 364416777 101843222 462836003 136492589 152668917 427998281 23623123 86427175 590589725 677552095 155616564 908349539 157738295 612484745 217020999 854913993 789395225 399279813 644170328 217314695 861486341 999821071 655622137 133325517 534746291 465234307 119519537 587572084 872617934 668179613 361417699 655188088 374920372 890931254 472323032 103388840 447784083 343586630 797255810 785910902 921544004 110888104 582926173 828589340 144084640 926467977 813485088 245204481 545876873 273499330 354154969 763858065 522846700 644322085 246855495 710760185 446848963 518174120 151763781 478906120 92611841 637579583 740105510 323366265 890048835 658591855 107127123 812863905 44212186 48819958 193969553 132124863 833988772 55937283 827028462 873485860 820329734 708325922 86901411 572425491 750450763 705761017 988037920 319068468 123187842 949031433 749956624 529798817 645030709 798997358 336841689 300708707 24696736 576522624 457811751 915039000 849515232 608734448 636468614 208053437 794589567 81459029 301001249 555866150 53574393 261778545 132345883 202903359 695954970 182454220 629255785 210617939 336227791 381301984 269051115 995207897 928567760 228411320 854821289 674971410 778134203 791998032 323836233 852886253 830331677 382209300 355833924 233528142 666845268 779154766 397733009 420993546 568161162 114399344 432713560 442530130 210026140 279041298 240950366 847526845 279525156 973556335 750405464 644039697 357237148 682357511 24157705 579312244 232969851 852680960 917457193 149512472 486266726 791827927 277271440 943175244 693059065 262861130 997996653 84593533 330656933 407373631 360371766 98880094 542964681 419737563 596370024 13879984 51356214 436978420 682371105 727096512 681730525 287042998 295455300 802307566 571382955 620112405 988389167 896668709 262651287 815473714 974686111 966703598 167238050 551851653 72145644 183793860 845876876 483096749 450830430 432413941 289851141 565021208 243799104 921922752 346659710 900041963 826873252 50742833 128529279 682166176 492409859 68298638 102827785 299457048 312372490 744277827 104444441 314978844 274123596 490872160 574660046 329446844 146122673 822033851 417706951 121329958 408051042 394169829 572749766 843506714 277122625 280756300 138816056 608845778 307621805 216875313 384427492 873742549 800059850 704977764 633823714 826269933 124726034 597896638 697657818 995181893 245950918 40777482 382658391 441573476 36350901 885478463 224180938 608684242 539026772 879848940 807022812 243980755 269562086 698045495 966206025 388468222 518958961 634720691 914316929 741649707 973545305 424666040 848236534 439669606 821888937 504912673 871474265 293494264 429272089 511955822 537834772 271822006 568386124 833771338 834575592 629402049 638557108 105414942 12358143 558977302 143022594 552725008 742354616 303122615 618686948 653280573 916066902 618358817 665952552 54279238 906768445 29825707 444681720 560535431 617421705 456557221 684399210 731995299 546990145 256528016 679404644 852380648 668900845 212022454 726571618 528598846 354770290 342894326 388270942 803504574 939959357 699850192 957425601 136142828 766379598 939907032 657528779 837745940 272054517 785592170 892778442 794099814 244896866 501142168 666523810 7430635 387740010 770533517 784977659 861462822 544191403 971928253 534085585 267100143 992113240 640789732 417739632 772176285 77540329 967303388 593343911 138690997 871427616 492506684 545531336 428728369 751156312 813908166 18974062 530207553 179222143 814603348 473833869 539213275 273739430 521583153 172453622 661465783 696957172 619538005 556334255 836173268 910481881 189796792 92143337 426881373 728886662 703791842 397921572 217400189 350093998 324513763 312959778 326662375 90580756 627407513 719972021 1831774 928226034 13540812 252872264 719046507 803107724 575155028 432599464 801711077 688662656 591725038 472437256 388570550 852177514 555369902 501061833 864645777 622934269 995795061 484673706 370336191 124366376 229422469 346633984 139836069 211299743 496972558 749267822 153077021 596712859 187921169 126742012 735157780 982951732 554301034 977465234 642133890 106915880 72035779 143612113 999631816 77623728 161049443 884726247 166953817 704212796 329456101 51497278 272771975 440851205 585793467 734161529 986650823 51229789 662683341 399008183 885364214 453850033 403369789 254995859 228792259 721666043 703588188 49056703 705187457 802708217 314651646 383064239 156526339 374092958 381199839 198581187 536575800 808363949 399861762 247012382 414562698 455520067 275236628 925375544 847914297 787705210 230199979 324011913 481401077 448274057 262826266 802242390 577917657 433239708 322728859 78060136 753598005 517264085 783083816 433886110 564140194 405411967 533883275 505068040 354011540 125887313 682549048 162564318 791158311 11914708 980407004 262105874 945973351 34673857 833198851 412105259 798456794 344781465 929177164 898599294 423955044 684009075 296761845 81799732 169192496 66699998 543397557 607402967 532601414 599393235 437375753 640002377 203134769 249935514 313659613 55508294 487291154 660143607 673884753 52836052 791721508 936305081 85735332 170618613 956137569 797436693 842306509 164887349 989579782 870828859 130924166 706650218 263877456 400882984 671329018 780543943 798162530 861952951 74778345 976784917 259816420 722493761 73900287 717534009 44363242 168079879 369023551 681199937 455735841 215435924 632363070 491066622 538423310 704721542 202886792 238535572 972978368 805288544 611288067 626779440 690916056 928489747 982686712 828567802 295068805 710305872 279901622 136842973 977109827 953295383 935907495 117438811 217098305 318862301 278934753 234109139 955088731 742033405 419992962 657403610 670964903 115618889 114042208 650805944 116790968 820661032 977962787 761232687 854331159 586803468 118248393 96490646 518029048 104648724 675229143 913130907 355681307 301249840 336901456 185346775 238116784 247108374 391745323 765763652 249878363 135231648 701613436 544068510 885965308 560553596 882863663 755076900 201517908 409092108 393618264 846077027 983483992 464466095 679503957 562854762 249347654 683629349 105361075 158792299 118977126 82981261 621233213 621570002 274615592 573961847 926402104 541275465 313758670 521553754 528124300 152098231 235544222 799298917 741247581 780707354 321566516 539735078 323470826 134772450 847945559 536774140 327022925 23886037 709830200 287880004 460737040 784492055 213601257 887775429 346738235 774570432 982135358 847161662 182580121 69217949 569014380 665485431 638858285 527156366 972979318 377269310 172425008 664196844 490720983 406214816 377898483 971975661 583492793 332577566 623994149 365633819 372840781 691365314 471654702 635297370 716193650 766319238 432636136 275119403 808147248 988449090 579770894 936925603 399239830 258708351 309803661 74636379 382740173 305266092 997728462 445907013 66365729 225187302 415466612 806788511 259556150 823688597 584421171 166996976 434066132 807211600 767408388 387843054 438368325 9002881 891284319 16786204 487833951 363744964 223389515 200590023 389147190 633736989 804386639 707450614 100703891 81882304 125881348 48506728 627122182 742589688 26316516 400566361 875305517 950202882 222137298 920941195 773066789 720516940 697000343 383549183 127186585 394697437 422334072 685860277 138603052 631483149 122195399 297852751 95011863 26525195 856739529 408302714 942176029 593542741 936481637 821475228 773292869 988830658 488627105 408186378 289005832 131565452 395202755 661186643 999176019 137503131 260719371 367815954 792050589 553301146 347635847 659614951 348484700 514191639 799871311 441019818 506666892 824170523 777274276 252090050 968632317 228212843 334531237 219092355 860876942 55752364 318729263 527112626 956837104 911933103 148344451 987035951 717869178 808481198 262775893 49402735 664005752 679539034 260503862 583752141 886908748 921170484 737840376 538897819 224535980 671257065 951278881 889991539 916220501 112348765 992435748 562769501 800506156 552209009 254557352 505056444 409752951 86352347 576996689 531913928 30902295 634757726 752139274 15035989 689069103 327030698 872569063 389788035 395313348 518349209 63749160 746022896 570673775 770215043 584961399 243709308 202880580 240930835 706200959 588486752 919958036 828125284 17116750 219983536 634895824 177191249 802438787 939736494 768227780 103926109 59297571 766391365 658273107 202711842 49176128 209883729 178920457 975126344 923803176 604974831 886630087 479476531 908684932 579739317 745470869 769873250 356224069 61977220 385337476 326897860 514539913 356181362 620394456 797048270 874312354 891345591 673602841 98534425 829020432 314918248 440956292 827546139 401579184 314424718 716148895 575367590 663111190 551196879 236059535 355112155 942920895 805534623 437353201 272101341 571012469 600690657 528513558 853586078 851466456 793013628 736722870 287276121 29318655 84007216 825146150 785006198 689978460 7117734 107821000 776709546 303860702 947395390 723678952 578836426 95563206 353632800 932066193 729032285 702215839 759512297 718395889 844546342 181674951 742980 957829198 308844926 431522149 664942034 902073301 909432117 251693427 357116018 144849925 575812124 383135781 998219302 48275770 533144563 241084012 919717799 533435163 332965492 840492585 351082577 526045900 502093537 38631688 748809616 674923493 565827188 878958946 31005886 874422233 977208615 599271087 840723677 176511327 985315953 700984094 783462814 24395241 339380190 693387357 926094100 368395712 210078505 452826732 52551010 579707468 10015614 391354639 430922206 665326507 197629950 829066471 662916741 488609210 117365958 987832439 270161303 472363818 191164544 669615284 949965675 241709805 781199372 65572538 80598201 867489521 434528742 35384685 868636484 277439230 645980143 362837740 822955896 526666359 489433295 434701362 615434163 356411132 700108190 671923001 907845196 513809625 908436555 189230843 994506232 809790917 271239000 789624821 622206074 708177558 823810043 647625892 72057823 974414683 305118464 137818038 345898562 573119960 12740932 344791666 503347821 360329622 709780087 3178746 166631826 129828007 324817617 145150226 36582632 247845456 800012247 482285850 61105282 345166478 596677360 983257214 915800982 905242663 262042759 341366883 517739463 363133682 428726486 82494409 908351337 572025422 582838132 494815667 677408547 565882731 424598983 563062475 255032551 207943612 69709472 715958801 37472108 84732570 497846008 972841293 533167307 40160346 191801297 537036708 662670613 510946389 78341289 580808424 24201168 922941658 681448018 380393028 442322380 966641471 772746542 102205910 106532658 922812372 815547089 578134684 193192049 720283239 588852614 665036061 700696517 452478212 772849802 19920211 690855717 132118156 360870003 780929376 24305538 431847730 811458578 879158954 95831118 950171799 982805992 6691610 263592451 246532502 268760892 251069214 876179672 67494805 16231393 760686643 877797359 443664979 646787918 86138836 259817700 565802538 325429640 809198929 716264651 746023142 148446232 497870283 467595627 604972222 978171009 581266538 369905800 377852220 250477817 517993577 891940036 606730196 816457607 554470951 780897337 633530079 525057503 743995327 701659469 252004861 873525916 682120977 674990907 406863534 113692563 983961780 538363101 944555409 576277543 806576049 808550321 245885311 910181487 92968367 735841676 794923239 386649046 42071208 871123251 475217066 110268278 372985327 303482565 909395978 48144475 571125882 817780946 141289260 500647829 280425331 532497523 379863943 765622548 273716378 640177660 796295985 566608467 402275756 536045612 440933257 270974162 403903122 591393198 776082524 120005285 960024771 902482758 582466910 148789308 681077447 455394086 373387512 196420155 199931409 552925196 942497790 652178237 41709275 17988541 218963927 49691922 967471432 977521578 305958825 959345659 410556895 808829581 766632 989709253 8193663 520551509 464797880 471751579 942787328 40496377 18853191 728500854 104788331 139743404 56561006 284983559 399363428 276238827 829283038 226272659 778202378 907024418 537887568 821472190 127314372 651071368 914577291 689617934 677041252 312996324 42818039 626602758 98097111 869373646 448752726 88871339 211999292 144261485 162822113 562988905 393950337 185924797 901104243 610227568 156952866 777615705 582373301 620306011 322415375 410409022 240859704 131291604 646064695 911267594 112297626 343379722 57506913 54814723 460144991 981132742 947500402 731806276 784826629 216352365 398139028 292072064 953149143 582580958 743550311 180065628 142468796 991132677 181645576 739496054 613587859 131954808 478303760 144398650 767603703 444442320 936487908 817418172 971325658 761402388 386418876 116438041 216870074 795101062 983768005 730944225 920870469 545921723 998207587 789684740 223839691 338797071 89077645 207093936 355716682 162368987 470904488 679234323 427724367 951595220 852616977 290042628 549753651 682416841 567928974 294373774 426479958 570825540 276685579 616308194 441730095 181460567 516837015 845437869 111807848 717587874 775777620 180113881 78762517 637538579 959657436 828765681 734941504 577372866 721831844 523947787 432268390 833387300 155405551 943850008 954543214 726532603 66335731 483256921 920932228 794937768 341334242 90093237 164959895 484383148 244423595 664385587 800752715 279422142 223564909 326232908 254949306 280793957 830734463 567443109 858913500 601983070 968643509 437588079 676432116 641838480 46370896 978014738 358209084 914706057 838503929 305886316 975155626 466350341 37574433 522013582 128546749 157313238 725642692 457261854 697020032 249921629 231930787 788791219 716416120 778978318 467231287 527082485 927303155 263611382 799731948 179206109 916480945 804017496 600867852 738198777 593858241 549629787 759425121 413056239 18299911 316418224 803230702 807976053 470230191 926123411 251334020 872810156 684733355 684974310 157486676 379887117 85566388 18973338 211616110 19616912 659959961 917065016 289400028 649666032 490867122 184077461 849093374 335264909 398177630 962979113 828396305 225939222 342597826 264009643 180302976 409748728 520758670 942210080 558256465 797369478 790606113 980961309 107592348 224400339 442000049 863655200 94339383 468716393 757028417 302172927 143006799 934807360 591594410 40376635 408326419 700085341 329296518 389144362 345630082 843909458 264768113 974097716 769087660 826466857 927320391 219054193 524846112 940102867 721685275 741366531 69951812 474664327 850969608 977172374 687121135 391495929 352354249 741645525 305500931 224442747 776229357 167324391 243263516 118165925 932764961 43115104 259342014 404859598 943016738 525504043 860097663 630760094 258319077 667574574 438106646 387463704 290578119 328097350 615251867 543795711 409679154 102512628 975469727 182893320 478655457 623936447 109265282 947927852 317422997 59699849 997908191 136373999 813450779 694065418 883869844 396474442 325863173 994842298 174486788 730726237 654275918 854425782 186817957 509864302 11033560 509045202 217363729 590390007 848975156 729986867 340401682 579602839 63305464 649044589 80434951 483096530 645584245 996313285 958989165 208371693 6114182 958404640 36064776 179674875 14054683 144021558 181710218 270402804 629310337 495876776 686066739 478069571 13374816 618647712 644163541 612977093 501685635 931795107 582662195 261932532 511805339 383824475 927506625 780643251 526057476 228096637 301858623 51275852 542732427 389115847 963886635 832166723 80408226 101909791 836497282 236403577 263718515 822668665 152415005 276490294 7413870 514414901 762838552 372756405 562350551 73557385 892015859 661232279 467179361 572304529 150795943 398580244 211638350 221499842 760244849 462506651 326248931 570649217 1940575 29422233 776777696 697364810 557818239 316786831 142632424 975939947 901297428 182394702 387062430 419792594 85821185 280634406 119385486 271457224 424124723 131951681 386830099 75604444 751880533 403802338 370505610 17135155 863312892 152992722 975350066 882630571 111551738 444394121 530583253 231672553 393367130 369376843 679804175 280531610 677928766 110137572 256387037 259394477 975870718 593117829 293537111 500736695 383615628 422288149 610368790 965280753 745515873 322070292 683549907 19005434 252474255 185648627 43298226 281738046 431317743 806288516 394467771 603041201 613115302 624458274 858859891 877457620 623389170 798738360 523444448 979357631 288424435 620880510 564164273 149637840 312276666 27456339 699577008 175526511 609293140 961307416 501665944 355687687 700684396 906572129 766960161 483037179 911634487 856994973 387273196 79959171 534011128 544827531 580956951 599202597 485965798 636729189 139652923 36359766 164434574 573197733 836838888 780460483 935400321 392663438 909360637 282988567 708566693 345574956 937364913 229155117 449317860 768044235 196628089 906759044 421395647 507803413 248524569 596804822 52636089 849550523 76355712 73101203 587994784 337953043 478720438 960073587 46738277 850703876 801795269 251723685 148400134 866808651 825627835 321217792 273875536 534719185 739981118 793632711 566611904 805355211 661304682 504377425 173825337 997298236 404436654 779972433 364276355 325737221 26396923 679573905 127665325 714492186 495982568 586119917 375306842 599482661 672646516 419553573 997326899 649267731 455620988 161483492 720503667 699870712 296741782 69771380 311514937 13251360 731197365 630873637 693395900 386476128 102713732 152469899 77837436 381455706 656798689 427045875 246998991 354542582 296984608 872695454 559705685 31118818 610353754 632556053 520288923 600846832 900220032 209477726 940380165 365889588 962291445 25476995 333757919 57002719 240295729 185096860 992221584 805578541 470994625 275128308 86072984 22578965 55425213 954916045 83844489 642742999 284647551 637404461 599515874 38701245 981043840 164154026 91584072 776489968 883792981 847265022 547971443 814048204 551933188 94637850 808392501 297958080 534760981 349110153 669956180 613093223 130901175 123530931 456294475 914535451 966686226 890008150 137884671 188193665 900894023 278400926 991060920 659179046 253065829 1868807 863107143 572784298 783204960 714474951 859377463 661108090 374510623 888604955 782846571 356883433 624477762 642250701 116564540 128116253 440669931 267781006 20955048 161066597 854133312 800942633 647409311 756828852 28830797 496066155 673795836 22505802 284497654 539295219 466010542 788058444 570026523 618873292 757362048 124911376 485580395 420530571 380974891 528650558 423483796 735077022 30454243 280368363 902978818 419576417 849568264 298528700 689241287 531304381 817042389 892518219 198504085 960431204 261476212 982179836 966146348 741562266 137345704 422207622 636068939 72275446 286687143 799644717 674175690 556985593 148996837 154313451 530897381 524307672 268958783 586181924 278162749 758239337 2289341 713145186 836360117 165131706 355555575 997546723 930600169 518610474 557496958 547497262 973853033 338626641 106885449 229893892 707515496 842281302 740660894 818273393 222598744 184548028 583311457 479853367 516956435 941686490 923200443 561212134 495974040 634539083 449080064 793607617 42298104 613115652 413823992 219759574 622472047 5234467 101208448 880270273 353048954 867220510 713446306 735845115 272700765 216038884 766051501 213523058 399218805 640236603 240800113 49940996 178663060 371147197 412327372 47133211 695210593 907445580 778406574 239109722 401268627 177657224 178878366 302517150 244549182 97335716 320174776 517689806 282494726 408787587 790755702 623419478 821234034 495143978 31660855 695269632 380552011 565317369 391788450 263213324 967021524 451000586 453537074 80100949 992864592 751199636 817250522 866391296 36761243 729634670 407038182 462267471 37151156 52731975 798195846 558831225 334633788 538213557 53643213 228109634 388267465 771168248 948099408 754641819 763801822 912934429 839997007 24889487 903173238 222364997 945534339 865345411 225786990 713108673 611503838 550520978 121178959 667587938 724927431 929907207 873710750 23250560 398016731 17457570 730412403 222076264 91320432 324697033 293055271 917541885 705787654 792263167 518401227 534482781 603222998 54113324 712242114 611724168 203543050 857585345 540261262 880891342 559692266 170721760 191085714 367156965 868011202 363175430 66121046 353913237 707465663 317089405 194817301 867312757 893134525 608784896 376139047 978875358 117532649 515974261 595946611 592491356 466492672 279431056 191718735 683093986 702880523 965300891 598409979 162539332 827952763 718089102 745468658 513423604 679150465 282001594 162944672 941398400 334754110 848913418 580653223 853744994 567494573 569748681 857879227 276626200 66493923 500425910 121945425 130054773 189504803 408076096 823857440 306707802 353117012 24848588 56135263 152478419 192478092 262299480 645893480 591034821 552025501 71512901 12896457 627361800 495860077 793290056 187911163 435038262 215450666 465214636 542451939 509961171 456343462 988825277 117861118 961812673 790955173 670974392 815277157 927368044 658105759 620877674 548516897 549007309 949040745 527953643 203826687 837744826 972582097 396678619 57262295 858046276 328121286 348802454 859817051 173138942 711517836 775450077 390789162 146774576 427326914 489185012 444752514 797062899 418065296 867236658 148352118 552677573 370184392 644070261 172468978 98215687 523704590 992629220 651017310 466908296 319969169 250267933 318434166 21648173 919731591 430957586 703911137 722481144 533929060 860977374 701176859 117630704 381096541 48550498 675716776 930635620 359780363 847282875 985969338 17410593 850964172 267175718 615686028 298447856 998839863 465665310 690393479 549155090 332711151 131377453 789380674 877971596 327444845 820471059 844169994 486376402 962930341 104617078 729622133 460702252 816212489 321270419 38619735 833388794 733009208 795119873 425175770 617949400 842219475 554380264 584941576 104351703 633427005 121125323 516664578 740225371 245026866 287269396 845828140 102346152 786942672 410389734 952606744 579568996 359375260 656321722 555808283 11944348 412869444 477552684 724255692 727041843 143840257 607440677 283788432 563869356 598361659 704263004 300847269 502290351 99695331 14414894 45209445 360913892 445354726 262213548 392346632 916441889 694755432 710441369 899206490 897746335 717567289 645429572 508613632 659749124 260331265 846265138 769502594 822249931 244660944 628748630 752529675 559006442 895907699 26933952 273940828 424117648 982714556 517085852 570095975 642726375 467774211 637162134 165106416 156559720 668062097 953108863 696380104 354917438 661638388 716341583 630017235 117674417 323601587 445868440 595816419 616999239 80692352 552210100 435758593 73607325 105012409 136605902 673755677 272086243 881469407 619812560 330931652 650993361 213965487 848723774 556344380 869121037 171526906 564215127 907764384 207507436 780729424 944083604 154155315 259192483 322376477 750890687 837046129 5322960 673100006 260628592 410328434 653054938 954557988 877875717 791021648 383537470 281774109 447688168 493696307 469735019 127579841 206613128 64937964 399314412 670138192 181461208 984511672 241286202 878735654 128142242 31242627 897298751 991280178 720573463 187277052 879249064 546398175 544294361 820875657 830234590 411318620 77813619 531397539 780764627 201453037 30096075 643359254 81388813 458004549 834482128 269793084 261583143 452035544 685845945 728516569 294000926 83412800 154059569 682991374 481584526 911149238 824325400 236655748 149659494 526963722 811480897 54031879 387993892 948484483 500981057 381214685 925735546 506381468 95762952 477442888 431657277 942090637 252288542 932373647 492282243 9682387 607056513 252687325 893012249 661588886 429598076 770882231 117989212 958625579 7940051 333040396 564935913 190648324 747809679 399585296 847887828 260710692 209500392 414837838 732392071 912605807 866582692 34877936 428476928 493479857 500392183 784117556 834280119 209128661 577286028 994222609 862163357 659396979 475576212 586630009 360201291 204167541 70620660 884246952 588354815 30913575 100848033 953017685 518222391 749509002 420266760 292585477 283674701 477195371 514457167 716688674 726973818 553129197 228050634 617041876 624210322 831557507 386995166 173219092 980331674 622013890 537308166 929245984 309381364 70825660 269944196 22205719 592271410 784540049 531281299 887478298 96434862 48064177 193022838 338065306 56074705 881427610 252761990 240609257 228715758 31212703 973767241 503772037 102357758 338489790 112062088 105212478 866588356 422535423 780316681 662652379 19207488 720500156 900509044 755769726 827472349 705905760 785484043 988899511 28388410 627919136 957757423 423333167 644332020 485127716 549103956 751250793 53632387 183294822 354683505 331279565 210104708 978678010 785617141 883573304 256820658 75732637 134971403 128209301 494922339 650718271 392684713 315264589 92519722 396686933 241176820 533408918 681415910 172640655 568265830 843353054 882290820 12983826 376244869 329853742 214829011 935614426 823821938 283639241 213840618 276209382 60380451 76994972 851568293 527569527 550093799 707073828 706404753 380475129 850120700 531576590 163341045 440413879 892587186 527101845 577301139 636115524 261948140 141147852 421517947 271989140 481522054 221114026 618716665 169656574 928603272 661023145 187579854 764453786 586118907 863486051 430543713 869530106 656796295 474141297 640108235 472169954 284662959 375406656 717527808 769464771 305123952 319266827 639261546 35760422 667929369 987656866 412968293 852199348 526566644 297203634 68535697 742347664 297531228 448227430 752489830 53670478 455840938 970642113 40472280 317418276 850689055 663789280 54366001 161316950 593341792 177741418 372433779 422243629 876792467 543975728 702507553 818958376 446619511 176198811 691072827 119904296 129928654 825557070 383045805 785909080 446058814 84519195 611939956 715174840 725445910 871786368 78891312 537019397 507097348 706766893 701075911 747536970 599061512 940880713 520499862 479940658 722464556 779879509 255687491 511948559 41290343 516185306 830449830 838868159 435300118 395962713 926335264 748983293 200408080 194901608 907232363 491257867 164948045 22814238 210432943 185129527 433244884 932261598 372504219 706872997 262287748 633308349 244006806 205662535 413703118 696481577 785786384 274423526 445915784 102562337 370387205 559170805 173630655 885617391 344948222 659201613 670779804 201809803 155138898 590651571 288282895 621615163 964480482 234876097 667519483 582776988 870473607 860197962 486405584 837857699 472835717 806331524 845399571 69352752 283670089 103588282 219475930 436932782 640201427 508158382 207234716 767913642 654615004 772807913 792909324 59423271 103289748 798098033 180516644 151144246 4411147 723415715 434816972 828562705 696985340 375220574 871673668 490382994 883470156 82333567 279096133 989584035 542869065 938931686 692537109 686558122 571299734 231697404 647993022 95260242 466803830 764894785 373721340 90657590 687917200 264705003 167629236 512109455 474567998 192463099 833746408 842014186 932806258 5620391 877795715 897584967 597919030 468433613 719071833 623620609 77421994 374289715 640760051 319994522 320425907 641084082 505336660 847483991 58781576 541736931 759481011 16670177 780960729 41315416 820928555 784841716 531617978 14769911 252678408 305124199 165991938 356403473 128443194 559045453 787846496 686279233 641021459 65696060 396484497 874856802 854472275 657693891 365441228 276171204 960729320 364501340 552882850 152636117 220376604 837297281 61595487 153615089 559190293 646526292 211324800 350796018 346696457 615145368 618231165 639631680 325013462 804055469 256699512 455947277 833921952 552997538 355262089 692189985 286884268 392142237 166538691 988519821 382266908 764716778 424445181 71209725 563430869 761697439 340474021 556624834 621462718 391014010 679480994 425595817 697678841 548997267 916118908 982657770 974603205 314684286 959425389 336154474 892348112 129833035 590057085 760837689 288887702 756689664 63479303 887748299 628443875 109739343 657225004 665815366 586811936 351869501 2486697 991838422 397532927 46374613 907997365 371885446 428318854 799222569 740122461 432507938 694295077 227064938 678935668 688876124 490787531 917436496 962940133 531603934 394438277 27272934 556859391 384956565 577837006 148146998 79104046 565428944 343061978 362544408 626406664 147415787 964698937 420739162 831026605 236872720 819460887 241710196 792228024 51965031 255438955 637018830 315937250 680706703 288100151 611927275 218504714 994614640 418411507 580018397 623577964 104437054 666427809 885317164 235159670 737272167 218247668 472869803 911140628 794126928 139646325 725127028 351213976 413176717 710491473 412671329 600130523 188986156 472900333 476426066 764862908 20182686 277718924 751650538 17492297 22384117 445222439 830067335 86849624 337981004 534517938 277953258 20358273 363113795 542898800 384508454 646669958 305309532 359707425 949568740 840328741 536378422 549439934 507786168 793208925 112388503 982183553 698221481 579864410 612913723 152135780 998778726 866731894 157998094 111203953 927087933 915667110 554536627 695733089 479094345 133377425 963684836 690407968 567901974 271997174 734876043 857176079 880728543 410588878 110586829 566546588 396550445 999472212 897027436 134913712 421234089 942127524 549444669 854726223 880884571 364581293 903796966 47694627 838510459 98933490 179223731 814335193 914941617 630687979 584027965 527551384 793841149 62476662 832033071 34435945 504630088 858844640 118592761 620689557 752949527 332178895 827248177 741185501 339275240 625960931 597096037 901984331 149063401 596046153 506269166 643215237 414453263 355077773 926319166 783824015 295897257 902015974 672021769 399722172 260085840 726908630 842091099 750577404 42024336 347775238 342240192 117407025 366774346 405153565 461708503 2735804 454734219 495216682 355061638 631682410 690060181 192035002 985810969 958297877 199964009 124457780 364883637 789415369 709901604 165840354 78797142 624161326 723496383 468960926 679981958 317240312 232717790 124319876 933566470 656228283 595225268 313019242 539190653 265992255 74646624 518542363 994650804 812575264 406996345 328539759 487170808 131106992 15991169 310241646 669060277 778440985 398123279 976937105 605093216 345397527 772963143 111229455 538918146 356578950 458182197 935265857 46615431 685636153 116113396 886826628 419391001 65808166 630367895 260136845 161911497 633048751 481785378 858708534 70400689 538887635 375499218 965820210 937620913 235419614 485718387 394119182 985970181 552249996 426670941 826551817 800024968 60815291 747838625 616740015 897458095 795755674 830760719 741243598 100445255 31340672 540180651 608619520 598896555 105512995 573207854 165864322 161863608 590553962 669265190 777284526 245620590 310906481 365623901 167107149 835849393 643743755 462308444 949171523 194445399 469324662 413683903 427542819 418564251 621616718 815526289 389317585 386455886 192998573 273474072 485039418 673489386 950352916 614473439 994742897 413219002 449449510 818857650 952043839 869728501 702217574 908283844 818350230 371181793 536062062 626631162 705012672 750527609 337907956 573416666 922153843 956066557 259106092 33218518 3160890 882022767 28915883 108943822 199304852 919820947 853117231 621418168 722230310 194636663 221113128 892602153 450088149 370613085 450837922 161610491 621057285 222518631 489105416 482413395 243609237 612513290 181497905 896850085 675164596 742763704 391911584 382120573 600191199 111319 537183199 461003123 793648099 746611204 152084207 410214170 673898991 350522688 533732281 6602976 465660536 546953206 674131176 269338384 277534667 201328393 908979594 826076251 999052161 195008568 134047771 197036244 9949974 132223159 134890037 545759779 708754341 982895511 804031196 693558571 992477670 782348546 166809191 165455184 596877003 777515687 435142355 391142735 913196835 859736463 143162472 562012918 803857010 820001146 194541698 117205104 928268784 681677158 383286871 637782258 514265004 346689644 928579329 938006847 476904213 894613759 390984890 973350874 169795299 822515549 823250369 184140570 192178489 146512582 836201668 837408678 514103033 264517638 432697950 578939577 284602210 971845763 815717552 881631634 808095957 881250553 739208264 491322594 296534527 957442741 825479120 558600930 594294167 447185204 754481447 316662461 411282239 755864723 400641419 515783298 495679979 416925532 215816149 540951843 656986025 773334263 456770572 783857476 266482624 257160569 135984827 279550829 563375849 850557792 54004155 102433727 979479761 645216557 107735249 719518178 792618378 656736207 453812692 305423948 565929530 919214575 316721430 882867446 381253750 145861922 877478902 109316522 768427742 717509056 651900514 373564568 517105430 331429809 535649320 163309130 516161656 865392271 857771989 440770064 870633685 554883689 569413793 877390006 724249234 76008580 443040061 274113713 532849724 838201835 853803608 119231450 957368405 455555618 727145961 259145172 489595189 539125224 39645978 746856730 328731726 102944820 152210542 906337139 463110775 243939081 890712527 977372971 823112579 814829396 296334424 376333517 326619217 351622770 624229017 787103135 530403317 135269315 197865198 918870858 111481494 276345524 410729827 479559534 97731481 80629829 625641648 483272328 840839194 613086694 620447415 534095127 239832299 38290263 537503631 854766943 783418320 71852628 127473889 50222444 688670963 499288273 340485565 770491245 43571311 664582623 857953341 993214487 622979396 339556845 288234540 101439514 147483331 377074341 533947847 264901177 806956467 388807124 906280668 890644032 506781440 50838946 935535353 262817936 408767518 640337946 902809606 74763581 886611953 29519776 201065440 94106024 221720775 403552552 980221783 99511710 322615401 10889164 604037580 449125588 44256561 785879051 213964594 841579240 775929726 499147020 194014566 673802777 246932979 968189280 880693008 399292793 59582694 288268942 376283501 369242422 45426670 340950021 469724981 474537322 506964045 739135804 934320051 476192177 91454662 383688324 644350485 651493991 14807681 281732075 372952815 925725707 270198613 709643562 485102529 411323284 43527447 135680302 565476349 184226545 545378140 290348768 924695625 752210020 480654299 82132242 305087251 463565428 993839285 445863724 795067481 526298971 854027821 987784177 160535467 362196392 220910767 484027547 164221239 906746143 663571569 141801303 902567012 450380457 68450801 339124292 894177205 448417660 216113845 8696513 264377606 813289562 20775263 734140631 231272164 988989770 663922480 246969385 684412594 910597595 230609747 41521052 317403742 668046488 231810772 453039216 755349588 325820776 730543598 22863080 38036234 711074940 480047214 615538200 415506189 536342065 77677794 484635842 473628416 461122483 660686681 561294689 540299593 850420646 183900353 229284094 632425700 86789935 477527448 247702824 647103704 833645099 647414916 906788437 621984405 294624748 199612722 844466673 283201630 872492465 731886078 568814714 182249122 774919561 457760569 575102362 110952321 108551528 631919691 722444305 896465411 19841988 114541228 994622742 992986677 179971133 650045197 138494611 97115546 293537296 558331132 682042858 487300069 708745293 648964548 128985688 958514465 463710397 113571613 127204601 887360158 887029931 641385418 149115912 737937945 323898324 141539510 824126947 136810284 657687056 417020421 356345027 430510469 975683855 388511738 954253967 959660904 839442862 672858044 464080717 590716370 366940291 645936960 96955706 607854814 215014059 694171440 962559425 479643844 71494635 64251280 419338165 328391385 93541188 271921171 53599371 686086408 320092411 129956799 887689996 933907883 116653323 226667097 14411775 282349033 53681402 798285725 49012810 229279914 920854676 782010474 370509853 594636970 119352104 345365819 651833639 431971031 686481157 503320586 828742462 636993363 197064791 983218958 170534547 105215683 545518363 518237228 279706289 862405552 937393528 550380538 18970285 461267630 874668082 962316384 165239798 258762044 823159704 373402908 208369969 608131103 705858235 190018932 961007197 887017201 819179646 597793738 703157823 805585951 333915053 912888473 497153713 224467253 333449981 161129082 988147865 237585352 363695887 577523740 357208041 131609191 730063874 65680178 945575374 430689070 829704415 665338016 984080716 721069672 352550224 804398747 191369312 707009988 312134780 370581815 38837043 758480788 765037427 24548284 427250024 194404195 662738990 82325865 120281516 757571368 791301785 776686021 21042719 645617431 789334528 874413184 26999293 918429690 764843337 955813013 998579717 551187143 386898456 971694504 62538424 16117800 811934164 95284011 637625921 197532894 183559611 738818109 656712452 654218000 262149060 885423827 57183782 825567089 493582186 455182338 93111383 119351060 334727576 424142288 532113085 940611066 571826980 796335922 988908826 247695083 550562443 827011925 837697603 615143931 235935772 945100079 402814760 587957046 43934905 844680072 470908368 877103700 258535211 904311166 109216379 117851463 518669875 471460138 37979221 278431209 550995825 599596982 791003970 907030845 460748635 182500570 874604549 699729399 316468791 898150751 360336331 164523273 387627555 118838011 510106139 698873211 780302910 444648608 595588023 653111327 402739360 127498024 134122857 187239271 920244258 189631370 904419957 632369467 22206781 267263612 478668839 131589210 314430588 590752613 412739753 983628507 767713502 58847040 154900305 405568305 700143115 433340408 329541235 538356122 613585547 405270628 107892404 800489689 140050804 398459008 100593699 487334228 533362666 819361199 483664409 364290650 465727695 331077032 705158344 614714112 199543998 517009064 314681945 201242948 397307945 977564543 162541343 936793972 243626892 617663309 898915382 412832233 926872145 303533507 172806801 390434601 733983863 186023420 449500216 620230354 579607277 357043103 512133025 990726482 867545034 318791104 505988998 892362660 451607076 121313818 546673879 832809833 341159999 39096348 615210360 533315082 867151842 767964520 429643230 707977876 721078399 368146629 443026957 835858638 759238328 113536335 835339278 331787630 679808828 908918189 193165686 193984753 573311379 641672568 243937708 34172668 565788159 481406943 955786457 253030976 129597211 286477100 888542696 493821700 104444861 146447227 944311946 468308104 62202007 349750322 979681720 225217475 523582131 860812726 937077518 720156589 203460053 260935433 325946107 375043690 619917661 605762645 611644896 246943223 90728823 97098064 188084576 437798759 458667216 885524177 219553023 674292159 768107236 351210072 690745631 577466869 880982775 764800920 490655537 676983060 218924976 68486150 25935301 590572828 404897354 252255498 311988539 335313032 422980390 721704807 575706335 134234834 294551046 664044080 225642445 849997043 435256023 377101152 875589905 676180615 437317162 410222808 522454337 36673161 890191885 83906257 917920934 690760583 369304615 477566414 725517457 927748283 680521811 803052532 842618877 744266316 973183971 356259475 665234887 781298742 375293222 234849892 774744501 190767569 319968386 700647028 683139277 880971608 455776495 756588207 549615988 252859083 552344826 945921301 391226954 196725785 466194584 499550371 295363531 672104445 362765700 794686255 926489937 354942057 586632907 495397514 397910493 253093095 395391989 223824037 778245481 896692137 747317866 78587466 986303706 738764580 921205746 523643655 583996777 940687663 723508799 37909901 408904541 962620182 220040256 40666304 421637899 197067942 396832641 866658555 882365984 925089360 851276568 709391549 234104163 340414141 797778067 633986428 445959393 351872509 182822527 102524039 467785375 223845921 223338627 697571843 875972237 702921351 71717903 511432632 196849183 973934269 233215951 37334048 76507125 339691204 24851943 630974517 77701862 575091596 325964051 871158751 573506158 343555347 874435971 478141877 305798081 775955289 34326709 694344397 198912934 268171119 465362175 470665750 952830914 406793329 514609569 241928032 656202173 815530270 515070196 75961702 57826064 113524383 79073996 974058986 809555064 232842227 332720104 192708074 663211467 867901051 162374329 218285989 755840009 395609721 160793597 250142074 79387113 1841379 157940121 597863432 915471753 913758190 847360315 138617131 651949468 583459785 121697444 883692906 385659161 97820430 208884927 620899315 332399200 199438459 586798459 73359419 129686107 100238715 974965447 851698150 26704483 579002528 98040671 839490693 279143162 814205254 294351953 374986439 882270036 198577809 388236541 596603541 179020147 896799931 34340101 445854481 562117326 283761048 632764384 487432382 126757942 166963538 588867274 750075164 406268119 5405255 994778979 728322339 463704311 345544468 420199983 852035902 678386976 918086991 608472467 856251681 184521499 889474682 295038279 435905555 108885666 998673482 250778352 407747320 847381031 588935069 316362136 829782162 44608520 609579602 561497896 851786618 77881445 232934642 76596172 565823654 612899343 298045305 229301455 698405314 633481338 660078337 840542976 649056056 267887546 467795711 511478787 706046403 108032192 4189116 776090832 265833341 489441040 81133109 834745533 519379281 191019255 856411429 412394105 96667068 943959993 393957767 368539735 455531377 791074147 288154905 114930867 641126281 198539814 979238176 772167742 870113690 882254449 794000570 598119796 893386890 780461069 378339032 716576626 893655513 98717913 571932733 851713460 641060895 187459142 824406445 378148593 750367788 23149638 9039096 220620008 126900543 122186321 171736186 159766851 742623819 26547517 370162624 948293501 551810420 994802586 734772015 324732315 873616939 539670084 497422330 17108328 989973945 799884836 602172240 735031508 255069728 692993771 99724556 178002229 894969564 290193828 175498917 255321628 645810813 568251772 142618933 854017011 446625099 461637117 307286244 247981749 169922367 785011437 931172511 215011063 912203086 904657269 156378544 536094121 796918596 162600153 675323462 894482755 141182906 881161002 960294343 845665416 218163574 2086797 858468730 131349043 324805051 655607393 474075930 378627391 454494012 234940976 445654140 950373654 781258466 356054571 110270908 193189802 550270817 850538212 793468900 149837945 435910424 588107842 22360515 928335438 258049245 922000728 537661272 83874283 888051632 107441833 264440641 276334608 717282949 324569814 753953818 770390137 229813567 787368906 644243840 664481802 341293861 395538413 155769828 770084130 330149377 729601199 201936164 550490747 937299872 44020516 177840128 67440669 289064467 68279159 967532974 28182079 47676877 492767000 275975183 674489190 224635521 118172323 768924802 118563718 531916592 985819832 493913903 348388487 864676438 452812204 551970598 489844427 395585445 398152014 668888241 227811390 242952189 328192746 774206373 147514964 391849973 992285683 604688434 148788588 5449787 794966144 3199781 270428750 181840433 373025071 72785204 105610088 407044350 278675017 23084469 255561896 710824880 22657307 629282145 325089624 107123336 607200825 507180049 902246744 431637775 987494283 938405707 89599686 984335526 732562549 701624459 769902338 78195201 779703451 999942239 473478147 677007574 832727287 43217051 386004088 151524807 92086962 45422015 65030803 35804697 461858578 37406672 267940597 567206900 663639469 988612026 823266753 941543748 197592493 885112940 30532870 444480579 619761883 843560798 522861190 3815149 363479540 725826069 378719577 257484923 339110090 968736410 245534346 798759457 376769371 761052478 101314568 606954329 525916191 779494973 773852370 79408371 978530658 160229892 162526596 944849455 275857976 322946536 838069917 910306900 25327774 568572320 457980411 695691613 607727457 290675058 300691435 380013494 891459045 342496447 125978778 111907886 407443971 975068525 614520262 422914293 407585234 144809436 194540204 862575587 959260769 211113171 783546964 801781944 929852825 347142832 930697715 668610196 905863682 866303540 674913611 358286072 829557319 442802033 820096146 513015692 211204714 604305718 503197443 642717049 293567759 650708336 868528425 887569597 188428028 145355308 917768629 852797215 69724641 151759042 116620642 845019989 745880896 708027036 885313260 721639201 127881665 72110164 693298296 638101930 384849857 650854493 983203835 884959029 675114338 44032872 826396051 213725531 772772337 875398376 1227247 280660643 990780583 568238436 21056249 206286300 529096607 327804214 851697131 424389137 297075550 110402597 512662518 732621291 884362773 23605209 940793315 458450562 940613848 869712239 347923189 80872847 917958345 815997744 794976021 44704258 871566247 151544591 88802991 164464021 746839458 646859123 885912335 726955612 612832128 400023779 794797186 207021084 967716223 999383776 414077894 102939542 996625052 719933910 263959509 802933040 969022294 550875559 789327618 49107058 510883795 320911444 970775568 135397073 374657754 948501968 761217237 489427097 657472294 205332443 660601828 395222753 341510716 943828732 263149874 763735183 515649631 766311201 556332183 493728267 62071827 665856200 840305353 397794338 85916286 87551616 755371238 146167356 976248358 345351300 913868377 153243168 53974826 727972971 869741042 602237399 816850179 361870794 486869880 197426525 838864931 665306832 290930665 504149870 999979854 743962096 991840709 510397344 620689621 964935080 889508509 859272844 677833691 791480859 265887836 203329152 919507508 912979892 445229177 81492459 563011809 415482452 729993139 645473327 527995816 198485061 109914832 856821250 871175170 648708943 292659117 922030472 136032011 133202294 98174477 113158854 583988027 808394344 191574715 777671848 382258953 118927947 427491357 106259296 44508709 135701620 290927155 12509139 656065100 47582889 980852140 207341653 34002712 734244946 534976723 746945061 792361942 31181081 854570272 428322311 885531595 997451667 398565507 11297282 420177863 174224090 643590199 344234991 396314793 294360517 90247907 405472300 367751683 752342153 488950034 142041888 939165232 300086493 308514737 114357689 619228306 622640774 263693073 938587049 422158643 883956010 731049299 741744247 862518976 499596043 603604730 899932377 637507246 521338580 668274431 794424928 176479886 516246679 468462236 944616209 743294236 205833804 266002516 598038091 13549814 83880124 431974486 843441770 649985257 589761930 845278617 144298869 128821298 438768293 706273148 136771114 724894356 303250622 911695667 496856154 335599885 457549936 516392648 696149796 954469321 260228239 747497252 441558670 203347663 830865279 378970182 417276946 474815946 524103731 530324944 94493165 813191856 781905983 685248714 836791286 764273547 223587879 268707194 505203350 453123043 303295076 307207749 241260430 224548887 477468551 723025867 485175638 286739464 269235900 819244444 807840413 166060693 333212075 822399109 735469878 310708942 380656567 195149395 509987139 43449684 773734019 188707078 710350244 540976578 170761066 142104075 715882703 22797856 963372330 411607204 826706837 310536941 860013574 229770253 615023895 283043587 365613094 718682889 873074853 677599713 317217087 414451456 766017492 155739406 24758374 4626603 902701345 9587032 339697808 280365517 647781487 674218113 760485566 758656126 595220085 82771388 266834285 381493036 236760296 613212217 991917748 517314196 93426845 288216514 673176339 847670558 298244805 80399870 764830775 385376941 685871444 422931379 22844411 515250335 9479630 777971703 187493328 109588080 93676312 441572167 498481338 487099540 443760787 836460783 609100862 60649201 976749936 410294804 297848910 563219531 784218634 785189765 706350906 908909307 843277803 651778582 530219284 680665201 103475089 187683572 322854962 356123410 39385324 275521450 752329548 877617376 107339985 763712234 520746154 565852549 596811045 28859487 981485826 455157994 990199925 942440459 681789855 434043582 883183821 982080843 986739667 624018852 709704225 179834740 486446879 479976229 310012900 587071305 573179574 483710416 18641881 669620532 754589247 522193559 692392267 79574856 682797681 96634156 739534973 305264807 861101107 445655364 622070593 132891423 599056253 478078404 957948936 696768487 491553101 613349730 324036490 520581000 600252124 935519743 146674824 879305108 797955886 734350497 592240020 482975422 202250188 595125613 956649524 878576869 237450441 14554368 835560504 661765584 220619817 239124549 155587528 253869318 130432956 928036690 495722988 265220796 506481446 721795289 225186953 537238532 939741439 138153884 331614003 666408929 187715289 829655833 605790271 400817879 326673409 264437106 735443973 597152903 289019152 786751959 830604397 252424006 94386538 139864130 855547865 195431523 998669705 387694261 931008432 644978340 278619750 693752679 369671029 982244905 582014351 939000000 671621444 339023499 391043065 246587647 895455985 64941995 883382494 28460108 656943084 293849168 621012507 527015300 810005291 53990242 846087310 861488846 145068228 945941373 526775943 256877326 346783174 826042187 126032931 556481196 359440529 37769390 1521217 829142419 603787524 294944207 354651298 685168019 728366543 326484331 829861441 869040462 728822198 312259524 297170347 149473216 115229990 479520678 373939078 686382205 251449248 329716708 891264393 164249733 505321031 480572913 468352588 678606770 756563898 516743178 91327042 768004926 659395856 698709096 667583126 963495564 159065814 688869548 108886030 768166926 598150849 158173781 505032108 515769299 538567398 1792368 886091118 819916066 842084486 919029789 776250474 98632785 735508724 142757690 871405643 633504663 940140676 523702614 438943360 920657415 642825144 753064905 335281445 867531557 576377744 860737575 225647483 738345907 435966728 605855664 96008387 485145727 546293883 596680298 588959970 5736812 305071113 666111806 63613538 136188960 705084360 324233454 591389917 217993125 792582477 2192080 953053749 720990141 662697076 537355885 611922286 774128374 99425704 945950294 963383142 886365060 185057335 831744909 730984520 671236781 84061961 960014285 31988987 157183398 449000317 326740798 966550319 724397046 937307647 21208595 854760536 383720938 671299686 441563406 413895245 268885678 680774583 840768924 148976688 934498013 560398559 446673572 773888963 616653456 176556659 311405850 473423086 52544341 945706669 135280367 454977767 481565064 664641446 597048262 929633868 122125843 448524295 888534831 462143631 114831285 349757938 267081156 636980544 676177446 419265107 939447610 786446638 557391834 771803428 931242256 417572316 892094760 403028447 255149676 569362955 758490087 311053997 365620234 713276407 962941122 807703794 972673689 93428596 881450709 641758465 316009183 369543842 743837561 836359193 553680179 245832266 610557927 42102302 654242727 277272965 397352112 768136114 484273726 630499478 480790007 995338545 991984384 732368488 790259164 951424974 15667722 603328420 5287719 524788103 577766995 229650743 799711206 787041241 279589101 763578385 213196011 608704920 369298167 642662504 901553376 487520105 984710151 739129865 304509713 8866249 557391798 90290991 361132318 784028726 742681921 660326126 182113195 834424812 663182288 876579128 382434268 48645582 36093734 762214104 509150699 783931031 470324336 513503252 505250347 110956972 15086985 593695867 40277973 938608877 921124791 790745982 689361824 380397695 178684919 392164351 324436852 573464926 527006551 701783480 867505504 129606411 769685586 220734500 298082126 109353732 111122152 56354512 636860990 66910706 225233059 303329968 187790227 133365643 807970338 714309455 663704539 862035679 668235360 927165229 398584927 121009632 808085364 570971373 119057286 160474377 600587032 364621275 241404278 324856415 351588960 237944389 361421172 309985164 429231827 173880473 545807474 688954417 482039642 958574268 304625932 162547849 140892236 219098695 94635377 680377863 737499407 892905947 394711986 653986034 37763815 167686196 945700625 933366639 576008978 940380292 220287946 247019861 208623210 995893372 566682162 315007524 445371014 973500119 788811945 986920957 751967047 331094355 866796491 520738943 553220039 393436375 218197810 519395655 98030534 413269969 368048178 779148619 95538829 715755855 439376728 786582404 868036946 33039089 641560003 142050311 679463536 139738961 325829861 170436899 874998129 192648785 803897922 440105981 57093870 961266104 640025418 319474529 101684200 519301177 402904124 379119872 767139426 193421199 334811035 471762535 827133035 285073961 737682526 816903840 260593897 173109193 257490605 449685732 14917349 670871735 145364421 403562924 818675435 927441111 458828898 707562827 748394208 217314507 168137327 302440555 714467119 632410951 100610028 830040692 836617899 241512688 49474633 286094151 145901654 275312184 145627466 317978335 179829741 49232766 517614072 99747552 499346248 387497764 970496521 328626927 609084621 683357819 798661204 239952808 707191461 287254820 9783803 656476272 966678993 331111955 690124530 747519338 791995336 833972772 94196291 84812388 312268751 889300208 890143721 891083803 752703145 374203566 537692157 565619983 124640352 375797531 672200984 677914396 190246559 56654397 664710995 928378360 768790684 81148185 688997957 3477580 889094714 361645704 345568587 69835410 660921156 996141331 889637068 986047953 558103340 533744832 35528589 381415100 986029433 917262091 933098089 897945742 175293405 423350104 288420296 118185922 421162017 4107605 917681693 454113900 26880491 890389205 315127141 515279394 994752724 377660128 79040723 412540720 466853756 634325896 635222148 495206394 152420511 839170051 681959093 296096035 720186982 559864501 218056314 788700968 571533308 740335780 220910296 344983438 62357302 499253547 585894432 666484944 600495533 21316567 227726511 731410576 416822505 829131935 761837056 623173201 267935004 474450339 468383804 43135260 202023467 80355704 911425859 325116711 397629911 107253114 750667852 400217739 337286743 733462042 353609361 392382474 5462568 583193514 350032265 39799499 782797514 875927897 214475540 439624931 46979760 444839711 556883034 77849370 464718390 123219834 380052171 368804618 986913785 181021772 79683777 606650023 887637177 750739933 71253531 387486443 298502535 723271281 887958135 507187183 892500117 291173789 132360679 102751105 976631947 805430336 95063998 123240106 951413764 605270780 791753905 994097278 302240060 135663350 148445284 561977127 304717276 31339799 93154702 342100697 124268060 741609836 839429790 417039450 892411845 620359739 92554653 234107071 26849124 578176366 328232354 415035706 4764256 709961316 396219181 115543409 446163616 708027884 345217348 342707628 905984927 475458807 119071660 885199650 924293044 831811711 224451369 726380797 525999961 120033266 690735159 96906354 492831032 326276141 328653012 216854006 218206741 776343304 157894136 519046098 634099904 374110354 145802550 951469543 238784054 19323515 513219011 208813756 305216230 122005821 703274001 337615824 346746948 697453964 975530117 325641446 45253570 329893693 813017910 71873268 667506802 442597811 702553265 538942252 105258812 411897803 65916078 660542509 81042339 887344395 251291969 49480007 75284832 64308557 219742001 21836475 708619420 575387986 488520229 671693197 223548970 964028565 491439160 664643565 709636176 78093625 17700350 950804686 220917529 202472119 789993516 577573745 480422947 735119428 18383154 816459673 121518616 174511455 971318641 65692221 697474087 740390750 32123762 485271875 673659657 888813515 214975430 496710588 883893485 809172340 9730468 931492330 749869138 52883360 977686339 197656267 738719050 832779451 592715242 22577572 540290132 116494379 659906006 609782766 799754374 731468898 967350381 378648461 855460256 241654249 1226454 13171221 31064198 441882431 389061988 357912916 651615078 264067241 642844951 840335083 31855081 948290773 59247800 954295209 149390909 840182998 224765223 878077546 468057228 296899067 349222032 946208025 225857929 941751204 243120858 774610090 677997970 722312952 553076641 195853068 712909782 553707222 623161780 850256836 133381601 136710184 531976870 576585633 300079967 751403484 108803897 23441051 569157338 448270309 309048773 278907284 837992582 762605706 759566988 450182917 567631338 208230362 821636541 849309171 375201684 500604815 160404989 485502532 585936541 225861727 231354681 606903126 879927660 273417563 657637752 25967846 317980498 271230927 926422096 271169119 337208826 510732590 916420626 597279472 644650373 291006062 941006511 3129826 39642883 682207412 531139521 743843518 709768490 99542858 550551039 81976800 134900793 598036896 609751934 347811477 873172682 890915599 838369415 757829387 807585449 892026142 232101200 716231657 15044107 874911760 487513973 356044242 525048686 77356117 654641010 892466386 752823079 409407961 102501438 294620473 328068106 641766971 187081263 387954120 806044368 953326992 524154547 930374933 629529692 51358637 588499838 667146320 953855994 609013016 154845969 599060082 443726697 160817927 508195336 844123172 957145133 963820158 282332143 800282632 890617971 522280559 150720166 958250883 822893570 519257108 445577983 866905099 898383976 32373205 423158713 680377812 303990420 850485058 973998395 316759671 46181201 632009533 966955584 467228132 385755247 992379351 483712142 497354955 203392404 485889726 616302012 684332848 760796303 38034623 528903884 236119238 237172564 119893203 83288295 146755710 451151283 362438888 568181013 436653618 89285297 997095591 487538740 755716747 893653633 407104298 87196932 267403374 749915997 92758626 86053751 527139915 34704825 604274093 954519245 849305676 215554917 159799539 541526807 209069668 709577230 104981463 829260468 558736711 821894090 734198799 215159889 930570625 874226857 290147591 200715862 18672021 469647120 145246180 843826327 862049367 432872814 906013514 863826761 232722573 588285587 72357536 76684980 344380534 156251056 318695698 168873135 76107932 198972451 431730193 631764581 305546452 510132903 754238719 162825349 423094011 866480345 959004722 328496128 676087773 833308032 960025744 337435059 688767172 45794198 911570919 796038504 438725308 500283101 619393290 907063658 104845758 26834601 164543024 384928645 262274334 353960198 218966941 890066498 850423301 409689486 105142346 695119951 212752194 888675253 942902263 335582799 573966444 667135340 791038646 172044316 971418483 331430370 899989418 106575708 351830667 439180280 476646574 566397598 391829617 390991017 377237003 619739586 503680552 906340207 34686396 958482115 723049041 103032430 294448726 644355455 217698112 972388760 979753512 377047361 914111193 207371493 406652842 450094503 52360286 283837408 386602057 475913164 102294996 621067142 97160134 876947959 340256194 316550674 480356001 358233789 425629114 770605518 984987559 147991432 437709005 939695307 297583351 505804038 727909324 972630836 634183774 170722356 151186711 775931893 795859399 696614808 167328814 548282659 599356420 561659015 463611336 825110645 949024366 654388027 152471445 939982192 243498218 810590921 700744694 947467482 980871974 171630888 961173974 937731237 217838270 710739771 672474929 480486878 554042875 833486043 420077599 735701093 548955026 647198896 151094609 764131122 674754531 754234477 646998339 607497268 228017091 209327965 408788773 953698059 949159775 116393235 203255174 283453104 131104697 555387440 700368822 898614653 370210803 642951744 923534329 686819581 624391458 191130027 840995726 224614539 861184423 194217691 322594494 448695447 410532360 559841584 857917004 659999365 201538645 815004737 504562797 763948113 386250395 518301968 978666096 509964058 766224976 8753045 1664706 929799622 472801751 337583648 417593551 999884573 893568421 551506959 109007260 216166488 608367892 328565351 634786382 121975134 508621732 49190318 861863376 553811066 999899799 321939075 170979125 466738919 51109021 905807241 421548431 289256790 445680536 691519714 976961396 291234890 642453504 602829657 586837201 763394001 635524742 634460709 934786039 174149391 263752593 812768392 654567819 149276087 173541270 464545210 992917461 620175983 514204288 49997370 958321507 472640795 441046058 260214642 407257818 179031473 151819200 616364563 863906712 960609900 728069631 583605479 407883597 591723736 538542390 950638 512676186 249558392 145998785 184776214 320802887 499733258 592979350 928465630 31385355 444028226 482544239 721591919 501365128 697173498 571639554 566105027 424888305 729148510 400512105 165586041 441637836 170364280 808019420 210599859 873522152 85308201 233286258 428789694 772431790 550338017 100908686 52303987 798154454 611106221 756992439 60556507 595774598 859481741 90030419 483014203 95655704 474197068 7909303 195307973 313647558 639573300 385822618 344201387 874557904 795187480 578290389 81755468 397860154 781805731 660486318 903189569 661591023 679230397 761205563 265583986 944036646 253717389 133076304 868978632 514801498 395633985 28622978 291783103 164289141 942829006 268895308 915907477 574026714 333587974 945429414 587149711 477205385 176670551 150330189 456503084 188851829 782113362 941605546 915239975 706280199 674358451 234053643 361565373 517150470 805924338 517909983 87360915 401101084 513947077 673061884 516128432 217529947 373409570 483040065 447238945 241987216 781862194 703511028 969181636 890067019 831368379 737611216 565969367 768292667 237169979 294157032 673486874 251321294 528472345 505837349 361784509 771131338 627763507 581119753 156482533 554930817 158051744 331104059 427862574 106452980 446039010 506221491 582181303 210499260 836491500 727777890 592732104 151598731 798803083 633959898 509073405 398793417 947449636 75910113 972634206 472229542 91308163 577354447 775095400 855997376 15248261 330866685 81449284 788972706 784435296 448984477 814174872 464378529 650394151 49934914 97528911 950649982 405928039 749995848 901666434 115479507 356273450 249308805 531579192 601059045 806445081 394641463 105135130 588228912 283608922 372948368 922804260 191583674 794744242 600818016 519208502 176712291 74077772 823763928 706089218 694392275 72301245 496125855 279126502 158173619 32221621 688174292 465978248 404526849 409203635 199839666 181562160 235710281 572050358 177654833 446198442 870235457 363195891 266303212 479083317 395379230 938594369 813135564 546026713 539557641 432262444 900732519 927493563 719172998 474486054 780975309 691689798 848656033 578961050 575874205 932579074 88281685 174354811 270090707 434531343 579166088 879963892 676503086 154976945 571923856 574309716 28607678 367696460 107759334 531302804 326303490 322070850 880501980 218198206 486696422 290160776 32278543 910876833 449068173 720947386 136703615 492319449 654414458 906595912 827492854 838088300 877860420 95778407 685940090 902400279 606123723 224598484 551104923 762765160 21955437 795163508 270007011 75573644 651076427 329041085 285845115 606260305 608289190 670652915 141385825 582494970 215512251 880651208 285611981 9228694 954378493 803520991 995745039 158955410 719906651 761488939 633406139 708621317 214621706 408589584 975211929 690592803 139935781 83060657 49393369 695997784 658737224 999008731 352423432 481137029 368580926 513768931 727674097 605699002 854731128 270992228 831865279 706101969 532544833 287134828 756342130 122753361 715814238 830818707 5494539 250465100 997308731 145135519 507767537 848019423 679063465 609209295 140027095 551751641 868231779 874747881 333355933 875537087 583078195 153062600 393582014 273865157 69578295 90249163 4035280 790839583 357781788 65122826 229326420 21410501 871253720 907338349 413860495 394749729 672567715 269839349 616180627 675635660 939690312 278857146 915434289 700605564 645529526 812723629 651762870 862833017 289904432 269220748 299218613 127982904 338799984 48787919 671321952 159138491 149361333 727076237 988768434 632742384 235226630 785486887 547651783 216295333 226064638 889694761 177848598 309366486 869551730 787568411 402170053 730653696 853651292 151503206 360485099 683240142 652139578 679901889 182445588 246262123 160476541 520214279 989560309 380771355 251006052 63973193 218511205 343241577 626251326 555887999 362938568 845261624 826532955 560984054 45275276 411540869 556532906 675290077 27630383 543163194 187009565 863227995 841653771 703074929 784297595 428125979 953072647 530431394 613222415 380993330 367178716 724805900 85970763 938196518 598379178 420534707 556282288 141221450 297685828 461289133 707436780 688431881 120844116 528105861 795016362 298637805 879370861 676789171 805505933 707763987 867084239 752458296 558702230 123686393 722674084 248173482 965222280 882226918 449795957 718150356 276216200 57935922 579907771 152556232 982696043 61857647 814822977 954816998 116208637 930978329 505791773 383376822 437476017 453418657 416057341 229796780 907252131 983136701 66949791 960565300 470087756 328411133 411258995 342754949 891247321 675162982 451096840 663484541 84507474 114121884 307366074 582849076 675324208 102305348 638408512 811063601 144616607 1781287 764335015 45171007 327825145 225807930 492006123 884996332 205388245 907372078 440666336 855205659 858371068 996977218 559216338 767124947 933368093 758763331 637290127 785841435 839267418 481109501 108045405 480794110 622373645 78453542 60495543 153453459 857542172 956724567 297756129 191487154 739223675 989314099 132366796 918764500 26844683 144122611 963536753 616838448 411761920 542501475 46233574 281176693 372287288 478089057 121727644 996835066 210557258 239748122 894596003 182060961 697188662 624197826 516795444 243281216 680917204 394935614 494570000 817467879 185075634 727646477 574581009 519311118 97004376 950429771 731569304 752792260 391687560 349373514 549621856 186230721 38540969 394409988 200126882 88210883 122062529 112466627 308469138 29112325 483224569 336865991 59850568 698170419 642516672 625974765 337881073 480227701 246818757 859942566 306817319 494260307 763047627 465592025 391946954 144956843 717342955 694013042 658474057 612418144 45048523 941562771 788710483 815595300 438578356 234917659 557161991 809984271 581077811 178954237 543386030 226510520 528912320 608320538 440190012 375755605 509165874 242648517 84897723 378736668 193947431 707374634 950705836 732769456 413569443 813493415 526874168 299102147 588223270 126771578 283355940 8781924 283660554 532680040 637230809 86018268 692440081 729711189 129639210 187836748 310418850 809030855 995683755 33276639 877655866 928511920 587364930 434136424 888274318 882904892 650215143 733407938 66813984 431243763 638397394 305762129 555113370 977823127 246962143 418569542 887063802 30151642 387455743 797520296 476793332 34001758 259826964 454261492 30875187 910816693 745619327 312462383 366754032 848168457 724534305 666702968 915537732 129347820 883428088 935592920 682800510 115892283 140796884 92750696 906900116 630920382 535433327 281260706 58543715 101906744 369910858 812366427 562139877 947457068 394443401 935340764 380133660 200645365 59788039 147201473 258682641 243749013 142365101 284388069 680987567 915681071 558621147 159561990 614220216 231582741 321629858 403214645 451541046 667493294 406556329 301440716 573935603 189293111 876699292 117253923 52329981 227410540 560105225 977517318 208973027 267348851 190359978 977120398 106529280 208374324 927809627 349667648 759887285 809165194 746092275 793181144 788433592 568661991 443415102 285448331 747179666 953542100 436520864 857183539 485027216 471667533 275119653 63457658 649133214 59277184 822376180 226708055 304381807 254599310 694640486 76030871 438440892 882427665 709128029 929178277 175308614 86361686 274084473 846001259 902281075 490189873 152020792 412722378 285767745 230871924 894778706 884282257 474272665 54645536 891974832 935469269 388042994 373110880 355333495 866900933 952714384 166189547 167696858 975989873 468559976 276120322 577464437 120658810 473057527 142092980 542309007 21587707 78720779 39351446 591399225 649794841 94102358 105359185 834489061 633960268 303965962 752512739 193037743 894537303 950684332 9834387 523882172 583338328 281391046 518398664 176420207 655522784 142294698 455388853 28141666 102472104 471019488 724884992 169638128 449550877 761219425 203116049 518695508 924090030 898442931 293482055 75602714 490356224 610693530 11098241 574884325 6934569 294238816 728535725 511461292 160242342 762790297 916177504 219136093 329572633 272895747 797240937 422694732 711335818 174255780 436234040 218957067 529862425 865316998 894463512 779292992 10604013 665933645 87465439 673769270 678258944 417063143 372303163 452466640 882372522 443295478 291446864 727745740 825032566 635354317 495202378 972996351 968343598 611835265 697842617 505791896 995327101 616454108 37723656 191524756 656256042 582238315 46979740 491875183 709279977 193241911 190889288 99633996 584413811 129771727 349914046 917950868 202802058 984879687 159654983 957278659 789746450 667562224 71097475 64030048 352277829 950190760 82000485 522555087 957530745 534531258 857425354 297039089 570018045 348355660 903726094 860082522 132968762 455285111 429573624 183557626 79394702 319394961 946042336 102770932 678443159 143264470 838438138 763192784 649727414 206177364 212638839 87791116 798938799 213456099 574339708 725394437 865245344 647691249 489414931 983531054 669699703 732691581 293887091 479123923 190673496 921231972 30849798 145475081 343333664 639775452 595332735 251175384 620243940 668514407 250092391 674760839 301401776 349870367 468565051 639065800 778283807 295058841 742946933 969547311 973944694 202385952 724455566 654218484 951156982 657876514 291589001 926789411 488771989 659186271 367297393 839410297 385904963 55073076 367936197 450189328 444572074 43098401 138781140 664732362 584001511 810312224 493213855 470716248 303202876 203333748 787661239 784131945 50224645 281927517 527899019 881342049 486841957 696890853 21742592 465799126 578952633 336942298 499603497 382573035 55924321 6069305 603557253 503714769 933318428 668976586 213458339 816172988 830519820 14827808 751335596 126087120 338614625 874784773 614335693 317000305 197164561 833689733 329512646 77361749 569888491 432600443 653931411 202826052 865014435 400128548 113976119 288016207 484274002 628126189 335131145 140704541 918959709 478540117 155019600 66590223 774697815 994300355 270482671 41201393 691425891 722310004 571994527 64504256 727351827 445185139 121626004 495878512 938479091 65672649 31985182 682348670 226080782 462546591 874974795 165401824 630183170 700868220 859155037 438458779 30316871 539169514 936900454 657774229 804190369 200999133 188853594 623732832 988111374 550631638 668797086 446869540 389643005 613965744 146157476 738192564 999275479 971294778 709949012 540515247 413546207 632164221 955955966 417385004 797834381 699653498 539084284 732701767 956880204 76605350 270511597 93593687 64140390 671666489 606960775 62030165 536637884 505814639 138443404 712083977 778098121 147738642 262764272 992585310 972302050 884806026 529480332 276737193 970497152 421470126 186517318 739102247 893579331 268148207 517524276 570667992 843769058 792458669 45688993 631476926 467584909 120517347 171589321 678504532 243607990 847175412 754895805 558055943 255219276 764543561 333009922 805202372 408408755 208626919 471395160 609647966 827995958 814159789 994788903 847823866 435050449 559011734 837974604 963626907 611618884 115247071 766974679 40633518 259931893 544019964 466273163 514208695 862243406 807046077 687385649 458417274 388590928 490514116 300993473 395697330 344700959 965458242 148925398 676940788 124552627 419223603 363261161 70338723 33301301 42334873 543360200 60624244 943114074 330764416 482502663 24196780 613503126 758716999 80036104 121364572 953434815 278404631 63185282 76020761 592904397 433764600 65899762 97030548 549674793 247635801 723682191 482202450 270551718 156443299 169671023 507597858 206536853 974641849 493184978 923263861 574475584 158564676 466251750 576716074 263397523 417267294 220165060 991787658 214660674 150149365 628477243 297317972 428566114 907727865 693446997 717671852 885546097 880847616 62002082 477501484 987058309 685444796 864004571 610335272 231030471 163235724 801901300 469586113 885777863 362800584 993385964 455194364 722376719 783988749 425043701 980682039 33519832 248454022 399580934 356806498 2716683 918502633 913807530 680638028 886402684 589299557 662006511 98612240 444863353 65204129 839608597 750533791 464258586 483473688 511166550 537643215 841690299 951191978 950116301 419155399 254050484 419026545 256072808 933945059 361991390 9111590 293873113 344738553 154081888 188696278 772348833 735302321 3680232 69049961 567522524 313611703 117420099 587127509 396265573 431626678 171326647 393010286 595149640 916854619 846871679 376605807 597993630 447315305 445071536 531344257 110710462 141188814 615326629 555837586 334046265 336248663 58667049 206539788 866708942 146410555 110031421 607968289 735147420 759139807 620007317 560644576 56883053 859619427 768856403 634334713 341996859 931187429 666792683 382801295 933537579 347642960 437490017 280487742 866230048 90567102 206797348 253226371 147749991 594099954 836574670 939728407 75966137 526690330 459043872 533495833 489459119 961711246 394308316 777718804 833257967 124116109 727402224 152183542 520602387 944817912 100179599 156807111 28231206 524359062 196214639 495376832 223909221 335228238 967964849 812209673 166601629 530242638 306322757 262162828 710465461 59844042 436089622 198229755 215523230 87612862 526339488 739786448 750683968 146120424 798103333 224230794 254110979 360903731 626481906 66672654 295357046 801767041 257025190 459794172 640172120 752976742 702735330 139667297 712704401 468731240 361817881 450625133 496877073 156137986 958467227 842587029 624772491 616035853 67647875 655311001 115293684 742704941 580545983 282818739 733807005 752622010 887481123 876563849 892302328 549264647 790858488 61097447 821555473 254839023 931874520 980664315 514082197 517742372 897168237 283056508 320661791 577854475 971618024 638885314 65267335 913177383 710778288 526258713 625253235 542370671 951015098 684712598 329706460 154519668 351510847 806671617 788504011 967005034 756053740 640071063 902916470 119247160 408403974 235402375 327178084 891883669 834032553 65310045 988502895 765584637 659906178 73253219 35284877 580891577 307385285 674944284 191047850 302808284 220831687 148592888 845179829 918537296 58534633 580120406 218832542 990566785 21619620 730913880 58279624 820027436 682688137 946083178 378457311 146025686 592950983 883198094 489977160 690868213 941090943 615735820 382353813 271950280 500682984 820206409 473169654 502046307 798535083 649093910 170347567 586745190 331240826 436564983 846325313 815147341 380200265 1794498 739452432 30011686 945076557 468707919 22549605 206102039 433298980 851329275 407132739 935214430 190325521 187695004 596793868 261684027 43082129 323425083 490778407 537735388 302853386 20619315 762670355 601041192 45519751 55858809 491382094 746829290 844811570 798706657 4190052 775325829 993547712 387385526 714316135 805850287 54410525 990292679 53688086 358560418 515050098 812040855 173052388 261431861 507248764 313507614 339967625 730911299 867724709 497758435 627387574 504648273 382199390 567005201 230182394 218860330 866586703 56690484 458468644 130488216 405231871 34286775 694719737 559664074 794617206 631274073 967255122 695887931 263497923 689905757 454547995 645463621 205222329 432742030 994479136 13261142 268384679 488649673 196714858 688029653 421749020 119722343 78100389 555796466 295095441 272440462 276396732 625005115 433925744 506267897 964771162 4366668 570596272 410873975 764273884 50569285 123445802 704337328 7021935 555922029 820751127 522984009 431071400 33523729 646057500 675042812 188121909 139151902 730611906 136850661 539677412 109181022 89835439 299146302 446817358 537763109 113926055 663652994 692282753 868349307 226076954 378067893 239145825 458257628 496255996 748238542 68579020 265891652 95391993 766035503 701615840 153451136 646618352 468451846 121144836 144086343 718621887 326717961 907872468 104774225 210430381 325552908 329520369 878552029 602997679 479603654 568208276 612157894 871724605 906545438 567019685 323303163 124376713 885123155 460193502 860175934 215879657 724407731 56625427 7432778 290779692 424614904 746267466 284752001 856907690 720093317 937930599 50897099 713124775 138241490 448410395 51432535 279895230 538751242 34818889 911340336 822631921 953324521 482939980 653657115 833794729 667899888 296100889 318776631 605350277 739034641 508056682 725238020 92263792 931941137 123303643 858014636 616951313 851933423 205334870 837004101 40681491 813438459 639803500 698839017 494697226 102642590 281758677 726678930 659294327 340212391 784033658 910069833 124320546 291110640 495414694 273978578 494681624 674754256 30197402 642114750 429055025 975201688 182688680 564552473 459396306 268393977 467821942 495362252 699591301 31635505 827829992 917887109 727528859 85798061 150306387 597008657 92601518 991240325 193626854 132700297 720194004 257740421 711806605 466551893 125806127 198880259 601449925 812727094 722096986 623764693 835865727 360065245 903922055 22330017 534982710 222066065 1318751 627570729 455924980 126762441 189949978 70528499 865541212 317567879 715781852 212744133 197435505 499298891 566364658 613964080 712925166 93338324 992177522 851344364 214895346 833251825 317418341 721741311 516304950 226215167 385758968 327368940 55726617 104464583 174617643 468554230 49608395 54303099 790209131 432632870 264809613 884839959 861089688 507159085 425962325 937513672 362024620 668183457 939972438 739687470 292494884 527628864 171034240 206277395 575373200 729021512 94574416 296612625 446562329 373277480 190278796 31267314 561368218 60117833 681277955 322727860 506505886 385874427 187871018 298440789 648169084 284400334 213500967 747194747 56800342 537665226 187789276 443616886 262558592 725959866 291839130 181424539 52935450 778504881 901506482 135284013 818611995 369417602 517690121 565591612 614613788 979631807 555932880 893716030 480456679 131409411 469503704 91103274 882116766 600262495 762426290 949450318 643304729 728918265 524516839 425684113 993143880 349108923 182003658 444351678 896345952 806347478 57094666 345316113 198756404 834514451 941199945 27630025 442461854 130111914 363494034 270920258 854103630 4229406 55590209 624352610 310883336 21446883 575554883 334864183 124457284 932035896 5793143 94135069 175411850 981783271 781152324 560999389 302122372 82438565 774400088 139296079 723209482 454834885 16865517 407112962 436346113 387750201 20746928 256239085 796829976 506689773 363669137 686087325 994801590 312381337 962764094 768340446 126432415 466268851 3758478 175774874 752918500 730079473 413331563 862626436 339431733 964218608 209017535 19526058 594524666 904606478 862587230 605529762 564328172 250349025 57225776 433979954 980892258 529429726 752403353 75466651 97206419 300319070 124296724 485516265 803592920 261529054 756413900 278081877 514081113 570370272 678258586 510373761 653590320 401750226 51005351 634983239 878617372 128825326 548895434 302174180 951401416 94031364 605486289 652444811 215678687 442721665 951961759 100218580 108781413 764498329 647077760 236384084 228996904 978580968 829201391 37833885 881797179 426928282 676650434 623443161 646951860 664119417 798863494 368603199 743904469 783580144 783976991 36658459 497155402 654140562 392966302 162521462 762832052 562358914 691795697 16223234 682581416 635939199 153211816 150576032 155932492 461699893 515286101 227954030 739133060 971162258 34186489 594517100 448156287 628199139 513163448 994035934 26904492 170299190 679623027 353526637 598870783 160202053 925737471 400135176 240306036 878243478 203287236 148958828 594463446 504675356 51841637 724580081 549077479 897542659 12245235 86970864 483088929 50048823 129496122 870360194 446475931 830879212 181711974 294444676 473449740 708339148 974545039 795134979 752287025 39384157 58067364 448828402 619460789 563958867 717320580 420142587 919286465 176846977 117588247 719688863 941572014 527346080 352932011 76047934 631970927 763348858 301805861 136630451 964340501 787254326 14351410 653423362 176944858 174741942 518897746 450673845 110074909 618048006 272886272 47512935 314345225 442643086 954089961 928507778 324495497 483967665 437171438 901103051 445811840 797079086 911053522 315035709 306310469 436060108 79125097 368308104 207754846 626766275 72848609 128440815 791201559 511394252 116226248 599183232 270509005 737272798 996304294 204181764 318025393 71097890 332545589 849983248 247314008 707983204 281895391 232676516 616029545 659066534 103548577 395135980 306323533 236045443 741464872 26130441 161922975 991818714 617369754 642842851 186338028 85782948 709385320 134678138 699122788 805576525 676184527 520291691 7432861 569719509 881917763 606774863 911862705 975855189 35125811 865944817 480125651 770928933 291748382 12257466 732390002 39818866 779606675 768070954 947810585 281726972 410803692 868172151 782147301 147652110 218214049 438842984 846313175 744755164 677649999 903592970 905167043 414932813 850811011 103149916 714564783 168105219 897973081 219227101 96842847 518897125 485800114 277139633 49512062 905143182 840389873 127147139 30674699 541198677 291799703 71417506 934444122 383908398 890210780 177021783 662016094 844501876 981102185 893200838 456692362 818912183 264902052 60788389 117747066 720450760 721018009 448147442 528588684 97126582 4937762 169871084 354366661 257403062 111596592 486685506 568637926 363853631 166365041 13713060 29992298 638500067 290335497 948175133 755597932 703750927 552742596 229968589 866639973 729871407 845188542 916037075 406866329 61781983 520463183 868413156 55318205 164157911 552321872 258564779 113571959 118091229 682224261 717750892 294998528 877462522 335455911 183854919 23834316 867080430 601457262 447800663 128421930 304714191 510017407 366074617 953569641 423841361 915782457 181965967 298633717 669572390 727090177 941448725 75552902 656811342 83087050 97116530 536118728 350383361 425311810 771407459 972546038 462691346 112667602 685750706 384908350 27398285 740863013 682701124 280029081 358908582 443206258 252312857 422917257 629959336 792336200 331753319 341931062 265401622 908328696 303242434 694631407 261599401 995659830 114067332 736855525 918336490 888160487 839288148 20618866 112788226 732873794 340216146 567836576 590501376 506702918 730514212 240904744 608645256 487767045 675940790 88077389 475619205 935834890 139880412 538043267 784637618 486628314 497616570 522151162 125643550 719753871 150658866 923189446 173226003 244157536 59748464 280766741 409076866 230792953 581780246 280452000 25611456 135222321 720252653 910592959 611163315 340765887 522389355 752091556 972681504 794301679 638165247 624699234 38375061 694879863 68609677 617285339 523645911 288693629 691357537 622818492 995998969 359621706 975610314 390856509 917487572 276115506 92106629 849290259 353896376 552206330 173666075 623407440 151697728 455523609 497544046 279351135 786374185 787968884 879835603 60618672 429817060 137500541 613923655 32947441 465557285 827168615 128915528 646458740 502788314 786926405 43766155 73609740 508047393 123725888 935110230 484981027 908462125 840881503 115867216 16827495 916476845 420735730 257665389 974529408 387047014 748736478 117875655 630241145 520549172 410609657 382859139 538112051 640974570 44487102 155610740 389195886 182077078 832128783 894014397 291012807 827207122 396792388 805542468 914066443 508122178 861878863 815136884 927219186 16567579 859242444 616060944 128964515 852410143 727814277 337319270 810574755 144435694 449180575 381590740 134376866 350057991 977714755 17379539 40923727 260091924 295756754 405115667 382061198 631207790 446023530 523997201 128767520 984230370 507306496 476503216 11232057 477793924 115405015 193425947 929002609 728938312 283612453 630055090 468562999 906804773 843385067 806261592 387961861 910988365 782858006 244892351 953757102 221936780 330181783 152284671 860224972 385269464 2816805 629319264 405380922 733629228 24462353 770474451 665077981 266805039 848003950 726555507 878803089 760667777 908822334 610720895 317059647 636207668 642939778 866231852 81017820 595607560 233040342 214216144 162235148 117875303 855666617 547923669 661977413 212758060 303428836 593654592 229257449 512561929 59574448 852790641 163917730 673660993 608932319 296499093 635398491 888293844 385610594 641667586 75768736 939854260 336722598 385233966 12144170 841447987 818896852 512406826 541973990 442859656 743139569 322870334 161988623 642251983 436123612 964668890 912754596 547038579 106958808 304038328 974048176 157490242 569836061 657638219 909491256 187636966 737337489 16987334 827765704 996822415 113801561 232370316 591606884 596439735 799465738 345020794 715287046 820819554 360516628 590292773 297240815 969129609 539476399 82138697 210681486 303062982 6053757 218273142 106633185 236039308 994427821 361454911 455683170 720314669 789263029 11778067 407267039 463259399 169546431 622128050 149512331 747214180 42579937 170465529 173796473 804151103 535605506 962932461 121779814 698278904 741668937 766237200 851629200 155110301 697107849 885495255 307872601 301432743 561832545 250854064 370245772 497356872 269998879 563200357 768892088 131035843 954049157 715626478 942124201 256498378 713721382 256897804 608901054 64755088 901162363 809818261 154814897 521061124 266296859 905513750 556087303 838700476 15042637 17848277 203795278 625944902 111442261 210582728 221999553 443894263 146692046 497297956 971421728 972122653 333430744 290003189 410182076 252623127 377699730 203952465 796807823 437324721 306024511 619600338 53416124 852609151 180965219 907094544 750757201 247486497 673228727 549966694 843690966 91359136 926421626 157079077 303326875 462999466 150142520 173629493 950672969 681277127 494875112 730064528 618185234 978292041 617433481 775682022 534440406 452790151 41459377 301666304 774719568 158236012 711634084 400314730 524569949 577569898 301143792 863282544 266691964 81177609 113919654 938191157 225827255 978701093 282641155 687976853 661731208 246992992 547026082 863303882 566965387 845073170 596862001 624013613 406456124 41124693 264294738 427781309 858095611 749185642 786280566 606872550 201762815 456762580 132591161 248206769 187749939 185721692 998781775 868541504 49308217 444768825 383956532 218834369 508037714 599116458 5255815 104401758 944844894 384195141 337046334 828521108 275709479 17341341 55929163 791299829 585117020 10134176 250697886 735405501 733932158 852187920 545537419 115503267 262352504 719906651 546052417 752363816 830639932 95367096 373482389 224727315 646638492 27855556 160209863 235367136 603462881 19348391 114405759 426847069 790241838 223043790 538072747 304405821 975939282 117410116 233907488 825539977 225187313 287354326 736842874 446723338 374831656 685580440 229892326 595594341 331916315 762808187 745936048 129267681 670740450 877543807 770841070 352796058 529769288 843225773 219372575 824351395 460777636 184959525 334932537 852646542 770308168 906536773 771651388 72920137 225589979 386277145 746240471 601500570 842360492 807232940 549274986 365594813 293528587 605584502 40877565 92385534 567325029 462439165 713596676 464990851 680240959 366137695 237913447 547811313 152928407 722176225 731586240 276833418 63412460 246548554 432389219 121947307 811379353 478897204 348153368 496277630 231058382 57788693 811118664 851688302 843422507 22609503 889903157 70890714 34556815 629425655 960891445 390072385 576270461 95709985 333401523 818861036 499906986 46513000 827315230 634497818 384428237 36688172 316855137 815392509 413729215 835719348 994162248 375691267 391315586 562374745 306096683 336958218 554979328 625127146 95894222 769417832 147484557 630520200 639178978 630043479 378013815 850773665 235169943 889875410 266636597 890243199 830736296 663275596 204415069 558130861 557134563 687977053 232333837 767124887 255666146 939692177 953959861 511708514 604211959 71844692 872026385 730905911 452239575 942777163 876653960 254374298 231265355 606168162 946616418 580372002 497734922 113565816 662220939 594704983 935318914 410426651 716195249 184435891 451959976 769526637 866054272 55527133 275414695 495685415 86811605 849811296 467968146 366219017 675004030 901078981 326974713 319042328 207448714 895921340 780862266 646806290 524996863 946422703 40565838 492076057 187582898 856915297 493793339 339478987 856682539 489226064 734633234 239862022 69857913 24284166 710679671 554013854 432415771 595194691 313589673 114035832 484440468 573773489 942909866 599368018 362786559 185402574 974890146 640049295 790799461 404913171 46572323 754757966 816579828 213659338 2481399 491029296 172590494 961941510 162514350 340182724 520928013 637987784 423657033 730224996 123968361 925510893 743175653 226058307 330173536 460420609 352522761 481902260 981338794 892357580 236399920 318385929 640706009 361259890 372227139 817646478 438296661 449588669 22937264 293559894 418022697 910425504 592857295 193178865 737691151 379293087 933630220 135140873 192462595 924279163 272885987 641384880 909240880 87942816 867670796 332844755 505733498 429103573 215413978 511570566 825247517 292301587 46605910 558874250 380440504 824039038 338246151 95704264 313486687 834010826 364240790 356333697 270896388 585424335 160069903 43486601 104376955 485297799 896455892 737161115 608052397 994696059 791665979 353258503 449851290 214287241 991973970 932285379 592746162 626544308 756954276 918174031 891766919 549441230 508572122 529009365 818199535 289307747 397269544 152364683 211807059 224760403 746040454 528741458 867938295 132046573 350179233 529618858 297143775 262152862 917353743 687848685 112655354 73884929 653036813 43430959 91572631 48038503 578732355 244512937 513829319 71208348 150744805 488961973 492424810 476346342 358383149 311197525 246040418 676562362 245971717 23954262 227140264 192843221 307639743 463185893 583247959 864243820 299684376 627094439 310529270 909685633 808631799 791887756 714163728 786799869 303753980 845685190 933845427 726788298 770212666 718957986 642484826 978990336 491149998 528899749 329392929 605383277 36966531 789854827 295015832 568337586 111595326 528655667 468266159 4749697 862955136 58585212 812618325 742162643 61779515 243982316 458862293 759640246 327512278 867604479 405707673 331385317 716883823 690849950 242605798 657571767 487986680 452714644 873768890 402574734 736255402 592492154 391942563 930087784 585128150 83414409 782248094 681485624 244962486 163671963 606952509 889544808 930398747 158817806 344659687 967554670 80320122 595460258 830425832 480473575 762210154 822136743 573479228 263082576 603786124 861896387 126964584 697593852 220896012 822037970 224771559 948223607 687828007 288319843 622072575 369735154 826374698 224517974 338180981 647172681 559362539 498609836 677842985 692354545 12160972 472834471 580822223 434600563 32194339 88883001 897724938 648031210 992468911 198866095 21505739 173855767 786473820 91385692 238519127 285108163 817299759 284193347 874040724 820234129 796882727 255899499 895665298 592687634 166302767 598657180 125866916 347919621 673082063 958669769 823716605 786671429 153242387 268674771 97859843 588331785 326727768 973492688 276831518 860795873 473623306 332606928 499367478 51893318 322573761 67441534 921008671 438111590 649740851 496098968 540502953 499553207 879028119 997626395 148818992 661627244 943621603 296635775 380692766 496324829 607586665 966691182 349119128 507779118 722832906 384984347 826681560 75499043 788127621 562459334 390726491 167621119 248030603 533228193 580219150 696842030 866638779 987268590 474142415 675964790 810681454 869859758 890260029 400477156 561520235 725209012 192657953 632413589 846456277 128898370 668724256 58346799 242523036 73068105 765150584 101013064 937807777 64155749 124059750 406088007 601995242 209327439 271106310 476871740 864482450 479205200 991174231 686870844 135105547 61875164 298152562 347098698 106008768 974065252 929068660 638653009 701953315 791347435 317030242 313888621 691439367 579318476 188694070 706543795 609999727 691067994 466064899 287252695 361233527 666470086 121543789 697028495 952257311 964095076 339000380 770284739 431938250 163289449 836729434 852604768 575770252 206933826 496228359 15203403 792517401 360857839 434629707 252368470 910047922 117220609 168293931 195079985 684639532 162132784 264309228 44547913 342694229 568878651 697369844 911011738 54591307 168326903 113411005 607992433 989055271 276519804 610518861 733774822 666073532 268973785 588647950 707123671 192836824 310469397 574673681 457614023 808006281 571657693 855121528 519482203 787263561 131345232 662899583 29442429 172134651 965558981 287855432 342536040 385572593 942801928 595993386 743068119 362746865 771666086 650566245 813441514 347333900 713290454 16765548 279877724 598440919 740602683 618037252 302705913 409212509 888279705 298176537 691737578 101527088 783464577 278291777 150962723 446283045 811877675 26396008 506703468 641119895 460419441 613913352 85115110 717845631 616865835 376295943 59773403 39534309 87114531 162831636 997376798 839163646 559478700 455516136 603249267 693703072 608118946 555552480 12879932 216424979 970851094 675203290 990655778 494459773 131791849 211128256 339763882 328097276 507528053 666552024 255091582 876633020 526595254 798984783 711886958 844649006 994759455 588685548 432588874 143011045 698558343 736413381 12607202 179268264 706871740 575752805 384469160 38036748 573747484 805270067 177448628 216311868 873458815 356582171 616793183 694726971 467570884 497249052 979238434 474052902 865229528 764265522 445819084 14463736 233260314 58964701 726712856 547907703 114798643 968099129 769341914 828912766 51484296 765096291 861892604 328088245 39227511 90535344 668154912 169936761 287879339 946697532 209424517 539548196 693874623 39113651 55608805 778347573 606511141 811304144 36439764 87757892 821960115 44664491 9436917 600065029 492194576 967970731 750239063 680230418 139107377 731307596 190705230 910419273 269483496 169263910 981281524 280090530 523582880 539566918 619870415 926785743 920466491 78308919 876475648 534802622 128363493 29718631 178888238 306175034 743225490 478915915 559380940 809347394 32160392 52523043 339585135 917233611 195688762 429167229 997839233 222444099 600613889 531389803 31847835 744124215 290864138 737320509 77214571 815374994 68837166 548484142 421461263 257120185 56447188 140623751 713190296 877676305 703370004 10293925 19792885 264740316 500544685 586683356 97670652 408604869 540648615 176026093 444669071 278834843 77052900 855815423 226435806 641567922 556871139 541611213 446041467 762167451 60644816 590883255 646782380 828390188 702723776 439378653 133361750 867783617 108266703 756282545 782097026 359765512 208578399 262961949 919404508 54881102 248686480 690966823 899882626 375797627 887202268 870082417 18571216 5672435 245796599 40186659 874328619 452831980 652208876 829077685 431945580 492609332 635901155 674731008 231232574 815845103 803035658 327856198 63021710 364618838 702363599 100793433 6432601 333087063 3320483 928555803 497434280 560961751 950431545 736824887 526730028 515873543 627436970 455717350 268695120 636347648 417524806 222315298 376453223 65787663 845878798 428620581 144570927 355029185 337821866 553926443 158921951 47925001 334550126 520698032 4953966 324711363 97361682 490216713 48396633 111153176 932625659 254418464 653428444 467838984 579574961 321599592 568552054 469441036 161780920 580880438 452879834 684402954 741538855 76472806 317586843 784145497 441169925 748129022 748952161 931106601 949060895 491330526 521603415 390328513 585362743 776979383 385346988 706331756 51510433 932929058 966036561 831234734 406074680 19224664 717970358 932923968 419606097 232953837 259762479 746156590 808491206 786184353 688918847 81903291 78240029 432336629 408493827 58528092 309852444 840609234 884984121 423525736 891818024 295038801 222211320 881442240 701636746 350323965 291441977 418557 903195512 438340657 305825234 32500466 712164433 434992872 269472746 402050224 154767504 883712751 232979916 286123788 24340187 862306007 96023616 636132365 196588748 104004109 172043285 474263229 1090688 75095025 548621849 718733320 274836596 664703352 881604676 284345767 136878140 859650498 71021429 603390970 223993465 998162477 474703529 614058916 902041001 529396815 124188614 462080986 857259187 879773155 163059280 147255483 35125556 120638981 864559943 461196046 860522508 392003650 935405438 572742823 916903321 445089167 766655904 126424862 767047629 498037909 653206425 507178704 551924534 314353265 871387377 112256486 447821470 724008240 413160217 868079757 548048003 417746140 58744305 299214496 722343208 443171002 35656966 391778887 850551770 614993127 406994588 567348941 462815969 180602445 791134862 833098380 651375040 39811423 46760783 221193372 199311530 146153612 915149233 238770846 221011799 84908376 459672467 24247924 683490479 875886984 436330914 448557451 413479297 868477266 690567726 722112652 530918362 872220394 169691859 633461714 861317019 949282791 878848641 211723835 824072107 91854144 54739675 477243575 350901666 932912966 848754874 112388224 661718603 626260068 673202314 569053514 348705376 741162166 938947919 676412759 568602558 877823478 352378099 330617901 713071914 15967680 861364968 186520349 686407128 966023807 242676529 272519938 696938599 754068370 213158674 726701126 855176237 79101985 199233872 334170951 395856754 659621620 270284370 197109151 545820367 325140134 172061458 251589572 308627561 385880240 699054806 547693636 664549412 476065559 531093821 981218458 780869961 933361334 914657164 154160066 620464927 329848912 116316318 106409149 710553462 856249214 923068326 956260101 435464955 5164172 780519687 923532505 257324295 280044772 111768363 914858742 518291711 866927546 919408682 469181758 267331463 614112001 914380242 409249454 729791573 84885703 376740349 150707732 678239398 591748888 818473852 475771186 573507364 858386193 812091504 825288934 797544138 122927882 395631627 295943672 22280968 428924457 888343206 186588424 373512169 378702508 772420803 267547122 960048997 828102514 279317696 486282439 412139419 567766507 855942876 470872837 647636594 9931217 342802063 64909865 612586834 542737444 708085591 808532667 784628888 80492213 485252950 438895614 794290626 607421886 533127907 538425200 299288705 125904941 997158928 775922565 543665789 858279154 545924116 513243620 761902264 350295113 407104607 907347500 319528883 546467163 381847761 261724451 785138432 493146754 714053517 643454151 861696930 705328617 426310673 880836949 165635080 461343753 174064411 985282427 624222215 701606374 168012313 379875138 697638944 94758677 947036069 730836076 639886083 322265235 879909608 363081345 871147146 689930366 687684743 389352808 996020837 868956289 816899797 519541299 797507358 898041349 200285382 321500786 921666196 734538154 323437410 643907712 148177370 991998897 330577391 84002450 983817153 97104869 701676719 303848472 659865546 668667649 432818654 711337796 76388141 346300919 633349189 526890715 146146395 661575388 799705377 248206512 479966904 657003895 553800802 430608172 347494114 487492257 646153710 414888851 810844112 357097754 437745558 858162376 428808199 689543907 475574561 281562082 825185233 107134980 778867683 635088753 700536845 395504082 132444931 294735115 954679657 780443969 861065556 995702959 415409982 778281508 572951959 857394311 116336208 757971557 642661887 15168561 162636977 59351269 485980424 762618388 831221912 959105914 701003232 19312976 14564384 100320460 998057142 518894821 606382969 648741944 338489252 13082687 565065052 782603018 944543012 494365862 957074257 310507327 920132779 673623988 910885614 589270152 325923326 69923005 459264516 304156228 615807296 806040258 924468025 641344120 114420663 797908121 216633927 62884042 819108450 679774794 272523615 142409059 396321742 443855001 884534479 207441819 27601103 384180819 493384733 916090063 392982066 593227314 192769804 736906408 389681980 733880735 293777223 994449149 469552954 259145184 357105104 188040838 998389235 67467859 51307764 330077211 743865125 217216628 375125564 556783300 408183265 376366329 962907654 766873538 554606410 426582559 310144750 212506620 703064485 711234546 326898264 375267601 70774554 525762000 309992445 441835023 218574748 776337518 849846098 989101391 486376457 832829315 810910683 813155020 10767288 209892138 580919177 494113277 722544699 969347124 999226956 844200848 481392747 639073093 685580464 21128762 962820330 158215358 142280015 45232309 511223143 557105558 300581199 284089525 869809129 179058008 732636856 908639462 757968636 427607411 598037692 13644439 447170853 573533921 917267962 947800743 972561048 87000973 600280445 55459719 538093876 789291244 523306213 899550633 504191130 98555077 304631959 19818095 323788249 539429696 346018600 546849651 568234651 428795932 137897342 129973404 579735696 340581716 830397658 480526299 264164934 704343555 589175224 606556001 560390134 665657828 510457759 457939351 600104374 24812679 429525897 763064285 886321250 272615426 321008050 910252610 301086703 187247923 888767009 678861200 487246683 207984097 699880559 548957351 14909545 824773781 216015604 369261934 752832117 828872474 987465732 100300181 587668594 569789125 278652041 479159414 7302156 382198171 663917416 999233356 6616051 940967224 719749010 551677270 226625249 234156257 688875271 830290099 198582400 789201983 562587232 872219071 194157320 167989614 699230557 976823790 125435258 441521327 247722996 880399082 30653525 656906607 867035804 580351416 336478924 226171719 534570029 101671565 514708604 536680668 737182866 718153818 682901247 888963105 469014298 357720707 618647392 626827063 983604767 32941755 789766824 253598224 995395154 486177008 266586571 283361965 948061845 18160683 670037821 763519055 416222338 198751262 630119415 632746146 175236845 985136794 202562986 444122411 945073848 616574907 859920396 584609977 506556838 871868772 456392217 579199126 884248865 845311818 115935582 290137960 718665400 945605109 524434295 467014275 209130506 271094567 820234993 40526703 891867415 216966932 414522296 752852493 482506418 571163143 625043273 7028328 656064730 15149340 795843513 846206800 408637505 810533859 241525759 754040019 953524877 949709158 730713343 923084570 126242920 721675208 253929259 626723262 253652381 257286500 507780131 831872288 596479971 450136282 967613414 982059344 182658714 883825768 571793331 664160036 498973869 71655933 314127069 497260084 643012611 789736426 569986529 677244973 113021585 139631706 619019150 128927017 383347299 900092569 977758210 579020476 265357554 433007706 582859340 40365957 508716457 194394545 776305298 457415642 745367265 47752992 227816886 589207299 887200976 208387224 671067939 453955261 22127301 657040693 746442252 850683324 917151126 79141438 831877868 881192916 361805517 300925565 977017577 845792735 652308204 422000847 676118626 973363427 262827328 7169781 351231830 479199897 9554229 394460248 650945776 459252181 233023587 621695623 596629396 577858097 312810165 655585964 427070818 241492043 808914467 297801537 971848818 536487523 392597090 659285445 145409131 257584472 477484377 707152170 889814554 956147424 378273357 137896714 29460395 365799970 415513570 544764403 287760414 998217818 279047038 452265094 390807009 367592452 94385055 820611418 32928110 159101566 692828245 494204317 467361813 413439686 678009878 73542607 492896800 670573383 380108875 550724439 571746495 469295049 415070715 450133934 542936774 48447293 387177397 562532940 487110811 712025945 171320391 250482707 332286510 460890683 307699105 788323651 688599770 885796670 75998883 556541005 437210927 258493580 72938911 75474992 85576866 643081361 336614641 799407224 352662675 715731599 422846874 941002747 670165548 65502120 827854589 608821106 607841274 483795958 753981327 921453237 357365396 574243102 112274062 446910114 732351478 196770551 811054601 577475170 777509751 61641155 40196885 996478791 882091312 729882187 74048575 321157118 503570232 958617050 180090312 70592233 128013880 141545865 435866379 385540150 664772019 465291432 997134334 541986202 638741498 29576577 551596226 229712175 477079786 640350853 127256781 96988905 443703875 964127619 146293114 452407652 192767758 657241939 528400701 941564525 472988732 167575659 888227017 796454924 224774043 369831469 669008246 792091628 852280611 962673832 583230739 509331118 666834024 182882928 633920505 196038722 194659533 273819649 76484680 383685492 585011265 960898277 700943261 549135746 803463696 257481794 314522617 402059459 84150984 104702046 927903315 39801812 152203976 384087001 832928064 422085028 353826609 765283542 270129522 666331477 305993334 373945226 730544861 454760673 977972100 918230531 493193744 295439598 175643341 284068240 141708646 396016394 909098209 427941598 250117257 770300085 261805829 493674382 552959530 307397028 713327962 967419280 944212685 107566158 73149660 253900449 564761252 140145337 804672888 744187818 280670747 389132289 703212253 350111570 728026565 311197602 215995952 391197457 889914933 625730572 111454078 247092028 412815187 622873069 846408371 324221190 885577230 320894819 176940143 963545084 819522687 902821839 739792790 625028814 572819807 210078925 793272047 23828100 521332390 712838594 913675738 613811912 580338040 259680284 207088995 471817143 305016512 224926742 43298559 164868766 235638741 469700578 516667244 596767464 519468569 804835660 434079810 452026584 353853877 786889610 538620064 257396453 682543632 612105726 604563899 36141714 16955657 959723417 508434520 799764566 564954350 248614645 746476225 404408894 577518534 322415079 564631864 177679145 225923963 905743091 707457086 81494363 493044176 702232259 337053622 265463318 759893062 43245816 892549535 395529768 868548489 517879767 962605004 142437648 742086305 638121302 703392208 13937209 262441866 865704371 330805714 414411555 429296092 564307408 277336585 883072860 535434666 841719141 987887046 710771999 963605631 862276816 11348725 531021653 899306849 107218813 342359637 229722192 754294115 628667331 125462609 812712030 531183330 733427182 97509918 217971608 785998561 695680584 31851760 339618960 704576524 581327916 808323659 749602760 508505400 125066632 119444254 510324136 537948756 412356927 44249148 232208326 643053792 759881337 645435714 245664058 738826175 580426993 12421205 990849851 846225486 901173217 774928142 890353857 200450183 898842305 160300061 897101399 360983225 557980208 584890615 409981383 523747711 696717525 270444961 364317937 719640755 771435404 753531997 726268844 247472088 394573419 240881416 936757519 586339991 67111303 985974672 736372766 745746373 259290830 151932217 453853410 601640475 268814274 42531498 205481511 221645667 89036627 251650495 461324862 200135750 234700784 708972166 536810852 646628427 810517015 278345135 727912730 916804079 584807758 344372244 183036790 189424176 402908569 577038095 748456661 464076357 728153940 733059818 290819684 29584903 696764222 95671125 885472219 792682032 578959853 312626565 723162055 527889303 295807932 457709003 98095204 209364299 562938366 755476709 883807167 27536387 597544375 106359719 805019192 186746925 937544119 41027097 136175022 229682218 575968785 77423980 501444339 840209280 836168508 321445722 761577693 187910544 958261052 101665605 41742059 397921224 237843273 244158962 918661888 285158904 529431180 171791887 199869230 959040744 319965913 958065955 746676158 681670121 351802771 873083161 723926212 883011622 28558677 574319939 672524028 536154749 262235616 465848640 340009759 471269449 581956079 730582632 987568579 861330864 366656176 120212111 813289807 40677956 911100927 257649835 739012214 58801086 643540802 575078019 791592390 466677244 949348205 909771952 888524342 488084741 532782739 298566074 126659085 163828523 764162410 746568426 131520856 124994597 778019089 440700783 617832679 386795643 262254233 218801809 431012390 25987335 732327846 486997749 310265475 787491561 486283473 131321299 791851725 622295809 37320552 760737631 544144442 671083477 720335044 660098788 372239534 177430619 462425065 937140452 738668278 583705345 719554949 439477582 207976198 353815994 89125757 553174882 494554498 338815827 203528444 961849602 235679090 992225711 26067949 690886976 479674061 192293612 353995839 454129930 803307027 725581386 405759268 807822543 460219344 849660992 998775384 942967230 309913709 236093214 880654118 132050425 396896523 401481078 221860450 428462213 743421437 902041868 609155646 127018342 727050801 866446486 184140525 410759372 666608902 508801 331774827 234056064 828161355 885838056 80949751 292792454 890058327 476733258 508589042 635301244 661208056 95913079 229656660 355170902 202244251 306942733 151568490 612030173 693866727 437679578 302803098 541586164 797641516 359387110 252215084 372804816 816172929 679107589 774297470 568294784 312903807 836214408 911421310 451349789 619687191 252873261 62786571 129824334 191112605 992424390 406450666 255580454 522736441 185053162 478403379 701827065 444202865 600462813 477420688 240101406 152845523 176784959 292441819 506891563 251174573 476348611 148385460 118007462 716202435 388568750 133194491 271710648 611574496 890748996 399344782 746065381 993325054 53647015 360531014 642121038 549019603 323616490 626083935 433353958 341030607 204432805 707917604 109565207 86532171 312131302 172707155 474400681 958276490 595306340 851097380 928225044 853989624 476447639 754720166 236654017 816491209 985098105 445017642 490824987 110264631 984223862 701491418 739386515 10207634 550642709 280606016 696937189 405439643 501470793 522195289 54715233 880046817 104624241 914036595 137248411 677094504 594824549 790296003 706801836 19473728 916961497 104824267 290583248 203082690 575801045 488494296 816367008 285567548 364985229 84741782 236169176 794571313 276595425 183413195 766568775 655854073 400741465 580541937 10110832 908208127 691365548 639291068 580789295 108864363 424677388 456820897 17161396 481218920 163801263 391338189 951530539 266428617 584771154 190414765 672070989 277875928 235490492 288783474 643328114 291388414 743793621 31778585 46543544 745884748 947763364 804515378 78710210 883576234 411045004 740443876 662125193 568096839 844203563 969225050 788965843 487060205 490451346 77074042 939063978 232155894 808607265 330022527 139701939 393665 136327726 180280423 57711669 552177020 121583902 854839261 313360232 508709491 154739089 944982431 887026278 88804693 96785919 314698528 217857107 559376998 347142537 358247331 393635854 870223000 553318214 164100241 278470289 359221993 978045913 927921562 318692813 492709620 880367685 993445707 539604746 160596432 796288044 239926279 923118160 892989544 496387123 36239915 384343421 643998470 718461633 640397275 53969352 416543750 603599409 72648478 926278974 893371282 557286 168482694 266978461 591804807 459111169 452051781 145920928 801844401 517718157 461135717 414677861 809255538 794918850 613644014 611224080 554479692 878673958 76936018 305806917 421040964 434524414 90139176 502662637 70442395 238530463 244105231 541857033 949706954 930899176 768141057 45658301 697939078 565244260 478123255 978806602 867476949 868094506 840968245 20915739 626393471 78553643 481825281 972757662 740093557 511286211 444109688 37636290 245105702 566177200 952580096 21587238 673379326 267863072 114238490 746314596 256356226 425519611 972922242 117650844 861361169 88744140 874588963 907824672 573491272 603370231 711950457 858007953 962752216 133611964 651427489 176810170 688565412 262521061 441593784 226989912 332513300 279208934 658708358 784179363 466519081 622150553 967431386 359441388 312358269 344156021 392999055 506260339 283238900 599449980 881894877 518123342 871343402 549742624 357292255 135510193 407542911 971280062 781403705 778138189 791771700 944364715 767032197 240457442 644100252 509489962 133929751 583566371 159578338 46155425 185786690 103067755 533386339 754463380 885422923 492262639 240002571 67726300 238261089 684132722 47510001 876666919 662222556 202893868 708159998 560073247 914149733 445808674 931080491 487479656 234016271 906591799 120007905 971853189 734542449 327510408 758848706 207286902 941625343 518646771 795256456 698669055 51106735 964094583 186574092 798204143 49702276 331682644 21947413 813344644 757895799 321653549 232932948 781876621 593615895 140959509 500819434 538057870 187468801 870658991 452863635 69723421 368984822 414108438 913219723 835612735 111168519 81003830 71226920 548171757 135105368 929094264 211353617 440129352 839048183 420298848 248643071 874267677 101554559 406459023 88112469 709879108 738250503 305684477 472577297 499871199 196678383 903502259 693142639 45072486 36166398 615966829 731135840 606975019 187192295 59364908 232937668 830158861 720832945 18198054 868842975 37271670 585273527 374378246 932631418 96109239 104216170 389202623 277047044 389724981 821257568 672409047 467308259 246924762 905115456 654739198 497364656 701041145 624489444 997272273 284318136 592360447 70560425 278747555 130144186 951362136 752391849 713175133 424631042 465565196 951619309 540259480 837554475 769511098 687398292 92066922 178883025 53283585 353577467 766114658 265384779 514513366 594644558 252399156 160588954 476611476 277044081 510769245 729317443 683797417 148804495 312068258 295550187 694695813 562483799 62900369 351095593 549085663 99527717 310378355 687848887 649802473 193691534 658065160 612232562 368825112 243491536 997202903 695900224 215948026 590977121 972903238 452214282 105378588 862514619 48940328 617943536 265578506 92519733 982093135 892242948 539920658 973798362 457170343 238380521 583378140 38213897 397979983 694329706 428229308 949392582 979603408 755363909 821076296 890346065 643892755 505874274 509626601 730871846 662818759 183743519 474491238 536851799 833659471 896952046 162004019 350660091 725971665 41248169 430930967 266939939 673862064 660094868 470517620 553167261 498539684 770539623 986963989 655171491 607889384 290637204 424653065 97880020 390487802 354451465 896805772 786449897 941377945 53774361 167942891 301435420 890551214 475940272 905876942 992966902 658463793 651573773 149851489 367864264 619708473 844642347 258892300 661695969 86246127 315593646 664506380 116468032 742956677 364396097 491077784 80601114 608387393 225354389 906867510 420568282 316667590 870916540 247760257 293562643 325558920 32129644 135351791 102231245 673915945 13950884 881379583 180666001 733020023 218061673 497037377 284479013 580627503 395508492 942486624 392372211 683759058 987464394 62425952 292675646 66567747 521565886 877008207 942370391 703883576 422656412 520620561 545116862 690603284 265456048 31690602 766025383 348772220 810932550 533443559 759007970 164418053 14071279 144343219 406853763 777761473 93266602 521081756 594847787 906680396 416234777 71635066 114365870 777625421 945645069 73510071 715224002 593473568 151459218 552010551 746252457 952345590 750352647 663273321 420216956 488663836 832965596 719573274 779277979 795616227 838703086 217727738 939463954 995281271 179749527 272331223 891901743 507546171 224330449 248869573 450741410 575843574 638632719 871809284 167401038 172376160 749496646 470226598 818360500 955713399 329344295 788524708 504081884 224990805 433445110 545184559 781201909 417709224 914124960 933205654 370671829 491195218 411526498 82704140 108298588 784163874 706442598 758928807 581702507 521853149 225155457 895226321 443316638 830440200 259141155 709832240 554320518 871440924 919934231 739020756 473949543 986294388 467305548 623104864 559360698 846225994 170835021 522935250 637745286 821926694 587932843 453724126 633290535 23478816 969917155 579458634 710225239 486446012 810630031 750973526 840210879 138153673 49278645 542263308 289649663 920845112 223014527 145180662 553725641 491620263 505660280 131910694 264021687 104148600 152658802 350253641 117347719 206000655 803783952 994673698 419071171 885260827 121683761 771380345 363455083 882625997 939400366 863933073 984557209 315828503 571217112 76764890 999010894 494374045 965514576 483942597 433044246 231916937 291560989 376271226 314450054 954209786 643827065 518488094 566100790 726002709 45398086 971796086 943722992 730277100 238962735 931060266 160372986 721496453 939923913 800857968 70527001 87874909 205863545 562321836 536511471 832700041 770709902 294418484 980591309 936079966 991371535 675196744 890855136 588243429 650187022 159623003 78395579 889961790 937384961 992446690 355600026 744774796 248490524 246059949 534312687 859652232 500650525 505504105 827426689 862340394 721177327 589861261 384744759 891999308 682399613 878490444 400764826 754291599 493164337 467460185 70939602 877727736 900529266 519773365 422946660 686936927 714572031 435620659 220412767 309588806 150944585 816120325 311468487 469693497 62545870 417362888 424198060 895530257 926969177 477552785 959385612 540948437 428318876 245315515 578125825 618221914 703614854 652874196 694909375 400203372 664654259 509690822 30253846 953793904 441628165 710858994 496807676 320591019 45025672 365043261 375885688 268709747 14757137 656766087 543645699 837166071 638374346 727480595 767563563 595380036 114376108 487321427 502517428 569408185 254760784 458695739 15279569 577654351 517555811 431588044 21773933 217405052 715102230 626649092 434232521 386241874 827302160 416065576 833720503 276021858 863760564 829193197 689730889 602258515 799408911 616623421 402293540 35849676 250003937 450008964 366850728 753148378 416123586 764618741 938287643 211226916 917703791 755548545 169722412 409522576 856027068 211336520 365882280 110421348 481545599 730893817 966859349 593256737 441621588 156312027 66770981 320751953 395232420 49730734 430285608 734770666 141466976 505037930 869938558 805499351 36848758 838895285 992983869 113533340 757330872 611413098 221327230 387673794 413072237 451493745 139250088 578552873 840717841 745086597 215495787 674425386 945978031 107645381 264507892 523725276 8388641 507309095 719997896 875003873 705931988 153548911 624271784 583236158 738433029 493959674 144181271 496014645 359024858 266445287 44153389 649455662 152425358 62874145 267657053 445094073 692047038 484511963 95239793 807274527 833472702 856307311 207111486 920556038 949457711 566249653 31146281 164768779 794557778 802607858 224160196 148329452 949367222 418759896 195270884 973139673 951777621 693224144 362737125 13968252 837261725 819539095 413662494 753545486 350099303 864642984 23780466 555144664 906514818 577344076 293604226 901319043 171901429 29610715 249428248 375846628 692456961 889141355 37486937 906640320 71103443 412203158 890947996 522375561 638390644 941777703 472144040 1855879 539722886 78464898 745550755 439349493 350276409 303589535 822683521 473992843 935317835 294056723 777289387 340407478 32888665 347417195 286193925 177352738 128035240 46532372 745244502 918945422 118925725 495110598 422484970 409113193 961806791 724220856 253616781 835570136 141638374 606474957 405119904 249198172 762586195 904591808 97934982 944005947 162287534 898831202 936398384 486968174 662491799 191639358 932240341 676119026 106640319 767335590 972448856 703343582 754066545 449014400 37626850 777374691 587165406 170863896 625539645 258932808 122430620 256639830 979863645 704754000 7648464 686889784 982266867 589617039 204954417 206978523 87053358 361852614 505567237 564325229 632561199 166577023 837084698 915445722 599894593 533424874 873513882 890602671 339057000 207982486 473292356 111944114 521656677 452815729 827358381 560097827 845703408 103879315 858612130 338023782 114854587 903775526 145852162 313623539 67273616 117020852 182863519 761633648 708623583 196466091 482340775 829750152 268473649 125519022 730330857 295344873 658635710 68522876 29836323 888856636 601224760 281364734 719673785 212469850 417317897 130277773 211253557 441504439 644290898 213934117 435991625 933950205 973639966 207046904 52798409 905090109 640084354 66392038 473683263 317397308 105266556 30606800 77067780 568639792 562248666 396523205 833046851 313149787 891111096 782215519 381111113 38594447 49118810 838629055 120217630 100850589 903913732 975926750 356315989 898305105 447900859 563371558 530888241 334061421 412677139 509887290 375769245 46744128 171606265 253308225 983726489 475873521 817949556 785420970 490735393 936254677 211364754 65959372 139214063 503065931 930293895 977693955 448532814 355054385 243086241 655404555 65688031 137965554 411190225 191609207 130664391 617499528 225303520 836552919 884280667 790582526 326616893 729530504 156967959 628708763 861356293 251254486 140704770 873270523 817779415 22129112 190936944 635845232 914826422 657153836 12564440 134982052 282488394 654999950 774991935 260898364 42966150 12671164 420393234 585083375 541067091 430700465 975653925 798996742 96133263 984523621 286976457 347071161 458966489 537516716 67433287 265757825 656197768 629472552 706806501 307942944 222559762 879282562 275331358 868960225 128922682 194132143 563483208 206872403 600367200 967477550 301074227 501568559 805953324 453478015 426992871 350572079 484956369 587786462 173909875 782818911 229193699 37575731 368100447 226066921 849070404 104794188 119452788 194172844 10863997 544727228 581821292 719526928 573356671 306990635 804467592 926830855 286728018 65468253 556654362 968285333 237894636 638907071 864139867 573988605 391671991 13502609 133885503 101310288 580567011 990013573 509319299 706749469 182439992 310428201 274172781 20714075 580905107 158247522 224690302 978740555 76641748 366038189 715344472 427927729 428743535 41919529 380222484 95045073 399508269 582380180 392353922 551870291 236414001 949969360 353193033 708199380 914120351 727108113 672788554 733001892 221212068 146346523 110837273 352361175 820957457 376398242 589185482 391675475 143764697 102138124 713306641 396455558 554685736 171578630 445909072 477369454 681409986 978149827 731430750 994363081 827024225 438322289 209656627 945491592 696633412 218657080 28302140 600207685 826812401 712116529 768113492 859206319 979000442 540619458 14082627 328625689 133295580 179297592 458985604 638425755 54071632 197691776 839770939 212346877 883169507 736115901 286140527 666835338 675693320 728985917 242526523 249016515 759565243 411272897 421612848 615576433 522319048 738618422 296088223 612355218 49141079 326520842 430917442 570602259 877899715 981894892 773350007 911615913 880113637 209670465 754136006 52065376 993251627 130546304 803112469 644287345 149486480 147886860 35690574 165288784 504731392 11702136 21675532 850157087 545338972 599254214 774212994 398452554 814937898 977743129 45806140 474812206 420821086 655809850 8485740 950656132 587552871 411103006 7896360 6419141 636510948 511214352 299717588 817689378 967293505 607093080 302129788 997341882 374224980 82405717 487593595 100641064 330752265 308014262 773032122 797678955 157714370 672659553 892939556 425411041 348978911 222006100 566519355 64878238 193384676 404497373 467132390 200866617 561404342 595622108 194846327 888451265 544814106 586956302 969254260 360529365 570259872 650623478 226206700 13197915 245931262 840458515 73347598 795466012 260563730 882547947 515164615 787194042 186899174 448468155 363833357 101940145 99471401 82011442 238878109 838743726 843367296 291991721 796489916 520788121 542387595 85042869 636564461 793684862 51820643 716592532 531213187 10401581 68034924 21707800 308888787 346922983 364949243 644296653 856995184 835747222 910302829 238131018 255636697 582463719 436534914 16361108 637859144 198562865 219501754 437887479 616211379 118506815 250307816 165692854 658054757 547544512 647801119 790712161 9004293 116862640 250084713 957765637 481637941 720479203 844799079 24460238 560393303 437326560 999821841 281893444 34792056 210213381 274355256 327041139 831319508 896840597 62285909 756263027 722861416 344141425 317244080 829868301 813481361 379851064 831822766 687186802 635239005 420836757 135779432 108501535 615624764 150770905 31701511 597620528 124538331 141184275 810277574 950758925 835457820 195734535 915530155 601038419 341932747 257916163 173244086 845480794 782550877 162550403 933412518 595944766 575893877 769601438 986229329 645408376 368742245 615036383 312579254 58523347 587927487 154358538 687002679 803815450 628436602 256086056 54250045 217990573 373507613 739594094 840729731 364443005 512905006 120986848 876418220 597215150 147613760 959234978 354610816 176647591 696227292 514286805 836434419 944624652 458409137 844767683 468041122 387692472 980136720 333338841 877563189 556021484 268726628 76921306 137867421 838565029 943569982 258175924 249478689 303471894 215581760 684451065 854908948 132775583 495221119 961289195 900351162 309805828 909108775 325159173 498960319 819753596 382857275 931090955 209646524 665652715 299001082 80834209 664440312 945256757 177476405 352234282 969901254 434936540 774051566 417349376 986360576 858436281 111940366 549677495 554793944 999242938 89104171 470783251 125122801 381651261 706352013 423990729 514824873 929093079 718236760 85720179 174370479 531683239 581432633 918264888 816989011 299283471 470870845 290882897 771006432 548211198 870477290 748776473 505198781 489296246 363358791 412480286 65255452 927513051 578139335 982125773 821357640 697991368 860527739 735473055 815875446 40299835 30107455 668557084 736886730 836342846 30354619 354882017 137944860 800814502 29817385 10698825 785521992 342892881 210430987 449884038 671000492 981069701 532166973 208984601 618554933 484655254 607695766 314948168 908235920 9602542 678955592 432863138 772609054 338721088 435909296 419087513 224067981 19429826 940164094 869716088 772450425 449556211 775806502 955263828 38022092 891545217 115244379 917692564 765445192 704859034 477575161 648930957 792183792 688618448 376461671 860156756 736831328 638132781 90341388 351480764 840248270 664769300 48661550 668476884 644236578 561534920 282581055 682774284 924253512 467473392 335615678 543525201 757184887 498446185 92758048 570292165 38921420 945263662 967861313 359284402 998242086 409188190 999839282 179737987 256901297 516214245 574567894 294829960 631261409 203375674 328615681 621390852 426892304 265142296 859022165 366378919 844027519 230171336 123860388 428738970 215192761 684789418 401595266 253360995 685254619 878694355 175179282 669846545 99015007 819751597 419356780 380422759 207566742 249638555 242084333 116586846 160602580 148213219 823550560 784397584 506309051 952613678 150880288 145390179 252859252 939909619 760553893 546236673 238599044 603446769 108902602 729812523 386711666 258241192 862747402 155718428 495202241 340742575 593829126 952303132 540776817 352631289 129149757 553000621 409856792 297062780 983202632 245126192 340199396 682082383 9334459 90614498 97912930 358908865 278048274 483027912 748102200 14499489 37568166 969609843 446091958 584418202 550517376 310114433 483910947 86214700 729609753 5154314 926678149 325512393 689971001 962828451 401656316 824887787 814997332 785732846 818990008 107467290 855211897 530822116 443982531 239654173 407303126 876474402 113905297 33467512 357437109 107901759 142295402 859042600 445286663 565811334 858587818 828516045 581109035 953584508 101356235 116166729 932016786 579603155 547850156 828496151 81235713 790621112 752671180 861818158 647539927 746245777 606374737 558044984 214175100 921887329 243444596 325738967 901172423 797759529 423246727 582093208 509415243 101175643 973066737 399323041 751579665 920938295 431528802 927717213 373777685 600202160 681920963 937396447 591228693 172454760 374593647 30612190 464653119 746050005 522666652 97649753 358074050 768771568 981205557 767414755 178973120 982525313 327958019 736630483 693784468 639209782 889269162 118567326 231369839 332570719 498704860 958329439 396551535 789249117 493408246 4713742 750391970 938829520 382953904 790076696 720820656 986687721 941068732 1026125 308872881 752338129 357924823 418497793 254548645 481151429 814889571 737983606 965713950 541226294 743078953 857239850 970156998 851903949 642849625 471452781 917881169 414937241 39940973 687116510 366535777 623839145 505285414 520788917 93562985 21120659 589141011 627199865 950977402 695772933 369844752 399789589 930185577 627230829 388116739 428869164 213687288 96275347 448868925 302715699 218014191 542891891 228632134 158233887 595906708 651720252 984369975 704595416 826693095 474726298 441019520 567182804 768852038 463679189 563104052 751726815 753388161 721538781 471895050 35295607 362400144 456044599 459200658 722725291 894369419 889069165 686068971 832087222 477787547 847888785 93054185 421436764 736365978 4833600 95838725 697850081 960420135 357267861 552470845 566295096 883185454 968685570 598084849 818446744 980850141 425052587 579065376 209217655 268683913 954618752 684243438 990513068 458281325 191507298 106336890 204888249 926795275 774251336 34559587 16595272 2053639 891699101 242442006 346718417 968104068 409914531 883170929 485802008 608913745 217398371 717790830 299839078 471337027 896565642 795687792 700209944 358230112 903324031 248946537 724027168 841344053 350191009 678025810 288454774 343461196 868241944 966705667 174043366 741688730 50267880 11186719 85009 161566132 276572251 183742435 927652521 216651914 113550495 907353806 427758865 514844181 784536233 162839565 40454467 733890734 973000579 340885764 677014352 677010734 572642813 953295728 354879720 6727883 197832828 992949354 505510714 817700089 151232956 803714225 781713443 677879760 982133902 865134324 508469808 463365867 698164944 905969286 142327751 395845329 683615911 154097574 785452309 770112846 976438126 415145709 917549242 531422511 953844920 884002925 344844740 833185517 266548218 546956649 463643697 490633895 540572720 240417562 916197136 275487740 834338019 175102679 650709230 11990182 345827562 607954747 124416658 464756978 828106124 625730211 773006355 641377475 789364559 736008057 680289076 176259345 99319841 509443810 327820438 93799176 181022011 447684522 513378737 225281791 817126385 500029142 955504026 567277324 939225994 773026892 427431408 792795534 295820624 812886993 256496530 82702952 95296556 428849772 785686334 304895380 864522674 605652835 264662973 150952305 939824825 352765183 970392167 787745596 630382085 332008069 486264186 756634071 778004413 458798422 913581140 723018807 466729672 315028993 267378871 233064108 927232514 384949561 905427720 773080248 301706536 694049615 908741157 748242824 57460487 679980583 162217899 145074979 550504965 469720888 877088442 833089168 925136523 238963890 474464196 322099524 801807890 623749030 265022563 732308296 917631134 831105060 929156827 598568193 983830484 619625130 71821788 490874564 340078617 784624766 395795466 807357087 604530516 343940496 113459854 334207187 423067904 705642706 923046967 436218557 168840287 859293971 954823522 344980107 453296138 857664695 565876029 571846990 974546515 443661242 556897755 77234268 623624858 796027271 733222190 74393956 892032726 533260732 267279658 583209264 869176750 810646634 619097920 960517581 989542756 421467979 285549404 360639512 909066965 458121658 915150093 348878365 609340862 823556309 547771747 263231546 538070519 931418524 313739670 598814425 617009759 743216166 864766972 237998027 340719711 971012248 273418382 602696293 901340403 894056271 870368619 299645503 147331927 211593689 787419792 715892277 325823454 323122924 186038424 593563370 458385059 448816645 385167767 671216967 404238424 745418814 845214839 666411176 846882016 978547896 976250827 752189677 286492685 657592585 75731735 846588384 417065790 847836993 565877053 521955531 263356467 682433886 897401370 867814796 282148776 793639386 80324915 55528802 992171668 199797607 665952761 26229230 671422324 682784495 91383618 651993100 397534694 97164070 416581610 616807434 887406679 774527942 153009415 394777050 681680140 268649011 476141726 773231946 131786148 550579036 297462292 649477462 870434946 285870243 782308703 361611996 666597599 195018607 871902006 789084834 545988631 730885149 73185360 225714897 925488377 838100348 789196541 53415030 791941213 616555726 647260227 307986266 405082467 787494125 986189959 415139754 820270404 562028770 711524908 965824735 948026132 984761491 891868495 836987359 509426058 936670287 58698215 744223666 181286571 914733474 156282828 825835209 792676813 887898898 931876863 552349393 323865189 172484649 378744865 311106699 493601439 107507837 157086948 359136267 760168837 405514195 300012981 614388361 72055763 587056084 134958134 192986998 797642624 168755574 520264265 210909750 681131133 147788922 552998991 988581523 609725182 72094028 553968167 715529667 949247379 442341612 453164996 873494960 78964720 998909757 817564645 314491153 90152864 254477696 264700153 973071007 200699281 1189916 97637305 224723883 930412457 206325692 277088384 126869103 64503430 501616391 540255633 417873456 757859953 390369777 945427492 643601748 62886066 164634357 491319082 248186769 335833797 998944546 205995455 41581937 442217770 156434597 229434107 976141476 760397087 129528768 487257486 327214807 25094883 631485790 411380097 192442027 919094336 663389796 330952258 892495026 709932607 350203180 843200191 860278222 640907668 932048025 555517415 890419822 824649062 685562676 585909117 230494037 946164409 726970552 364022902 285942408 919398590 396582914 11954835 137881595 890499329 909753074 540452334 565092316 899207383 26642940 925852433 344805366 418058766 747060596 227927876 475187243 687445777 960677092 26885896 988946287 591178708 633300776 555925836 858325037 653119171 125136503 195947404 948936265 660020886 845328572 913344875 324670551 890716333 574326926 191941222 936263994 289110154 85301136 746613912 717364559 708758843 862544667 722028909 397339969 92353432 413453657 651742056 154812921 106703775 582665600 181356461 725182033 899589363 656838021 148621661 176711127 482867405 624445880 762080264 251910549 794774278 392385885 248524195 921119353 362712555 492029315 838368907 378500204 436281309 354441504 453180290 696182610 415184865 472027659 190849042 305583100 580899354 189806954 372578067 787196378 271267310 4448099 700397171 837505598 937592627 572580377 769009123 691643708 807271059 510308201 885841993 841309243 752192782 603507116 419143822 316689123 672598700 711108142 531111636 114455394 657642983 356195878 410965576 933326249 864443241 655265973 510541827 124901763 726202491 66412306 17135310 308544231 999050958 792235524 852645059 933504017 625734543 82882726 937481494 688182577 918396690 796259708 34443225 328123573 973408574 536447563 931143668 127396011 348841949 342694557 788652837 801761914 690888899 116937680 896214016 14279705 54058392 229611706 800240312 774526210 351071490 281197795 790712787 513073536 85613735 575981109 963065762 539120780 882747095 279185956 723980680 8145283 823342602 737441321 709146211 961262092 78240813 795070519 506583102 140971171 54745243 109302813 541377914 37347126 394108492 439988724 655215179 838163403 246074029 945017371 602893570 35153209 252736435 23242973 957539393 8440978 209704780 939299462 464871802 543142534 425868384 102322181 134751362 784205038 578336567 112900252 625075038 93242190 910178530 608578786 7513444 789540543 533108573 427528569 625865956 176864107 526022725 815658119 188196939 437414799 195668649 568499817 263798688 484978 466502371 497512889 858974319 856008045 53200572 83126820 615494528 717333687 282108212 884948516 370872445 69268242 10558314 831628971 342138368 146401006 820932252 567830153 646511837 734390884 334553042 247732351 993343766 402222761 673176161 305791391 689948656 23548911 116339723 223484993 917990167 892332159 835683008 911371434 557163250 930075562 770271279 484358605 546446503 926252939 32563572 895195379 815696163 84665604 830007995 411451586 575871682 521818276 867565270 882376804 376807232 454049947 314452374 223173135 813127352 321777785 885958246 940621125 909478213 175217413 846944469 418875173 515173068 837878576 522749542 494433718 900910029 587252236 427765026 329461573 384993836 723610824 125102610 158830617 134949786 626166007 340707593 839242888 762436113 281947125 366989825 921642002 488132809 82590612 854697233 201677467 351602329 719457987 372603539 40002357 279173560 789313328 422889965 575740819 255172743 578672059 326773153 732192597 832214801 215765697 216350716 288393666 741204093 882932470 209579388 768495439 661279553 696688455 328799189 597793873 862718653 405104940 37782696 210235760 162402473 678735844 244537963 845128802 325781065 277793099 309836163 769354300 12729293 993671149 332163482 370213953 256545629 739641225 339878004 921989936 434919910 222878624 592350777 531777855 446446713 656222351 334047293 867699478 187674553 102315972 812448771 874110828 101849954 58829544 98499833 393557376 62288519 606635287 694482886 541199104 395338623 163059031 591977448 13849946 863934530 931408867 238319932 65832415 820150631 992818450 252391005 716928024 833996049 277625787 786676188 667619146 917883424 27655334 749476932 859392595 125381214 408115876 261897330 396934952 550392255 8127602 676374833 593574180 175508426 498843550 780151282 460098859 545529212 724574083 28195307 922774006 542890427 675693340 192392360 957508022 271970489 631006095 490378960 345580260 389214766 750565363 743081959 576881491 496983531 834794836 876315909 675801696 749835951 491081109 683735642 288970711 393751470 76312743 458650604 880162713 622545194 54856926 669422011 963358659 80309972 162353937 98777053 393495022 249970329 754875844 859727814 980701059 91055657 382659741 88979277 549289514 27922397 625068542 275838842 262484538 954528110 649760787 198831690 413082558 710336054 70809844 842711504 497453326 396214160 999944630 151005233 880771749 592653580 836950458 431384336 758370673 76140117 625854068 74547867 97090839 549076130 593738795 179006617 213730059 958074076 112003523 627346931 317694931 832697899 421834858 968581344 760706496 168735587 128604939 781486441 600907846 281507057 89679709 356183509 796945272 245026827 398263451 836025388 382966739 402767823 849111157 706524502 833227668 754177332 826052915 44272148 107534843 417105357 26927447 358690063 862936210 268856026 612692799 673947288 396751037 84467072 690159580 297563338 366019769 581978398 701591512 787687514 547571455 280739232 597945466 3297210 331704745 46135841 34146110 123683588 146683522 507294903 358889595 817971442 573094754 739596480 353471866 358465221 389083647 747163175 66352885 2955566 881424413 399711307 900979810 9385364 421210335 512633552 954206466 134475755 193414393 572336648 545175417 761216794 495893644 673103023 743942063 107562516 678769709 680223120 839880533 434875111 853704687 405263206 634904855 293064662 321796236 699921431 895961172 358979832 473146915 11352290 591752713 704414591 781038528 945174198 692054137 466835466 368096078 267199291 751239370 356467902 537429953 887839752 290213425 5134874 232321580 819545689 383292402 478952392 253286155 139196244 935849185 456703265 586123387 80695669 782978970 210144708 983057480 99470961 548141437 296680702 859725463 308658662 378380830 308984617 616874065 632309566 863126880 614378363 325100809 969210358 331361907 610297023 596841135 252670646 240402690 119154535 196698182 723645633 825584025 533913579 750141240 855867925 909256072 638262321 841008776 906898533 711883697 868443226 468549254 214863546 499017129 264512754 786521979 471209435 386296949 614600059 804106671 223528018 79945142 288145036 222010039 233867745 7661170 28420729 43268652 324999758 219519481 404470636 763925935 41366732 392443933 254379148 65678212 979175714 462087186 348825721 530918596 731086952 835034870 409065016 885649929 187762539 543718466 94229574 440092750 21082917 528196714 678422734 469151274 184079892 750599451 129495079 616142346 663177326 670761539 745510138 187583318 65461253 458068408 254347391 487905110 499183260 300750225 772463721 432335025 726281103 86562839 804726409 257129364 433650462 546014440 356801319 684324373 815095820 789282253 296118358 372887750 247773600 206402697 284444386 511679967 88782510 670317819 485534720 925572763 839296462 517190584 135179379 157382839 37988440 339576616 795320644 675159535 36948110 84080668 216795604 873721354 79188072 411720732 247210148 839360422 280903003 188578448 840211522 865324670 398891078 27737585 248124319 941944963 150475608 159046599 444660098 683013715 962410969 682784764 394630505 667530194 767520489 7642390 89231898 888876200 737391904 44484515 395631060 230461508 437135781 148679776 660261350 253387670 476489922 573767895 485061004 949052166 962419575 246980023 410982967 944682845 443662148 463776848 759103578 302393194 132455077 421612380 445127772 110832715 999899714 76911345 789985669 387574515 987557858 591219511 513353841 508810574 335205803 877947062 185206017 934893494 102160655 525287400 759358889 480139459 4929269 987484791 179597639 407002860 504367709 746284656 145655604 295738073 829788815 277546161 501393313 615145896 615745800 889489047 308831019 218630694 331136351 790154144 56428484 117015393 988149281 63627819 880049699 197413481 179420586 275179510 470098550 65268771 171334568 482276866 164458330 582467183 410454499 787321170 78703436 733882233 600743531 218195353 433342388 597068885 347836748 370095056 146744955 551436483 997728965 928838173 219100883 718351489 332467358 867441953 631150069 705499276 839709765 230023061 105411863 225718118 302795460 601104318 104022620 307300815 439978169 78177588 797019141 895809717 260606017 585285068 546116733 400856941 702322547 546775968 48632861 157994159 7228197 348483289 119401791 917956524 981662458 720510105 219549484 906828149 986515199 159644875 292535422 4701872 651135024 640629758 81248361 287617391 290618654 356713156 647531004 68345251 398546311 802241155 49250523 462099123 937536252 990292268 405831029 854436835 732943323 146789070 577058035 808157204 462123034 42021832 118263381 720621751 161763248 676240984 358429204 137013431 620081295 403430326 826508625 267076534 666833718 253316610 950678722 81268544 525106771 784753283 311710572 982972175 760548175 234692984 279819807 455035671 204730716 439641455 436777811 604256508 617592985 145587255 55520736 142521447 162773934 478069872 950851669 570442780 616396599 801036721 584949395 942363968 909627945 9411219 546484445 340397630 15584826 632297524 184044632 202657125 689788792 465131148 468486641 752793240 893607661 337763474 412005472 291984218 396044060 973345518 734071936 425872046 429342174 806247192 750648319 325811562 369071096 335180654 841454606 575318012 604268353 396953945 958861509 408964628 994486649 185372854 979698413 493511001 10963031 521880794 109071488 369036855 893354089 875384680 299333987 934877152 343277757 582452267 627953919 866248897 778755579 140409365 649703699 180106226 977475556 748452614 828946017 608535318 832736427 662921504 623668099 854423469 148102562 200507257 310231768 739617412 350339239 35394423 952638930 413936326 230860069 872154888 205509537 434393646 226571136 972622626 769228214 871891000 329425262 764456930 164939881 197946034 913656025 170727301 894952302 321082162 43192368 76466524 739591392 801554488 914645608 749698393 629030604 165528734 767294530 254156733 155800005 260746253 49842 732607886 728083905 194082176 954011399 308829441 505154377 611715849 150264099 697399607 518749201 147593704 703533701 636134460 152786676 33805487 957342487 496705377 791683905 877605866 465430113 398473313 810531654 95111057 52191850 981834735 219750679 361631692 440674194 386052308 118277649 966840134 361926651 714485430 244804239 212262190 578392177 594646385 142291905 427404070 137945109 347936012 806652513 48047105 315888434 957528868 410013380 117993308 348491897 842275892 400220148 196859672 523219019 965973538 24665029 480495898 258988932 895290398 746758290 348400470 970847942 1387785 186534212 277300331 832219697 715335364 356477017 971312213 548589109 204750674 962976674 329315289 195028751 853767345 894938922 517676088 903629121 846171586 649321930 796321175 152933162 503416052 114728430 22522759 563378271 154065614 875815719 738439069 906186029 815469138 567760923 827689592 430989422 548330323 580841101 415015726 950386136 30585411 717421993 818860216 3747799 338523257 972111367 626706787 776537519 341710294 855513784 889383922 644804731 66848842 372940814 967773867 114673426 518496286 835275133 944081932 3454935 943455762 173793171 969582232 912476528 956468329 57803005 928500674 414162767 89221034 14901930 757761912 449396847 391338573 669762819 756796920 564567309 825216270 89551053 957697300 215135562 384069781 105122113 786259682 898790147 540301071 551147283 66895369 901231795 704106509 12298747 536599800 496701845 133438920 326019612 230331492 393264490 39606317 139376085 223163177 558106410 747024794 518262174 490573775 759974938 202293179 471502911 893095603 254297979 437416584 794892030 47507623 373697573 920495057 454481157 291877989 528798602 891321782 179680660 351183869 856781424 885516062 741347870 302839976 650633340 644354760 18793326 431964240 834440942 926931670 454149580 965539025 291385329 169502034 303944585 395980134 244849728 684175947 576103446 1744353 806390536 667074663 616958164 634753007 745444579 903103198 607737611 357815333 712215203 897299575 422920960 526141466 944572337 730445330 281901656 422975582 726875254 219306040 795439606 845907605 562576213 284611366 851376067 514600446 580876465 858870436 103262246 377159939 900911632 481207627 311732813 97141720 313170990 574710500 885105535 970389119 792555977 204275570 832079500 464421920 416675657 491645203 388864259 177476610 842656319 478466699 365658890 802285050 192519547 625147272 121407763 349652726 10780045 480000950 116119338 962927783 223734452 557029773 792880053 80530734 755650859 67956028 385348151 311827735 499686563 617182965 226022463 895626013 434284069 804876153 249377843 393301868 433348029 544692551 195119890 365502673 253256148 363451424 849719240 769696866 888124278 356849495 797150277 902142032 709512629 908018003 10447452 43077424 225395499 311626647 314989657 280207883 885756618 605692797 105798806 175694505 493027315 62874316 817381989 120769609 219008150 990235791 788490589 847533298 804605615 344711114 222705665 518863344 262271857 582659982 329547650 15118635 442559021 725079444 987553338 353269617 885571010 362978931 334781230 686354362 868802779 465307596 429934350 485292042 852890626 331912470 929681017 775214637 634847250 412647376 42526041 114164828 971845758 608234477 511869734 531663647 219415986 517217115 14156103 188009984 475339194 180125486 220759087 745551157 72180235 294645711 95145751 973719530 730945818 130894622 23158926 757567018 520991253 222220559 511562674 148371060 919366013 58547544 770916863 4022152 369248170 400216118 432669673 931991875 88733440 884602942 297672684 525334342 165309924 981028522 691370577 436423639 173083016 215252743 668678098 660115684 622427731 833862926 651370183 26985394 336755614 143868419 566355137 217338541 503449563 441335486 222847304 612275781 220673495 882822710 32606033 503639967 32079 923538980 766734235 902489028 111172203 202105508 522386213 228734107 958521649 756146512 311468283 992600879 97817838 999610892 123262582 662425685 34724826 737090705 271491282 723668130 702262720 792676480 381303828 139254203 817994572 281413089 824158060 782827920 666563128 942413637 587857793 836720581 805840456 852989443 300378191 807790500 223949422 136181348 913138988 984616255 689524177 708708514 501754901 42296154 995202130 656852928 905365593 881955278 534116840 955076579 250582260 671613352 424318363 478649562 62224328 783604183 326425206 513147465 10528378 426829937 646235143 877194941 744030852 351706510 59220581 65138464 43520522 252031198 327074092 676559254 716031458 2978129 599408765 417499974 326495212 742586935 290555023 550226106 69154762 307684281 295998563 214409856 761436080 79181009 960737656 986796848 750866449 172381435 396455814 663412500 39773985 914618650 560388802 148666795 605094949 667196028 539276807 34765499 156822445 185918925 458334003 861803710 156697266 442687355 250912554 938995427 233395156 431184796 820977784 976227170 653843790 870684199 364564989 616395726 891872808 756155692 487539686 408975270 863554937 863764902 742284167 483528983 666231015 872388786 906881189 330161817 800389369 475150099 640041417 451694153 137840671 369638438 627781714 4180741 80384622 358827652 579150824 877752378 904546246 5126728 778027946 673377085 370846759 857400056 672364060 102882683 983556894 273450810 364531186 669215038 666437041 748353626 64762477 187740404 561123593 716603660 198919689 544577708 966869342 96338876 628648483 731642872 341672005 259302410 819211588 204246385 211442763 154445178 557134981 695055393 611348980 779539723 941718121 904803361 691685049 165278650 829834867 163949288 251237109 467084595 250796889 277166696 971877997 922746596 276685097 542745954 525052788 422236678 691813216 241590237 809432188 619202280 968269453 333616073 477784886 569355712 723121000 669744185 917047108 965763491 685483746 675158612 726482990 401404946 490643552 908013889 887720729 849599849 440343772 343462563 217548613 590392602 256074609 99459077 375903189 554682204 712081581 706168500 169441172 895660551 279171004 756917866 186704720 20688332 424295632 424170652 890589295 79159317 441134931 753385766 75131950 529081086 871913629 88483440 684145544 495480129 601910317 443342612 527335439 102107380 111040168 932969863 926386089 166416739 691120005 520355145 863419459 563062915 662890818 779290460 566744218 948588093 78054304 129636430 677325706 37298582 934484015 660539606 184412996 909173623 142287614 668357079 501390589 551676847 656653757 526197667 75113634 962304989 589708208 228749140 511298764 212694524 79025048 410533523 665731703 937558160 315275145 14366636 661439626 505689935 222756785 415591093 117272587 356728475 76988058 717178183 758809086 604119167 240972320 843573942 562510186 461411571 504616423 887936154 945400615 165238691 814279750 452043381 745653918 71958624 62208564 101059887 173629810 602182625 150054275 703078959 720018688 871851085 886525442 269747358 212277975 991603386 677108062 900179465 245870906 789847963 158005901 874288104 312915525 17543795 195408154 542121265 927933267 115694799 126973926 151065037 839757506 878071673 209212 445368711 51051068 214880750 672321796 398340822 737605972 992873893 709301243 66289612 388533892 233336080 947332825 186938891 240115310 326074498 380169177 361408370 229948696 100256700 41783828 56138478 757701802 689871008 371985474 515287189 779187804 703710162 577223455 606993578 308490486 651306240 651112794 68533602 197033202 37052872 366632168 520509144 389460426 564675608 750353133 533963431 264646831 773665245 939683029 36428310 814472908 426750288 907971049 75543588 634332883 90777421 4986518 854961014 154073404 685702735 129424489 49528670 246458485 794561927 496798874 34613990 352392390 682740820 126134642 175211379 940711188 862331480 295364903 316609344 13206602 225466488 278133802 9132695 38277845 898349043 348887343 430095739 807386886 273166693 922494478 510848252 391454737 626924204 600269514 935239555 260429369 274065964 227405089 888521124 236898404 303147373 476051269 576722980 675944071 54379048 166343241 660099754 335322161 658508022 279316116 340384236 55669374 421064864 299776793 960324915 605223406 698729694 442969410 201181984 490326167 589876100 986407109 244830881 617133972 198025928 299075109 756364060 669743743 188698506 345478894 401990967 532729929 147683311 581135033 542750604 375254786 84191296 926233259 440100360 680562474 772531257 972477588 970630134 137597442 451279357 665381587 7047201 949009503 463075310 806168660 837571249 434997540 430557847 316898349 57700422 966712390 497985475 904544630 463684297 604820715 357141239 665542952 780675389 6843422 777235796 165449366 178763190 548923635 875995101 182159026 4249700 214127818 197405206 703641182 603772863 602898624 288399074 959276754 634339009 432404834 208851758 414627404 798071706 899497232 263810080 505959067 873905100 32909678 272595077 67526948 482155598 144976017 784803258 565331944 191566072 416729351 19714241 398909299 756548097 276058913 213517259 680274399 897413524 106552067 847996352 17087195 480492780 634730253 42695104 315831362 108905310 82544522 291504975 596971907 332296337 197094367 640611901 190345429 76034618 61954418 66508671 446820585 637886705 98535315 312598431 209987142 766730936 919216853 612700826 826861627 159758393 297230527 629999997 236170342 840568087 777412713 800455537 166965986 761233441 323249025 770357264 461451896 898344402 483727192 745729980 303376110 781054455 702314702 424344557 164757522 316477443 168260437 313174316 796144808 861256889 255250451 500338967 94555078 265688517 538635217 618558366 991639318 721398289 575667047 176321062 72879510 417565535 465798244 797201112 252892637 294560213 362922569 887039214 912893387 183406330 183117493 343289091 873715677 104934313 327033823 441339562 177467263 290692195 844692764 125945250 96527569 600388966 6225050 976235045 815188428 245593320 692980569 959811033 302626309 276490011 620843610 462741760 212270631 326369482 984126873 460961991 334544820 20872590 118696691 977955826 486738095 654878995 487294117 130590437 292073134 460743205 326342481 924768238 658569517 204039096 330903394 790553544 544237575 769879043 229448192 440567703 254798405 354036287 8799723 886857985 399531855 872011597 564711752 942410438 100599409 109382291 97725385 325977792 269649676 422332144 725777948 724946898 204399891 826236750 658252109 388188564 746689799 273791617 62499038 639568481 690314066 168274527 124220070 473033554 513609430 364829248 506699701 688459958 865720402 110877401 315129049 542668829 660365195 478854837 382131668 2116876 550528631 874725463 133230365 92635724 220621987 505943459 195754790 87232700 13906195 147318056 685829479 781830332 740213107 471724061 600130098 772539452 828595710 405852385 239638581 460754389 18559783 908455662 671445636 535629972 454468916 475721012 118718328 525602772 383085676 746678071 454691353 141401014 324572739 753314449 389180309 911485035 734547330 578030168 71064443 86783027 207197780 970665282 549277516 441749020 940066942 29930781 232220720 205204382 835979399 468797197 817428991 413243563 316189696 849008707 900288301 420403283 904827049 404985228 336759220 885413895 964473425 676942222 956410819 815625401 735650376 421793533 641864865 672039388 811019630 992357007 680977215 954251138 936042728 48769168 62867612 623197682 853147799 110767165 733184694 14980629 633273056 866018648 896827910 342961290 559402861 525304015 574897879 231755444 115119047 164681040 131218428 328955136 642456401 68956096 97347163 953167581 489910792 157409327 157157390 791202316 164324171 877254788 833593104 175978375 11068135 753603049 849153447 383654572 123289376 295994911 277619891 361633129 473974795 399441030 276997431 333107691 455049355 55684141 623489498 455282174 986713368 248165708 38015951 625762352 277107076 657499032 309504709 177286452 574194938 851713398 994776680 796690598 914561331 310272401 329593876 527692240 618463240 546862270 339886807 221153601 489071613 612900015 741285423 533539991 606913511 742944056 446078541 801987658 323580434 326079328 77254059 62371440 620701728 809710644 818957339 22565939 24563841 634203546 309184265 442184499 947752487 980497696 315823946 359007781 773425845 518256928 715772793 622285929 96280262 191924521 146923690 447114683 942348923 263136874 440426819 479577530 661430137 419452188 857561716 293473240 471117949 86789448 730553698 393759273 620145984 225045720 845160366 695519524 676260765 138910667 888973696 300506321 162871961 375513432 14686095 200484120 76947843 273019039 213120385 431132845 31913703 858521349 525581831 735928083 693746469 172813134 440069269 86957705 991399022 325241909 308139726 205418700 14909782 611895187 52181279 768767682 150183816 859045468 867073034 257133075 717410577 866881644 644602778 141109105 562672709 952698457 332383322 587119502 54892786 871276652 498659628 692787496 442491819 308656721 611766437 588928835 425430762 844915251 576691923 663152335 557368231 429694434 854867814 610737040 579905141 382356264 451451600 853162077 818711174 935366260 287602337 853227095 400402207 839478815 30831111 4117925 799104296 33447632 903257425 160773248 362034615 807404003 162348583 351211335 487505508 634064077 504983512 870066394 312178141 439427574 995938574 702712824 220476342 872200327 982254247 169594235 46606050 509771998 713225948 235647477 928132762 534731983 583964254 548583847 567987515 441875154 203049891 692264305 381014267 63981421 420404646 45723623 946095500 351677559 355251979 282941883 873126265 129511995 397831879 494952088 481093476 999250435 33018187 886342958 831069807 193551125 178080717 415692205 266770364 491155627 642233199 450906487 713900359 62133687 615265241 153463863 940017135 138550579 31171763 5034164 465926952 113061626 140278809 916730641 733200665 315345976 350181196 993700584 384071950 533083233 957742989 148284090 819453575 115772085 713932965 760973760 394032957 980228982 193054276 115967023 486512774 411023130 815510763 621719681 117320344 732485233 208556458 280161996 552360309 953831936 370741640 727981696 924722038 543036800 128839373 17349790 377606705 600600049 440383737 67632970 326979176 847889132 889808264 745045380 504348970 747100716 326963453 910428214 994019901 998707337 579050900 402969812 102038673 458752147 611554789 696145533 755057446 702014948 628149647 271533659 655810509 407197554 770789411 588109387 781025498 237955521 752678707 720044819 416732020 529037563 295522479 563705531 897908171 934171784 993374253 168536693 914282429 697784325 687456917 590594611 359315692 417154333 83701967 405415330 781178594 828912433 552409840 704398869 808956736 241080626 12717337 282659198 325975597 984625175 193195442 467947954 295172548 885901385 570799659 811676896 500120888 547683437 339362254 56236282 950985836 1003191 666944250 548673066 598861810 784212981 258283690 299571825 22272709 830560913 573318468 160792822 643347868 72058659 42331728 847866887 721045790 500033649 703594047 129096367 66187367 266708243 768561582 935295160 970889583 313404702 801644898 524844434 685742148 548530024 18050984 749984274 948920202 886569133 219075655 727974286 863697898 615143839 911448563 953319998 416095217 127391150 97178012 771152892 681748598 840460377 197986479 464589079 609465437 176848423 377310818 605189887 811609608 637745963 137672197 280478174 403459938 654048891 924402561 864812539 157315155 285378148 936672348 45826115 813877218 843521603 654636343 477411185 109882969 835967590 897662382 237044005 180367970 435024902 979277960 946384437 258220490 275434489 945225436 893564418 329876342 698533265 592363633 640245379 258758001 699586219 233788449 875837395 583502155 751299523 437973125 496490853 380209164 789781268 801533075 919825254 371368942 660903854 684040902 106766211 876415225 498469742 692192661 143183007 613558951 214528109 251214120 609744034 706790892 515760448 636166267 869183387 20472386 70886804 90907285 23479360 754148290 66276067 630011364 186472166 321500204 75296454 135145002 666800673 249616021 113340983 623177624 120508227 663971468 121942538 578067536 527768294 518218600 886458315 475136470 220012214 716500256 860174816 422159109 862739691 529550357 16681030 327372115 72671470 718381121 42337875 237813952 852487357 464380777 437513727 771180408 516458403 458599947 596978257 514091199 458570014 233995920 728989373 843130534 115453327 257970435 162300849 66842757 692435302 878246418 715323516 507264725 614651905 422395427 747598421 810460476 843963119 919196834 899202880 533147212 833300959 210769163 233626372 823211085 859042864 655783673 444860918 811064170 371238155 725620883 780852298 103178781 442480025 961846431 116711502 675888935 725909808 619529792 40419981 250544968 890627701 616383104 573890975 498310738 218768192 402584045 789566007 606505755 127806795 437919520 518391674 519460653 32066247 605759238 540925421 896606767 994491569 679896795 922586581 383137646 205753214 576234611 416228254 891064620 500086826 391656386 707623697 183940431 468301420 440898976 706655708 235089974 775482580 489625667 174245215 175514155 396621009 852466089 664625525 399652827 502123180 281204073 666755451 793560028 683509415 133914842 607289251 489542339 897741888 866453347 707931236 932139188 540295833 395579964 144815465 27071391 193130335 280408288 141085418 272524094 105858053 762594583 726943674 109664760 275038112 958871424 144534261 800291019 253498713 165475061 225554548 648953528 231174834 463986581 613371021 280486330 730150116 16893294 518128625 52954845 139185416 645556001 802067797 594151117 629734835 529015591 392394392 465711513 223758687 899017030 549706097 184179556 940540831 431786945 836383362 385500749 268889196 735849543 400126342 150731025 699648728 145250214 149895086 496779085 787335852 177984802 458242201 741652900 513192636 457370644 246996215 669233032 693237937 613392055 789995722 51154353 350384082 207957283 104111197 626956337 73524060 962676520 860543377 752589321 142130246 362716054 571545058 840395198 949453664 592356896 514433839 654824426 208180419 339520720 436878174 990885949 65115286 177997007 341584071 645475125 141211630 935652061 95863320 978395890 200845608 46698927 762080442 6860503 23074007 854220375 647214718 602167077 334094204 728621854 46778390 169836207 3978349 35937661 828869138 499281512 729525949 390287105 532128298 15377258 552528700 557359725 218110098 471277571 87405086 521223700 378910488 278794739 107883453 667591103 537461258 518373944 974589856 10156307 51876355 353399881 20211356 323750644 109539565 364005215 544759980 47278339 833741629 600383971 535940777 801563164 626490210 890045541 63451770 159133706 425781170 862052782 740184351 439201578 3480263 596033102 266852958 387863417 569974714 809333588 926248741 492076052 584718009 499134830 852570154 775006030 460980572 68937354 290693315 845914994 795729495 433374052 534782167 535538830 560019251 497067988 909074605 556375928 516343791 131896960 877698153 139154962 297152373 510519665 726444559 23190997 518046243 499838562 336640680 440617509 380191169 229346225 222422034 947402280 912982541 631283619 158112989 808789571 944568693 494595233 267241838 401750158 242715611 689430718 143235789 381229810 1664611 156889 761761052 265709409 490841316 806480475 508194212 243716927 341988602 758757770 931674165 903078239 744574402 63981113 373350225 110120172 686636816 499619368 173677462 64030716 963314480 911990617 318676730 241336083 140934552 165171773 457319275 381320319 330980256 854693434 442945141 339439889 756724639 87397827 952796727 215038063 613709275 521038540 742607689 437552161 501839612 330700095 99778835 814814702 774035866 398970757 478033588 484750228 657627553 935812143 991714504 104514981 636581647 159037673 399256841 147274484 988704106 256859590 581878143 634515107 813640530 173779909 375583971 25115400 228635387 881448220 872218304 507696202 5612264 114071707 332574983 934182414 285138769 580952824 989651044 766808015 448878055 99088952 527304262 617652688 994894950 796452431 410678008 211803083 500930056 547638070 921974019 718731544 468054089 181752461 269274436 243866687 380375290 580822683 829366760 600315538 265080212 160911054 783654212 416856724 649206977 50282221 230905458 201895416 64135704 266731762 875634286 686926183 754159075 982040701 552343013 732672490 544646499 272522818 624772335 14546397 621320835 747716030 198780835 750866725 845305716 991588802 372320001 138538474 508773127 267555537 483542655 211891088 792101200 459365602 486260876 908531734 431439711 560947654 785434891 701853975 886828205 565987112 874476907 780557671 839929512 222249158 71796313 685877110 114149771 136089034 997568154 87224242 949885933 309762049 344751641 626038940 617804709 915855834 188998951 722325712 224443328 732254722 783651480 736314065 137301235 445907200 820059598 954099529 127420570 793393577 478339555 663340280 534983810 975544945 500517418 687336853 709604527 426505284 229729037 393592840 118106832 158600751 80696037 595690586 219911475 570223100 750318134 18003713 116953898 902200517 906642467 301934880 291582042 601835297 754956927 835047360 681845608 359627893 973318910 606172639 179568192 601381278 677886675 866185485 830611189 572681277 892109980 317336515 775876387 75716741 181287582 69311909 957124663 576445411 193418527 693319771 846138955 598105484 294819650 239135809 228811375 614755298 735653064 239285785 575610048 561972833 181675658 169275758 297358791 302808700 642978075 84322502 573807867 145388969 260088386 966981666 601661705 225451631 84272041 331743838 822876534 868688137 146811340 921455483 188870500 290161623 22713030 796505094 838205433 877916775 717102278 989361074 32060655 933114556 526112225 905866522 651636518 26122042 691022146 371969454 771560055 903757208 952432230 848658254 18438321 111407230 377159806 209900385 554871935 817383040 525504532 415665695 366465614 258029014 359862821 492015019 506326819 367029408 988162533 116520151 424131551 65592015 674393691 673773226 796456788 101332129 638024380 371509471 478449334 610207336 74460938 491954782 87038872 3893564 57457644 736277379 517889184 419749005 114100232 584019725 633291760 967535974 17011793 295544689 153791527 916683540 123378234 393491180 425863653 431329759 484279063 287945231 429191670 788895413 640334151 110183955 293480775 54871749 985352320 449576261 41415630 344376231 603685951 80795600 31422705 522476901 335939214 553714131 919010797 923358372 800606839 176881449 99571411 694219181 259161426 471314035 112045348 774345819 535190032 999706115 225574464 777351794 608562120 477557682 325480932 308357848 779446686 915302861 525962777 955942027 743339399 958989291 774147639 648339628 454655206 300002110 597038126 824902582 617626798 62854988 715577037 456204429 506165459 905960520 34917581 878922222 756675723 452490328 725383836 504880301 683736132 339422017 978980419 640628467 214116421 196932499 669215480 983761066 451412293 217339821 651134899 986753479 870369542 331710431 344208689 340498353 50819903 278442321 137121507 29461865 23564172 293024945 605600631 365339267 403143122 86793831 834260065 25278697 641429232 412208149 569965430 567446682 85120862 291984293 345931413 179259818 678926862 372460658 198652237 757902942 716620439 99840574 930420106 527642909 552390508 408683829 765533438 315496061 41845358 913246646 73264319 174155651 865531497 576305957 346672414 348307322 136098682 837194867 960074491 216710578 8741386 403631161 248501950 400657499 475520307 286795751 763435898 413183277 584671958 240756963 973288340 111730300 416546164 756692808 335710072 209376316 690115272 173151898 588452517 421746213 566782099 833150151 867640539 868390593 311694804 106185896 309379457 5296106 703382423 258666290 844518187 44306977 732959631 354719041 818973767 543374722 498862399 539847566 227214273 2571755 118086514 97609143 468987211 35334838 396806825 756489666 474023324 158167296 882505166 126814777 737060244 505433217 790928790 692301360 63760339 484950243 622715807 211631909 495821343 205803137 799762112 542588349 243885908 457363567 562423925 745204459 819059440 323540260 155039399 161692063 379106171 244306792 566207532 949459016 945732633 204187700 238138635 569646101 590543395 399541579 342000279 541475995 938088002 395514680 551537629 820495155 365673140 540844257 125032310 645040212 789732469 512470416 348747281 668041901 519028639 126990807 418715074 550675236 181537470 97216801 215838090 201530233 860097426 282007149 223455911 397393999 660243948 417826770 222155860 99962085 835187983 172755535 429666097 302650295 952923632 791590212 847947663 478791254 347470076 817870675 718595217 151859189 618909748 64480490 533127187 278455593 488508981 281208032 843283740 172101132 421157358 436696906 553399102 274530405 357401356 171013924 389096695 957044216 366718895 990225777 133137416 383426617 873186053 652444078 307201183 938027953 62828813 696383548 389900164 747429477 883561618 108548507 169200037 902969401 37639263 214483188 728968287 430844505 520462734 251682714 936799186 128815456 579758090 113094998 381044914 488170811 252194591 523761330 350692478 717512586 290878825 163073280 190878671 440216447 125630659 836309815 89618008 343859343 242297901 701155570 482081266 790787184 10662679 855242406 712418990 519537882 26938362 70277123 372030381 275737927 637797814 894073283 629786990 387121075 656674265 393147856 660534833 60525790 59431623 198574483 328646892 438661382 76108052 733063349 131944894 806915082 504609325 135641152 494076360 821979293 593275208 228426367 962422410 27258019 993189064 738525859 695934658 978672988 426021651 38313252 82290647 136693690 609985088 496196482 951625529 322101180 624267384 279954933 845454132 503349768 285416716 337709137 608507476 145568893 190179076 541185213 522931092 607144310 379179995 732274328 160610027 401121332 84944587 380129674 548858927 445593197 661022505 208620625 635999556 176251387 252518506 492031001 322042845 342095875 127507233 564516876 476024744 543415626 316503255 797472956 512262719 250010926 165135033 219305693 582705140 75735399 939180558 733530632 349920937 572103318 596640857 85937694 348728998 232227572 183428637 190253681 105550086 181182251 357413726 799605623 270357516 668733676 294587568 372339213 486521996 15480827 455199349 454537556 438019568 925298928 150677155 991197841 941809556 712585370 687337882 849972573 348773853 740900086 256158863 991222259 377356979 31660156 370127963 586028886 27264029 161579687 810411580 874130930 606032618 722482721 66171412 435166816 788059554 508397051 81311106 214855532 653577379 953923891 430429811 955852463 582829250 832341729 112726653 491217744 54647499 352810080 387221386 960637108 982011942 321933854 36573990 159360835 134406183 297139866 525996192 830726371 280935175 730978608 239435343 752651257 580056350 519102392 632664840 790241340 909561491 668979356 38996027 945215925 714574650 500959745 994528727 396397112 710953850 581210562 240916259 619599476 33272843 606343230 593064664 917751907 475767021 848844492 605001882 593443837 132568506 39405734 519853117 612478801 130777754 915508421 603329782 85777376 551029685 601422055 940279443 589843757 106377771 346611993 634930884 106234824 146876454 64242519 603829686 241839647 206191021 438313149 150394954 588771243 926554054 785560337 754851718 292501693 768755580 796280540 842888400 963287707 993910723 598090770 232664275 28421094 151047510 596463059 440574811 336294840 379002761 808957598 781085757 275838322 954666202 442874936 21835378 372263377 249486483 560116227 467887137 271058570 455861890 14934263 121053156 468125197 904498992 640272406 583576702 997302669 511875873 246979920 708425722 618536862 563604596 925135324 330878062 963941031 370785650 869149658 743875191 497965297 548668176 609732739 128273510 552334974 516858123 424559354 176874441 926362240 788114184 728160710 151281922 93248612 497045540 820288038 950720152 466712669 816424205 123652437 108893552 86031491 816276569 528892689 835265201 279264062 725435137 729601106 230102228 724671086 752949573 520865834 711950551 78143273 164719463 563826734 685110909 614484889 901172791 731417480 990716025 181982195 489964460 718302952 677578383 637361453 775780705 36263896 156776431 539046378 883011990 835680369 486344895 276051564 846966176 330569364 345292158 647541987 446557387 934775419 70679237 202028887 806786374 931894244 358417831 396071547 744739616 364419945 601176855 797759830 199230515 647529311 437327520 614764113 980785099 769532170 913067785 269929307 687045436 909428563 898955599 941626510 870940541 607858655 569789534 428923310 168364589 482806356 366731383 676303052 585908288 548593275 109114440 266927274 632783461 741985416 80557711 517526334 926548189 641745801 733253372 161615090 574769533 182692656 171211024 723958086 51856392 734727517 995377875 309089856 986885781 900649090 5037679 125694359 602263300 842074086 860107648 409449887 607583803 67987224 628139534 672081519 541651808 401302691 504078248 416984172 105267644 208152539 882327137 830862236 726340868 845519106 970242442 541314300 853931278 118571938 675302635 917841276 945721570 293096039 957650708 256855566 494015131 158273811 803955630 811449296 764159509 760936172 100936309 496713866 860316374 751669485 897783789 20064213 661204585 634324198 37786822 116536633 58919686 487938355 106281814 58239782 218996989 382908003 823765678 572754691 834886405 221466739 256490230 508796205 608687792 61258503 328870993 463893989 359424952 741129217 451302081 60737894 526530743 347125675 439885436 647223588 851820750 676738398 910605734 902127957 827518145 542986741 182304612 601876312 628405784 782360328 686672163 985344571 73175831 170110493 243029429 616159374 778084768 935206102 414630578 514882254 410209522 798077911 395844496 705837475 521886494 896314494 592520348 22088683 370217616 108670019 697657842 442914630 468269703 692312583 761115606 18746337 715755246 898485436 30723407 623322063 569715716 887981653 14152617 678078377 517234839 639671514 262183718 307651827 226769750 168968268 828649142 145232602 790144845 217798771 869446709 432678556 521102172 579562146 202929845 298492747 431057374 608723613 138646943 18120969 584351213 319171891 664212103 565931370 398258794 440350450 290799747 135289747 919811843 93287618 495725083 531556706 849028106 729684023 134978216 840515236 190252588 653876154 678211318 382523683 614239308 420292752 937849976 496167547 391929484 903981301 416521090 759618800 737670230 624521940 11338719 623292538 267691096 193207419 71184085 593365781 898662889 772277830 601008164 177615117 927870486 369946437 874302416 16114092 184858311 588808313 748400174 626543365 407334463 714729235 902238901 833856356 537075032 68782268 761673072 736316373 19714522 814951370 973256514 423507318 68663813 799331586 231401564 749787231 660494526 947329700 299453300 171361855 163799543 725434087 307711124 971741098 267253171 67782385 986521537 696994174 688082163 25475013 257152810 928274408 659943949 794428921 164945714 891262521 371106340 594547184 802997720 425421162 793278024 194655757 388533189 527989767 903549814 163071129 988077637 225908506 516880661 904827975 993775832 888175273 662828148 797027192 925684371 475395225 47835304 311639440 543643710 380445766 764719696 561230039 712354388 898284458 930412335 60097494 421511805 587892938 850091047 627902476 682024239 116005609 708487458 639596691 681377085 3883882 781797586 842028588 546180603 427557848 336318907 594279828 387608836 699923381 628671920 365783108 862500876 617458114 188064985 323015486 292135607 290124819 87667451 159838507 883721915 640781708 118760834 741345588 592919584 833684665 570775617 707822173 448435625 596791335 361327894 870311811 231758577 862206333 611967313 951211234 284880654 87502288 706190899 631010134 554165017 672982082 389569406 47958546 467826623 377043058 423926595 591277384 11233731 117548017 495889999 704756762 790137854 67212278 475733158 54535430 396910891 481480480 495190386 927035262 467072904 678870064 498071455 110821638 285219810 158049184 789076329 301432146 66472641 393064225 24940515 923577340 940360862 313748557 3818549 596505714 122878663 71921614 116929443 553706295 965977684 661981395 834226430 997555293 208183525 248561860 680984195 544069553 564575536 110232061 965342580 97890729 30547605 140801609 136902592 753278336 68773013 214914117 25207310 106163084 463448535 241207102 508589062 528002288 517191136 903885336 847773697 205142341 355677162 924822235 435841670 915847341 80063577 165232425 244150004 43861876 476655884 203353088 767552264 389373228 87111139 723476341 644543255 862646744 457206448 926604439 222032022 728076705 700229946 704548309 285708738 278216245 245510773 798896168 974200017 103667542 903703117 673370156 418337800 242586647 624869731 12387007 429779305 234241440 393674531 179568977 665229297 151671689 274430030 32837029 973783540 18544910 628461696 869468400 421906814 140079818 317393239 768680380 318893879 623790397 318632558 22547270 932537730 830488138 391269773 847518090 749939319 221990238 666249305 43871309 832048878 595352322 109691923 448587012 177266279 976915762 789744169 888350891 337445333 760318276 91267354 494932595 135060131 679377512 817103493 99417489 39634609 994342376 542936247 864829232 402767748 915195554 285265252 339930247 244979673 723982401 144720774 475523357 401309845 572057176 731995097 836882928 676344107 47614569 593648308 404539565 675465518 468244426 819926121 563972538 594238899 517730283 818733765 412009560 822585116 952651975 793459981 559032191 132769857 161303146 858342104 218349088 34698213 474753945 260890247 437478123 26298781 151807552 947825727 248631643 278726935 447613306 501513454 945648070 622918704 610629265 842454439 584891521 98880010 708471715 479247150 190761861 247086022 315334596 577099649 417402605 148244140 438940647 413159927 82017521 69729081 47950473 516360295 447446031 453684052 460992712 778159703 515276581 92079753 81214614 775558821 993613864 215478682 368790305 890973284 947757953 244961933 312014455 507910268 192290619 83645271 823939423 614706628 273881524 431781406 498574359 428293057 750744991 52413619 243378206 90853682 117905341 380274603 566812625 14095759 109578077 514402293 429723838 309709577 244828124 446719264 321534668 907549751 687998837 210106872 16500212 3043951 396742131 821000255 853516909 199757597 944100180 760347456 874889365 859621803 682421361 5098386 739596931 730140230 147651564 672908631 763548702 533931203 840407965 111481846 675078236 740902570 416680280 668807436 854642976 453881051 143664039 616758498 801773122 746406112 235577644 880096475 885214685 387403505 875300752 408757983 953364637 48403132 426960128 533002802 229170133 392730648 818998062 602897468 203894419 713739480 763914407 84183111 141926831 699395174 921030331 643423531 133418825 980623399 986827881 141695265 718822030 685324745 667062922 741721233 326002238 202831013 415925453 35245612 395720400 66918775 876364525 389885089 981488322 589825744 361317277 420456786 274985396 170005387 685310151 31021614 952244842 840659437 98356585 269591718 851426529 317937002 317999364 586526068 981458965 753816126 97725857 596113062 224915876 577793405 901065246 454854655 820832004 913535540 702254653 836365803 366435746 290548678 712998224 398920558 504265821 785864146 588517812 592349086 485813138 496992560 314526909 148890300 373330310 814242598 942549283 976192259 241848252 291129507 273902766 35794436 46983638 903056805 680244636 61101469 977620944 302294356 380750535 34952933 906024043 650753098 971293336 811924258 56291190 109648128 922911030 870153007 69903509 695130653 969397929 787744740 680802273 474438413 417327969 562037581 741958096 946268715 438876876 581401364 153567981 384398147 650716398 672300634 578508825 479553769 29510554 76825355 945959483 487134630 897874656 199033908 786172884 632401340 581327821 123216113 972893273 872786264 612621205 37709938 845178254 950880321 581160479 642646888 587860103 314905353 538489015 753684318 555927599 5156169 178507794 346492301 170876020 19928898 944816163 446511717 99078961 53209275 442476994 795838886 957831391 568108561 897448582 412643180 916533621 885084090 773870071 869508302 336360477 441245944 758982554 655988373 544478161 783031837 379280184 496380750 631216786 91691035 795630281 944274754 178004496 613443333 41931181 456231024 845434836 532309078 901375995 646166380 166211490 161706158 969022775 319080524 807799381 279245733 251895133 367986781 232819919 368337715 81337824 306838567 49230041 242475257 608829472 965102687 369820611 466825590 406253711 574412922 284133483 673431606 870348096 998522856 767116017 459256477 818087231 903732671 166294118 91611452 510333760 924041078 213483347 736765384 182414055 966412788 526308306 174083821 112048826 308455577 961350930 74468477 835783039 660660142 191126094 372620915 586937338 326922886 561721682 882134659 883197352 701650630 856333841 927969824 312729328 794599107 383024562 916178821 92744160 732457254 723169114 785026 726151976 325415778 11609992 170752662 482981327 946934380 292053028 524186916 89109103 482694346 307368331 384393095 133721128 682281523 810699276 665455690 450366594 68458280 774441717 863473610 674577954 60145817 372890230 245464474 872141537 28226558 676407252 764081667 176593661 341799970 776537619 715276431 905658671 995917462 603723531 419836786 71419769 309008552 442867688 929376393 879254137 975421560 52006584 941572186 553732384 557094049 337879291 982734977 196788234 605403378 74615842 934553783 337309776 407631574 170814463 39087308 296329749 391754165 578366321 244619324 50702076 258252451 826449963 382766465 835289530 250279771 925133119 380042625 842485485 609644293 659730608 358785804 889972657 950871885 629512585 63675552 472251406 579425107 780448439 996034226 436565331 53443109 196848640 81795615 929296626 34807438 911746729 366098939 460324998 445590144 413432085 152794352 991406835 907056066 841063523 633191530 495415831 443034495 46671798 598018423 582641679 918681793 381470 298728597 943914128 371470079 152931516 814351327 853952173 861019753 944382340 766321002 316536000 467605776 675209960 75767904 535608030 645134953 767696493 969963006 219357719 117325509 46656799 303894375 101681909 160109809 732063426 86322168 313448748 145731896 767803110 744595804 507536344 320083347 270974708 637341256 50521036 907663848 475933728 920841095 173465866 789549411 8901072 14313753 860767298 363159882 573186095 659402736 889798950 840383453 995147328 685229380 199928498 158068135 860909442 609557023 889035362 458730144 889103650 118715608 201088563 953137899 228878760 708679297 709838310 416549277 979411860 213011417 594724518 364482924 296072752 145386049 194598182 122713554 794800331 180468593 17771944 570382938 649760280 515545004 878497338 243632398 238659645 323299574 281335325 168299432 948729006 337437917 721988460 395147506 909829231 591035644 850624689 882005637 595514748 184343245 5699190 31705796 9215126 928904549 896979234 497730350 494790613 136952258 108379498 4879269 807842942 116723341 157596722 6768535 546584840 335845269 219140284 724827862 53880258 591987915 82359688 946453764 309487757 904247802 813970047 128078189 355897964 994160161 65479276 295921324 275038274 656182244 52273619 383918105 279507169 199973447 861024386 667689361 25963747 894609291 604552819 501706754 615351339 121298844 55151185 73542112 89934905 204926873 925073418 122384822 368536683 405781563 742303513 158004262 270556819 991773578 591167543 154839144 466590343 135055519 292075722 381261929 21071000 309919492 668364904 703316431 291043554 450090869 180501299 648080776 894478966 445513179 172447336 692987538 777159705 142133050 118284670 991646648 675744101 727400152 652799403 460920790 355532643 905813303 190540373 732592233 225388186 166343318 271954810 623594502 30635968 480006731 260370670 494090448 613760547 40123824 431322740 433292590 395711154 103311123 905199852 528758080 81015458 393665186 545189766 390169377 747095446 998482915 341382005 362541267 88433515 742779051 860776488 936460243 715385524 671645781 80327272 653289463 962492536 257403212 909204108 391697581 178709851 719202781 617520634 464922590 559215177 374357359 370458415 380550937 541683520 609575707 987994477 768093220 629419791 438136957 651059818 723636556 931751033 848194355 244453801 997731417 186069565 566397682 838674684 475292352 691196146 386363200 82712884 72913226 705668989 817001123 518757530 922403719 153547678 912050828 385487144 146474816 706617934 77248855 452391328 555022745 249370998 981615001 794016799 408229483 77327017 289364981 299573308 76209738 478425458 125927729 421238676 611849466 303005117 966080227 199536786 894117321 680886784 338466492 435203221 23043817 254127787 464506214 241855009 730891908 26424920 297137058 1771618 891442615 314064029 824344339 416340544 617751956 15946883 191763467 876832433 397563283 761170210 43878590 544491941 366525961 796113653 99273951 416583378 640131395 444381977 974167201 498248950 878196946 772743751 361500414 573665085 900946317 463447658 679776659 760226161 218928358 35220126 672694975 430540999 604953534 597697782 99906939 956577013 584516157 124516182 829810276 939989846 636951080 611600935 592358586 576182273 344406250 893999009 881433217 976143617 600951691 897598469 432019468 330247001 224282642 478910908 169947688 200176006 825215451 325347644 414481586 329336883 225206466 371614277 240500574 612098749 562245790 701330462 66485887 101815863 230773233 106508141 10840334 54823717 128677931 104017854 773669719 848340946 398001072 373264113 635902299 82247111 899605519 726486338 60552411 249461627 429268889 185979806 434080714 236621046 104752146 968265425 503978393 448577798 77461195 191291978 320784791 738951196 606640793 925502954 846477236 889195558 875550808 563846383 568884765 127216790 180686972 667552455 625577122 435521466 885818667 782802148 659718719 349009898 418075549 219018440 751990089 802739216 97432752 640519794 816755780 965142609 663874131 62382622 926165754 324611049 349790261 780876423 678845247 812330998 807919099 131714686 315763562 126205553 294730193 440489621 681871845 675693787 574092024 689209523 969394771 103301268 989710096 346080858 364759340 501554051 633404016 870183993 62659037 536237767 836465715 122187022 152783825 517066930 956788394 992954564 581304080 172605216 485746781 8162003 342653835 132310206 534696507 771106272 229635505 741172685 366182633 264114302 93547124 288633381 90245401 344079761 65408506 102029100 388404951 341356040 194956124 106412932 973766383 964777431 544196706 39206757 486875411 223587174 347062068 565207217 141216693 365034981 371102108 314784365 626149893 432473978 528992182 156084647 596601214 323879962 517601617 115899614 739896732 869918067 801021436 317838393 379372428 394125366 22099329 54431607 38389653 350354470 808240728 147096571 858066339 953829245 889100368 152829837 611446053 692234212 974598456 70943070 536630809 636314233 890246450 910373170 229091110 980763449 477245811 977416318 976262467 270146431 109774562 423527152 635339824 762397978 790534268 888745456 327370285 620140543 512162714 786541508 664596990 504678863 982277098 380529452 61212059 666162935 831317829 506854989 327657116 791675597 917166618 145579322 151124301 670804325 346303377 165558042 701019616 19700942 359573953 696835372 366379174 225144732 775906643 752275338 413398036 963687648 464537892 867462974 691344685 384661775 56835088 888214218 745491932 423008486 18072683 825220157 263852780 119494013 610161966 182896217 145522122 281609612 773537224 172898000 651932730 635906211 508548630 532597478 512429462 308059347 888260263 219187533 544592226 846069893 286103363 490697953 237161872 877819513 755484528 383290569 774080484 595166090 246659805 567818276 440490533 45928382 89484648 168915301 801202831 920006507 415586305 468846956 21048603 831290525 505661523 659262420 53052256 389094343 906426747 695956038 637694934 392468344 496296061 714261557 793802440 203950180 723861923 494740493 32362246 607105989 643442774 370044809 453509151 375839170 431867273 261923465 209085763 545931778 190332225 382413172 886723359 469735271 389852323 544659173 375330745 789721285 994036117 37026672 439498416 103578828 332756501 988930137 468194866 145110191 707775595 353751668 353721883 552144450 716944676 499032915 987627204 553490383 472532155 792624928 2266109 645630252 695830741 251046814 686756165 531150347 533987158 382742607 4698081 532962436 491521840 750814907 986382231 496477769 32070577 372114786 168120003 508473930 460271891 856578187 168547474 773020980 731768107 235489390 39786943 716008074 165201513 685916969 130023161 26914207 126414527 381485126 699547154 94785937 915524940 517796744 361876399 491558155 682201312 15055688 89098304 150440425 625489574 345302694 749540068 623459172 145105772 335327590 822910794 44834224 620228092 146407428 787822453 706367697 181580618 208930949 217420642 654386083 879513514 758456187 544609932 622027925 90712847 863005549 250391776 3651633 580027204 663035225 849775529 770224981 310037571 85884647 910828836 899804669 714688876 704781453 837166353 217496873 606889909 536385296 648026011 514181095 956370718 794582436 100500131 830325740 341246106 412111884 349926563 591614437 141398278 283665305 1256402 881626374 235289792 55864882 716948554 869145098 555467959 150587801 813267990 473881397 486525485 681119626 746138793 334280749 765365311 275940683 387981523 215291772 91475385 698688624 664860306 430967153 723831234 667151615 644926796 591967770 42728414 929448207 548556225 990218970 667599938 49263183 947941549 409656772 879943271 433584833 940075323 922760361 733132445 135216004 714517785 229074374 425419310 297960592 276301595 692961208 544067430 561946546 833342182 957510044 562292972 357126111 197961741 488974523 968311149 157788294 618126535 749483041 269653535 617575494 298144317 884976391 25065136 594843091 12335502 248131106 922195435 614816300 953416792 911105499 708775327 110820897 144394263 272614052 127624239 245513829 198130595 410719768 634451030 525095192 905967085 884560536 120220608 688027366 41879732 898547768 289626688 223528546 556443541 855558522 489267467 174725132 212330022 26925744 810526535 312095743 990471194 403388600 203618008 81477488 580865665 322123144 577734856 585081199 524948135 277800837 481223485 406300677 653177569 878841303 611020668 48331390 487591418 513428716 933679509 347567784 642872403 852379790 695835895 588532086 435313082 928529400 404005829 258372263 932332463 917546431 160999911 105810430 47187133 710322380 603120709 211406076 583860839 18344928 265769139 783509402 416361665 723467896 397774427 879581434 678492285 520917417 856568866 981794761 783980394 25693290 187617567 251862885 246485438 17552425 914595564 602366339 951973469 371544625 884541879 728083016 172953671 102990514 82135540 94051889 151240866 564333218 578991688 205106636 429721256 519217193 745707748 667209284 685402256 526800323 507509959 847386788 746333766 865491071 295357409 431500533 878184307 203141461 552960918 403185333 637736557 34767181 113261716 16808810 408840071 924196372 184592631 59617243 734011176 672244489 994634617 764335117 351741578 843780078 960277337 942224943 537052785 800684415 855970868 835927296 505184896 677490504 151384540 978762535 282572014 774642121 59268518 255929607 3370728 950335002 218773554 59525723 908374947 420816366 133536992 351562978 622678595 364272041 542760345 922267944 483604517 717228988 690918035 383923688 303193798 509087602 826524242 673441191 655852369 374647052 110815071 51637393 66372615 221744550 533840706 192256663 471309101 428024815 170736840 574917585 948118249 577226551 719989181 878515853 663610425 482790222 544891224 384016745 73834906 453883558 823042937 920099553 164908416 111476607 276140962 516244272 864355028 862882029 334288181 932355631 151041874 350417627 531969428 660535369 494383972 131836256 552819342 21260398 537913941 221832793 132715300 720331525 481418275 785135919 791501328 574269933 432245177 773186732 285469009 675923878 912182330 816116608 912372830 606666097 299248691 798731061 326854807 272475970 996731868 798722444 914988656 856684676 143754901 779152195 189336601 141659013 479454555 863855872 914600418 842888212 553157667 403922773 474196742 764448255 554844764 127387816 856390060 54508378 666802316 190415336 983283868 946882251 18673265 131788811 871566727 51294845 226733034 771901352 473553088 451114952 164551113 282367308 850321643 321118431 226883812 417125281 965510255 57630490 159153742 364732077 973053584 549439615 378542305 66964156 791683478 465566115 856752917 88190499 173342681 712624526 641049748 949769160 373714136 739300122 387933879 80964495 115683284 262207237 914489178 264501857 148537396 983951904 951672344 617510851 415554527 9075377 895019298 669271064 973806565 985331312 217928796 366835466 530434714 589229722 950461494 984665606 684297781 727036035 433286067 707832369 104372160 815072062 845027831 326712007 762367674 36433849 93795819 226343792 440973424 755274438 474836144 912093473 335475936 545993351 13713839 358851427 960291678 531320569 918276676 369364370 337492395 642258058 552463744 49512199 22763901 294313111 129525954 986937901 650111619 876394830 664747968 551537886 646703281 920512832 564911072 153309912 404134695 539266285 554191851 896820809 82896477 321021261 94407433 710657290 258500788 710275483 203165338 898168612 716287001 40296565 953330024 206825272 790409048 835865331 983297939 542726380 34226674 777312396 209185577 528143120 988756253 573526408 149340878 693504235 775668261 880357076 224547068 895760102 247389181 494132190 375361001 425118284 747191570 374702166 459489490 913474558 123079459 715546537 428014333 461842457 923990281 58075152 61568848 566884419 121521478 300594411 334891580 116468348 630197732 822432591 256244225 591037081 592330315 237034152 644080101 670858464 812806471 376931015 920143500 460827976 554701269 823613781 189730955 370837841 588458784 593020937 881894301 436509570 341716733 843770542 8843701 858163573 453739898 704090989 690569381 327174292 115358687 156844390 906509913 139400176 921381381 443114389 854524623 926079358 106684669 345012007 683731130 407392975 878843281 97846330 872477584 548706159 565796287 997010440 7773447 119784440 494432851 59277862 166882846 993400234 612340778 432220886 26800896 74409109 491709884 269051330 898685657 971734167 538257749 622974850 621133844 129148314 966329401 569863810 135813069 510820140 945672539 336772010 943030211 211548340 144731251 42422153 600227070 44972319 784342646 333646905 968042239 376924888 552659852 962554641 291715808 692742729 727366047 212939253 384800259 32717261 60778845 179186871 590163412 816502595 837864231 777846040 447796453 260078884 122399960 979909633 835115628 304041863 46531371 81399716 475914576 258034780 813779902 138632084 732643815 647815811 538600158 159309389 60907278 541553553 213840068 69082072 524096206 888129146 753533974 857460650 350078140 782054275 655777352 170966904 186958291 611371133 94180338 527228762 736329740 720797646 314044406 898361859 154565709 993863950 252182730 335407206 892994644 532246034 552648735 259119556 624018089 963357867 829311032 313071831 713248825 634308975 971767802 632109939 434347341 617871521 166166017 293590062 712575877 430882550 787611711 410117629 174875049 451038376 505277020 423807657 231893172 894534114 525381594 577618405 864188128 871614535 722068930 783924771 895215551 222485181 994728564 917926665 425583551 29226349 734456912 201762315 680293032 539479747 682011574 235696269 213348646 500161440 93329889 905987574 357036492 842567533 701001442 648382044 910563303 700359024 626580158 780655331 383378546 843479445 361175686 435289353 971876772 908785043 59886522 982405517 497685870 931325168 852048590 680573542 765376277 367193172 111994798 495432010 882753409 984322828 75535717 449843792 291953831 287535895 5149520 350875150 917633207 355526156 341906699 925433725 230991127 338137798 656929885 405710313 878149914 273230810 550714474 941864050 902100903 671401500 204935961 800744179 144354169 462925151 388129585 742208742 700487561 115139661 787262577 65929219 110612013 985767990 180762789 916962254 782786699 315155845 357247214 91788465 160857020 603241427 632410962 574395294 781899997 908454441 252703017 180614727 814022894 87353685 697515832 332980449 662967771 320077603 430416430 599607246 976465011 884079756 598881124 138805721 176998215 482310122 574258667 969074506 424551770 101152900 952144135 172140983 700799889 643354430 394406600 792593273 973129244 115251520 973877879 242836408 311437982 18581130 758834645 393404016 409673180 667784622 613329549 397818401 105450372 545136640 358697594 409822480 814726105 257260139 111800900 397015179 692148955 11891304 637219869 295509185 930794499 152649588 616130649 553005159 87143001 61629351 481238574 709870110 516344614 294283663 344440681 826502401 102669213 809675670 122223383 174998506 848690898 426038694 921361569 671419508 424457110 931513844 644092643 806385849 18161935 71854947 746536072 188601387 115345677 88863143 641339919 382335935 827723740 592290817 568244205 114321825 394357150 689646981 696020072 276328727 2210476 62014359 941505426 944357501 405732480 971335325 767901684 75709741 508055743 743290441 872566961 927301887 328286612 154237538 505863087 275132047 231316869 837835065 194268797 58042934 134473162 877272208 694221291 28949593 950505155 255185144 1504209 310083030 267868064 359470166 783137103 763549208 372674855 543639407 363027872 930506557 501340149 465079853 701677293 146329979 783281804 119195339 774449082 878995852 919293856 756958987 823036210 189836391 222030392 972707387 327987658 595951805 877056138 371642187 960330043 635677354 323465042 562117304 990149548 650470987 3339890 650116183 103524887 877272592 885890229 388525187 803714671 95285523 696488873 131114905 273653998 486498871 834346189 480177832 585293394 854181822 703448457 178512532 152271370 279922790 582062238 210363545 306016540 44697453 862922919 237906842 862103993 539105977 572377317 256576995 135346841 493885250 727439052 899273707 829618350 219196777 678869764 720212530 202123186 404373911 730780569 999291617 421861964 315076041 502339917 196747943 157319884 594575365 768772562 154033668 551219636 919885593 776207926 107102783 53876209 882241716 678063566 515750179 751033802 228289926 491077963 412055516 458834585 419812759 617874101 314396099 443201689 203111026 924897795 215947570 647978943 124726086 627325850 605012715 764744552 180220801 227679333 184230869 716231169 857986978 711042282 401419557 714462011 324782287 476901669 766368421 796636410 293397966 672072537 630903901 81669024 202734443 769954012 930250152 562472 930217751 810873374 133843152 927134140 712294024 416837437 905812794 491353135 483616531 648512059 378469529 174453283 620349136 910530753 915174831 69020500 933822454 885679848 365315660 950327214 988955322 349581010 670163380 155781373 211198133 206343633 868531988 3605347 829335321 818982630 343321327 296723269 213065189 526674080 264751530 185764364 604761302 497990190 220721498 816367112 814669305 483696960 468441317 927449837 353149533 619220769 4081510 470875451 616496323 647702244 66153914 526055468 282945610 820456350 34888340 714284558 755696905 668398114 456562284 433563156 701946741 264601645 779051668 88642748 58819046 494757045 24748946 475663210 445198621 616099177 386708349 18957721 687088623 201290616 298629893 532713337 902840586 626433380 602357428 284284717 313432648 236200562 659739008 939206215 819693799 824264973 284968440 691581238 855776109 204397471 177919767 405754737 458361639 973893433 472784954 665714646 630028539 477361301 852793985 857864755 90609214 613190973 99544584 885554864 45693984 620354855 342476768 852561628 350502204 289019727 695671605 735684193 488556072 414427530 242187446 15418563 462835998 702460296 522766114 867680842 714241657 888470991 86269074 667920521 738664327 556324131 83068036 732635554 696237310 989991738 25905038 65725479 801400398 316416192 332582350 743463487 749289841 594009530 294124382 525153038 105516536 177692027 900103807 742133192 687014526 276723993 535066078 397081366 713182562 193760631 528971613 589066272 111311795 507781535 302734947 613662004 693420276 23826479 995841529 950000205 342747141 22934350 434081952 765530756 455720896 395275544 552673443 425126752 626103505 344411446 217977120 522082106 897422231 184444967 396559608 998424239 13879709 826195263 44798071 63217083 678150963 698101052 827327882 129308248 715882319 167926102 275650733 446143106 45142826 870235152 340934624 115064343 850145589 483222309 438231859 43677484 513053736 471456753 216508696 961959884 385524989 44977076 792030307 434504509 704713247 179334609 177199256 447234820 2575043 17718067 839328858 101168173 774203373 436899658 12232654 399802290 934055511 504192343 671395685 649086295 545417397 187864531 991967464 234314563 657895777 609247010 173524829 238826992 635633056 380209789 82071275 357959558 356748832 202648671 867325623 113885550 624814283 455144190 474717657 762584577 134975020 362106849 776182595 708152018 87739085 195780729 852903696 489615303 127892688 392154081 638918857 65491734 431420627 141162282 857496795 473996948 645434408 524343189 171195143 608383666 494887763 180840820 913003347 504611237 916200501 470713891 954598258 145567533 536199912 840372468 727444341 605608280 642090138 45043520 679955197 744214109 604186719 631782240 770298404 992805831 629920888 711403948 540358335 569285941 992800254 888285967 408281860 263607311 42757798 309724720 192260643 275596561 608054623 518357161 392667463 561636513 254571938 776180863 304272179 957348260 544623401 552370833 922173025 449014385 279938934 504421798 186254669 45852086 8351065 623324634 916299074 853230886 142760396 321801145 819280652 362749237 643834705 946786662 777315063 762698534 150139305 806307271 291717842 335271727 389794366 872745636 505976047 259983406 577303831 43996389 886070569 409843771 423644810 801409383 450854433 486530696 866585360 256244614 35422368 258224892 621764416 88199214 380015145 889376383 85524158 763581483 371362309 274686650 883642156 677254277 890157797 789022473 19084377 706567603 220091942 320075000 194262783 337957030 325441232 683779841 559433113 511130339 442210040 20933508 127431138 229652796 95737044 100007068 192088919 715966562 989923371 936058148 838824761 519221364 10270056 504693494 933536192 959337109 524552027 506836802 762375823 108183247 443958609 544855661 173784946 991612816 289819220 608315629 509259883 421095519 562683042 750113047 81115626 795233859 399088734 852140578 13320445 779886689 762203521 355218988 126067017 169998866 315041926 487769994 984720721 578829881 592098952 723787741 789270324 756771961 542807266 193857650 119398899 525687296 589119159 381554149 128027311 167449909 905805769 967907792 93983979 786065145 502958423 284866772 207121081 873057937 812133599 219459710 165683442 548632376 85244969 159758561 556832500 667297609 778269444 792061810 863198513 687314899 80642425 740035675 48995482 926832691 446247653 631899812 13003421 339133597 762374005 906903180 980075514 820120072 165274514 879075677 359805155 410434002 82993044 592492868 486709716 740659125 262396627 445627552 630565110 352872069 258957634 952536190 700754135 983215549 885827008 319874198 153389158 950096737 141036559 795533462 873869534 626688204 52137726 947428407 121782231 666737135 191979087 366887954 869621684 387782761 413918771 620359594 356211286 312295100 860829001 93504148 303777149 802070726 738543014 93656572 96145457 369357485 324329376 133931275 826625528 437668385 395842988 597360921 541461216 102218244 692293866 824430456 798325989 237242838 843990380 2999171 721223109 473263502 815662987 571104473 992599768 925081750 443698142 898723554 613259334 66646506 345911384 109036894 369859555 795604482 125992269 147260402 540290742 989913992 761181732 513606096 666569109 964931322 861088833 470632495 800044362 756582987 164130672 166172028 205606142 445242547 295107413 979966944 870390310 430368764 507819416 247340831 528414160 799924116 410666199 929943618 959888903 736557063 718358793 323799949 250773767 889650098 545048386 655293129 378967692 676413707 197828779 128420655 800366715 805217759 653541511 45764312 41809892 673103133 297436906 835148981 320397486 561117710 32431155 922838220 643877466 784341428 689910815 279939456 738633596 765982893 646857768 922201953 897568579 768312965 791257402 684551506 764094197 912838287 167492710 894140061 626040400 69344178 90898819 62346594 171295817 167544253 192940541 799920765 800077720 561367306 636074596 821787018 679698199 360852289 252417131 697437666 49900561 477595144 736186982 474280607 928183576 680977322 355784924 738411055 442261813 265311993 850161768 666655810 321727014 323900708 35278212 796642791 42263710 630689950 735369836 265216869 864499480 17884704 904617333 254173951 745510356 596011084 153503769 735039853 711434206 65544626 692349495 239294868 39724467 683517578 476452459 579601080 391624980 92774942 872925490 958992112 118364658 254710899 644208123 636525271 230205771 884746850 935204958 604849285 215512959 700949018 804246773 198816721 432497435 173761589 429620405 642627377 353853332 965569144 964465989 756276295 105612840 711394461 861686335 167839229 101899933 762149824 663768849 465960266 126502484 562685596 519838732 242149383 442409812 197324254 168576967 768470296 620485459 813603579 23923628 52038435 743275113 130954058 64349070 824434324 97269628 570897995 345345051 175299988 254412558 667239620 263076160 53524614 409596957 961763872 487336582 522595980 207175399 583065936 567506173 677217884 405700789 650407807 347553923 973039480 447185281 591415707 830636523 685500714 920536028 683438658 75712130 914381967 528568226 713711564 204812709 552678204 23256009 375122946 889913387 632715602 469398816 923648960 143141183 232777630 274312033 948683446 175145820 689866823 670310391 891720507 551045458 376997055 491974665 65879816 883345926 101171342 523054788 44132750 269313176 479450413 856034937 155546111 991749857 108375089 946711700 696626746 784394161 298644548 146472880 162767202 885800744 626538654 534413641 667779298 519545424 289214401 785046119 753128229 202038924 107162208 604056755 368684692 360244775 602535457 437782042 976266055 286190249 821623954 90499302 540429454 257210573 77335327 547228586 865641944 726017828 590739556 832688526 90629407 327049618 61838305 413642167 249433062 470542702 119487948 158245552 413142986 619075794 736877284 75755601 142085499 52650894 612317801 81244252 598699756 811921489 255154210 436904888 173832616 848702651 582000152 210782070 246671640 297820565 496872643 555908880 443771515 551943252 28475773 345118345 133519048 444730246 351069751 995551442 421888902 687786594 610233427 974085831 497333374 424112464 481408861 444554715 850420335 943193143 153701258 186223535 663394673 741653320 817667968 635536418 671927730 232094753 49083614 751095709 227646538 959842780 10311759 651219888 746372997 870816480 680897831 294049830 776769651 730842987 260499525 725299137 768620636 35413312 965107886 655578586 336564363 514918603 476317241 996234249 826667509 541742509 823282314 97446452 106197414 998698720 46729017 674282273 523849747 120115256 931517175 556110043 628152741 709819362 796178509 550255489 491705536 264722910 271755516 35280698 607630921 897801222 461750419 211044427 9289277 812430109 687381218 819424983 128472849 432685918 288892298 143872141 994254979 626852850 159062618 674575640 227996843 379942432 605799382 402352335 438788259 356426635 386206191 840692736 935779228 355148961 969413829 891355497 949767438 248678580 744884628 749033935 671623873 558675109 738681635 60085472 369489486 304299420 223893389 7438393 676499584 157415262 952811549 632036536 118235352 879081843 194932447 304202064 375642081 312138481 954286984 759215558 682918744 565800884 688647171 236151548 985924826 218282132 941881095 47110411 108828958 369644565 375348816 241615455 573882848 66240300 266588732 10282656 861142918 565119163 283999414 784782039 977778324 596000379 489070625 144365538 339916271 654491470 836531749 611678778 85777191 323311167 272050726 16030860 292973798 482770359 555461419 350968687 211229824 636432360 319670452 888025330 495455095 681750574 304842843 319402187 445670728 283436176 172878028 288279414 995898265 820968282 499896647 978752979 263603138 982539784 124267527 874169228 337012705 934598141 971056623 824893385 978185875 57001414 690370897 1139559 28674541 255386876 4824095 73473311 223754303 172010111 42806230 984805864 261506967 643978997 182022653 712657873 664018228 663657158 552986045 864321506 415529054 68031302 374038935 695249206 326300754 629072725 855213645 925923653 606107401 553662942 271240865 528877829 684496689 860368798 449438334 118803941 84086510 940813245 945805719 690842595 252617361 886293317 638039054 227572054 225995665 149440952 312244118 159137745 611713519 730437970 848193516 501897153 475366908 659271230 600020154 947069930 801845263 343061524 809511783 66176243 656640941 761521845 862866013 789671481 18680343 519277997 748264776 476142368 969544908 174469804 525474035 532180812 283219404 187607867 480106752 810190915 695287916 872059708 792683417 965659965 485345962 794262806 478242735 890735293 506830148 653860098 351917038 602431717 440788374 825869489 741490939 383988359 688359472 563800610 941739691 513833328 371197618 763452240 872429199 648761976 278389105 561211451 478867940 733510602 107140422 260886512 21377529 854638648 265844806 451854441 507726758 630785920 223631670 676087448 163865625 129224868 963180863 563718419 774723603 797775052 265830380 835629811 373038048 116436248 621115922 825876342 546678768 131952810 934520502 535644409 746613636 397468587 805523721 351652520 153927487 443744630 867611193 6741148 717106226 241261820 454563257 456944932 64180026 830767529 786000664 419212938 83081896 796966196 432561844 898486076 345667479 559841830 276874521 718209049 136720882 3437791 248638072 708885823 338250341 565762527 151269318 496668565 167217391 233131362 339221893 134799449 41485789 724194046 626540350 115862160 741847207 483164576 57719167 997156049 819324945 217886588 162398595 962117500 336942757 244487069 323461749 544683235 554968840 551556549 841806966 775536328 349243479 650780819 375998355 11169556 814568445 794211363 204515620 810775246 827902963 812544607 286172464 713868890 932553070 5440011 532431143 823632751 142757009 573328744 596510422 530769987 663087382 334208691 850228308 595375510 388363376 979112564 62000064 345365024 790164420 21227545 294035528 519980462 462967044 374230951 289224842 568278750 228125994 214300280 873066631 106969726 774015154 707114961 738933421 466191581 546710095 155169681 1871074 590461833 754340349 234213738 907599027 354170112 551039213 97470743 87654942 214267987 307613350 814669875 956089145 607462161 369469383 465420813 13435197 108895488 681874970 698321490 353598485 600247245 231543946 166039618 661622397 849048543 810109830 964692029 761181414 28495216 110954362 293896314 665280452 980264012 705044406 737651902 787323310 296524497 272463024 72976921 732363943 410176183 300141415 653401353 135540840 200709451 471032916 600068855 757320791 639517892 712369158 957367849 67924558 560127723 144768012 714843699 613881282 359300285 815953824 365064622 826740063 505295078 474530688 171997548 867988857 795338594 250187118 797426022 897802750 573756382 737710506 71530939 281130842 258196614 767341047 924126011 884730625 135283416 341172789 728241924 173956354 596566249 841419396 848198108 286973962 604639391 853390966 195898739 789378378 579357722 95929561 283804328 593144355 116741994 490510550 664498854 501967309 903743596 793716135 871975802 812217747 336247430 294735085 830834786 324125089 517000614 673094382 493281593 407770776 83264387 920067844 311218185 546379079 139116566 367328657 564399854 300514347 99152925 74422824 727027834 436704483 839197716 63796883 409625948 292452571 712971383 545433226 627393429 690424213 194245182 772473148 864391558 561374923 970468582 692630013 895555388 463066718 439556131 346500397 449429305 837381987 434815133 425528079 289469516 332511187 130184579 245695563 667501022 992306311 497522693 939759320 79733878 396747202 773744343 527314818 536206118 501105929 958113955 835288874 555396246 578192294 662799012 87205625 833582331 149684300 884508742 536857254 259251377 640145334 693463076 752660706 743959169 801658518 16840876 381274144 343201667 787266958 65868221 532448096 974267887 637677519 982954206 370362170 857751464 889895999 443124070 225345112 94341364 563163630 923522414 870873507 797034901 743603965 953157124 284993860 382028958 581932189 517534487 470335260 838979957 771086971 198909914 606977240 501237474 291129833 853555336 746821439 971500732 516006384 717910648 889420107 901977385 730516545 156163980 539901265 442466048 588313455 422783292 562795719 358807154 271892138 194335846 992945677 601448196 323602948 369636438 554242087 920738554 833727548 633489083 128734569 339388062 692716036 353874792 266727842 824891369 568748665 607810191 23059743 43710957 743312654 661521599 510548416 914113271 168453735 201309923 295516878 173376325 427959208 348165494 622606188 323267782 848790260 324642296 324140429 779208349 858549781 645967791 885493315 185738126 318030184 430691384 331136143 292837819 296079960 620685396 865636463 989859240 717848518 371388577 288932070 829234367 652620798 3386173 380509895 292478963 338025449 416599170 756342858 730631509 262329151 39989315 544400092 503680886 103968105 80858925 492476668 812983694 891719415 233416428 293328165 427552123 95010104 547923559 166004606 399722865 101513818 361737790 466206530 175484946 44533325 863389456 750352353 821426794 414922695 245087597 573473316 399691975 703112906 64436925 379754477 455285653 686369980 8601762 957501246 111732382 579958705 96700796 469225634 170695469 695089617 853911684 261461747 950954467 878776417 930678872 765026199 870157056 710225341 39893871 951191114 797273868 615218083 611918136 362222514 774176677 614423504 545199595 281615856 167717831 214913046 943388290 827840361 806246044 583438297 561257985 285309538 56713190 91012412 74883305 732999015 237347086 754589797 232939588 236058009 380768756 598143168 530612463 423688403 604537816 724737006 865278471 81335390 623069876 252702002 225282858 243323885 104023252 11701979 177705997 328232185 591608101 405299440 495016621 40690701 358448111 178796097 373662757 921702081 770873448 643901840 852042393 219154704 391343259 124009987 305122421 215089563 200467881 622043570 253857384 184649365 41662709 593994832 447628054 731925956 821204179 301702791 54068787 24996019 843842007 928605576 914466526 639042627 92208880 903037156 525401859 425763412 117956966 217802893 308888740 783838353 659919137 32286510 280049820 96008330 473409688 693030774 805324232 67186519 949192397 883262037 646271138 716477939 897166466 109855186 914251587 574111820 689097209 672565716 541648239 439323319 928335938 838544531 890246743 787437954 989320010 382905685 962833838 320562421 77943370 935402905 847565662 846161305 592792045 611476546 745846899 997922587 66119460 525856327 62330739 890226895 53955430 972249180 157811958 413285350 63351510 226326424 687163355 688923776 948006310 832038436 739971005 161834987 695859629 233049233 26640025 374380672 678252549 608856404 259673167 858134806 920160439 448703745 113714779 6184094 616272591 594722348 715320082 802160223 442549763 589761265 918743440 958380581 474720178 36438408 48142320 823807868 936887785 883082967 988454650 549929811 18269969 748182041 131950486 233703349 894643065 980218170 327430712 295961329 543645246 41894436 754125865 775347513 478159546 934030509 88944017 172082387 127418364 785136853 331390657 459267956 388822828 283059295 365874210 286184828 653221184 982753153 968896653 59750829 901423292 55259603 191620027 449237645 361960837 728240247 270899052 320351045 261479813 228340991 235066028 294975185 707215263 31499511 478260828 503454417 638859311 499481095 287524260 685637686 340717260 904951297 242656700 954384312 390274517 275515554 388597067 408592606 927726743 214815577 874167368 50522268 934704396 263891536 674658769 739004812 536947795 571088596 607294809 384202344 291374384 656360850 600028173 536410030 155249861 277248891 896988774 579893884 954696188 488651072 918190737 256347699 555745512 195895525 866718621 572347640 844348838 824400741 210554268 462476809 218243565 641421090 546363919 208910336 639223539 490080591 699070714 533395721 141398962 53557820 438275051 604164485 118169901 441102048 877207223 861940171 780046050 163876759 27842731 475076285 658546679 407348842 124958026 357228242 325221006 399825745 31436594 439564959 66904815 406602541 402520971 174322896 726497390 310425077 770821417 821110102 629560376 90071911 499876888 875883772 266441174 231163870 107434795 341684030 616308245 174292807 510318840 808223968 677651440 751676324 892901750 766537191 68261009 564076741 613013745 73187313 336167609 45948730 530173322 850707477 996203309 725164909 528743337 789468515 126234479 19135090 708452554 249385100 281499540 91360509 244853465 47736919 39542721 316551438 371715064 88319542 547394108 846524648 45205380 924319322 703077498 59032357 275825817 376132956 226948975 842606899 404272447 498267310 680733255 31442897 667156510 19641935 880445247 714267606 102143645 987467921 973939950 82004484 379027915 893300850 195004346 242945494 760992513 344343296 980747624 153833744 811224781 722174834 800779686 260111697 929592486 868710854 16257666 766610677 489175129 422438052 627881350 543322233 282743073 395176395 291553623 426058653 108568101 329915761 497282002 425195486 748628520 103871359 56783159 420630535 999694187 20955523 710068019 325566874 397719214 4223067 363082211 504051294 574652844 7331961 39570551 868462487 959026322 812068695 673554276 810088783 365726251 4044531 853345456 784300238 411183733 713928313 593160262 967564646 431462185 126820352 271462095 675622432 584139301 916690408 639032705 654814203 189764910 615723512 907301713 371327112 233803106 131845958 994587742 439171754 993943124 669945951 402373561 1073883 927347598 753513347 552655953 966701431 646579840 59118703 71948549 598701554 779061084 285890234 966152427 427421181 510127355 288359791 543343049 382410844 891332274 682933573 938909090 948103348 499810742 546235237 596487346 806499123 240893073 179338684 239973030 573675508 61282730 742606757 19050227 317611789 686336617 330482552 908307862 854491178 26140720 748147675 63520220 533260313 755181700 118431887 714254592 627471591 743531508 323115666 332044609 813744537 196457738 902333555 518253686 863464438 966400808 957248238 412562622 132279979 933425472 251181091 234101346 787185049 175273401 604927355 143626481 111331369 442273062 99870359 728595013 258923386 118005577 53898398 535791999 717720895 969596419 937961122 428326568 449614790 112823716 267983725 178063139 732277848 337056830 58623311 893787139 96448612 803431991 728599882 134028160 280420183 237319746 425907353 117613345 544265203 116759105 46646011 59770138 376702823 670739886 746712923 781363263 951681099 937674954 834812528 927758618 653823918 182596621 629503921 136485386 746986944 258161146 509403639 203284607 454069426 453941380 563894217 545772899 636670917 544877241 612317862 972295211 239402567 487859727 423115938 157557570 78098757 57710532 237341289 787577326 970190416 930606833 224471929 838612377 179369474 193165316 939956127 632791852 959865538 863120306 419150730 589972386 57860862 929933181 101263391 61908470 764195109 14946136 581581320 639664512 701885806 298938682 528663392 857846203 834088792 756117757 875533377 630825744 671465085 495451663 12829066 441482454 806135418 137825583 623997617 758900201 447867065 580891450 211191105 138089741 57139519 953437543 422363286 138482863 653301013 846916533 984507085 742659569 395829549 848623642 982657032 887457689 988607293 430312175 589781076 451969991 712134932 471160276 861008809 398447387 501421800 346445291 131455309 271692170 456530086 249387737 74850035 660261090 965720140 629754136 125755483 356210019 849847786 978278052 681522305 85869050 888979995 482866929 242443414 522152891 914694640 278115920 714902494 803285923 101203592 864508273 173064768 333273646 391862504 439000996 597820187 856656718 884273995 709202153 386960549 289202491 302363878 526290327 686512141 339027027 209869866 564520825 120097719 624655168 883045514 523669815 428199524 741879952 572147229 451347584 675547166 644678582 660333181 28435888 307926433 284848093 837379226 245566111 133590967 11724828 526156616 389345553 591218501 48661582 470754330 408952572 901063830 835372845 509871861 320548443 906936995 620378786 626561838 418316003 948196537 144663545 760521991 177898625 471036009 154228436 8623094 32095059 378228593 950630329 721523579 172069062 792828286 1404309 979398133 946933531 465902813 321456660 331627560 766508309 772233152 929204399 602308085 512960266 45374310 887917175 596560319 9717167 56355453 142314101 600236210 364399906 524498060 158406526 922285701 932950631 604429395 347721482 670275065 30101837 380297103 198620102 249611636 351679166 314816079 743608814 614776743 416591354 393672989 616637777 883164030 279881351 794187648 545972781 591713383 32644825 473142434 216695866 6933558 802628320 98980666 812140027 693932522 574234307 715466803 761898201 66001078 120581377 116957094 306351376 74686594 534390609 847720041 240681883 155225803 178999382 275912755 363638529 45271767 688245953 565935436 584788253 346492827 570851781 968400519 427937990 849599120 155119114 177209371 902611761 578695001 960180845 990685770 600207899 175534466 66293509 970148981 271452132 26336451 855670466 691379910 193830380 339861204 293267057 389959709 934200784 439642462 236181796 697939349 31262294 706562735 183365993 705822175 70435659 134622395 225570675 659481662 231861776 538222905 870772979 542190747 614292759 945655460 248234709 613702031 907127933 784192519 455228639 885451261 459359540 975290647 429494195 316618681 868602098 27973163 926105944 629949083 881753243 15149976 752126795 241039361 274677843 845264771 313433187 879370839 123291019 841216259 889480193 371604464 407760359 421029521 803597127 503854594 822578564 679513971 130336255 466742365 234090907 53212952 654605742 723313771 361105184 210013525 78793863 481413399 111961031 820199049 246512804 394395547 989530414 839503621 922714574 646635694 996350634 169429693 465133957 130245565 918440888 990333389 833287678 534484922 101405666 782176593 6226234 135659842 800486295 969601045 60526544 723573689 250785118 893358804 67511337 101594221 11746880 277118259 901213045 723515018 50980957 861166184 593105986 276682020 172465669 166638884 356199659 254258784 411026998 86775157 497215270 658928444 219136449 493305328 398018148 174704392 512081027 742076486 630163476 983582138 968574012 995778780 795276188 339404940 385140016 917133716 609793843 168438688 271962522 936207326 748787525 413630543 509473125 537183449 628997478 855176145 936855631 738383360 520782132 928145606 663108890 93780501 700486381 944052848 11967597 566518961 29498863 541610455 500803853 801410976 298627265 461093771 403737751 119513394 686188124 454115270 992327682 617314971 520203409 613616677 552228746 217450268 683215233 251633623 481486400 13890053 367845885 532465523 810238452 493337023 608123454 33533678 963642804 588328768 471856756 38341983 692859495 814437673 853889005 125769472 628316376 87816317 111040308 630204481 648295020 586510826 727062190 878414611 779575385 341059237 217322458 369773891 283112901 423428610 569869930 479542543 8446086 916352121 953587376 401035229 904588424 860653197 621346754 277894908 176624962 318442403 685423228 405303955 881485136 591599099 731046151 897928703 790970603 820603486 774794461 45737829 255723588 746931874 689941357 56644052 491945060 344056587 651537664 242719361 158596812 235392177 692598560 206387096 715363355 153107488 565972590 73463470 175738734 316696227 126529129 469019792 612298929 229706279 857068523 829142158 365716209 16489459 503633358 941639016 40033696 620879845 157907068 967664781 185014700 928508380 912575543 2266649 33638690 39061654 256252555 640538755 336598926 617406498 51068331 41401729 547750403 981506677 118502338 713040085 437437056 189589897 398339394 923666912 85475137 916749715 344643649 84116779 949025627 721347536 438710982 545792753 485672033 53022140 972268097 477775422 383771331 379216269 122951210 65567083 905614338 831843049 596576771 622349757 925595934 398616468 562818215 83285840 958089428 687854798 247158759 568505593 151574961 736018380 772618545 553990455 666727456 343764281 714123460 137158808 370873402 583644249 610324360 648812621 815744255 559512947 63198494 514312007 490241388 410975829 89236295 322125111 812970633 198100390 490655827 119707422 589480288 323147595 686882377 819706728 485413758 574854259 615676251 739820336 875015278 948784570 134369571 813855380 666219810 238624629 697116138 332858811 578043948 148826106 760372832 398473514 258513610 280681401 872466162 259075082 568663879 206313177 146114298 818903238 95266901 786775887 158354215 166292055 730507587 926199731 751592869 632608676 973314980 85752689 619382393 49695459 981375298 166092556 414979787 957743598 955245450 907911429 537425820 447481753 92883521 346484286 926893160 473867982 653359618 306603961 210048576 517185229 255561386 344125592 378650428 655451465 317655182 751207069 889483294 292879770 762169911 420729010 980126193 323090890 865951291 331238963 209464557 212831026 557507263 363368080 238585687 72045974 609511571 503125095 701258765 528121863 363431632 760138613 17834012 351188790 283305599 225281536 79718522 40571655 314197530 176857335 556111359 171726730 104852314 190063709 531375181 947033498 934055143 515975840 583059869 508377383 138919104 108221526 630261147 849716837 609059295 438378517 334242117 847801390 263823052 162042250 210210461 402991413 980202288 177378673 462391375 983507124 502951895 67276048 240764096 652136975 696191572 883974988 95883021 807644405 354731732 217039186 322025508 755946893 65318943 255295957 361064025 930656860 997188032 499888624 536916950 137557991 981849585 391152022 581240889 83339363 3595558 560667472 678744050 128402758 308586437 262345736 196985908 254650558 589954440 351038878 754025388 238199888 346621746 374334585 21263397 859714748 13359938 457392601 101918597 623988928 500446055 347369249 313227094 846192355 866351865 94492248 642225987 988527829 679823475 293547982 304039995 563294419 961139714 378259377 465687198 871621924 860684818 516613548 240589554 209757746 858184521 569858427 397111834 347829490 572141333 476119057 405687935 39851745 138343072 587371897 822036221 215168516 267869615 140831037 320418421 559979480 19267593 909460918 96980639 433492611 400430686 669577532 821673666 641869478 696804368 646718931 918065881 184795064 748921181 110651926 50996550 661876357 454648108 415296123 400790528 977572575 871623771 331119596 121951717 69895313 968545603 699575052 413250294 273246525 319715733 710013149 513141722 994755997 499249375 867121829 758422018 431650430 155567230 272559808 672708450 979233675 746232525 303068580 127648293 994472036 321234943 321604046 537804281 877999515 677432320 476271655 651237676 435437474 369930026 35641164 626728702 430988147 184012793 602768102 376109794 874502348 873838452 355488080 80345928 759053752 207503116 27631814 475651875 269889558 550153825 636368735 760533152 107373046 502112723 99622916 275074119 950935456 207334237 113159194 113307634 607679665 140770005 70689648 145878036 429103640 439246361 565689098 608794536 181926156 814285070 500065293 220873406 709638678 443461290 434839436 134950807 931134311 372842974 650624330 503325815 196929545 924659647 580054718 483538373 818876073 954437111 574774576 852654780 337772231 674716464 64149796 681728348 989713910 759004526 53718726 538188912 4847937 712250002 694765571 831595025 380234114 273357534 66974715 644724945 275943870 616879024 296328768 853199908 735300422 701928390 508847471 941000043 516186935 981914411 771805636 487246161 204850065 195189622 617988279 418025583 807004352 350678 158177741 330821125 204709033 70883200 424194808 230005839 531351873 318322022 741964098 287049347 555004887 715477565 438310566 918578947 128217801 557192923 395024886 604305150 687804553 466847264 862569269 920665974 608511271 463746798 429179819 176299221 131235844 412282222 23448840 624156538 244878935 341184132 25637435 195994677 688902230 731695289 721232765 529209301 735794350 44120842 250932800 163235064 522500530 707962824 426051288 116420033 913010604 358703875 891988467 972581907 235448714 394637199 740229461 562202821 183446910 40116632 866985600 979758582 766339114 526389893 477524256 270285587 448167651 781251579 793830220 970203740 863793550 778086143 494322266 508764617 128990591 716025550 536945540 83105546 182372052 896274562 152280376 533335707 737095930 968165678 843736795 773255785 522798418 625366347 441337179 262504442 77284115 190381188 682990622 123709311 571954735 313736791 874026866 751101354 365395099 460913549 503320755 126715934 629507786 266994949 652526154 587647717 832895656 31751076 70291660 174700723 620926755 920107933 795322622 458428082 407464131 2334397 178438845 406171451 996348254 821137022 373551512 806908665 879222932 142385879 792911758 565727307 339403601 537817780 502651374 828349514 630850721 263329621 978631838 934260764 359128301 25760659 793823897 894965870 346416776 15794392 358417172 991663267 900551758 54003446 454656247 171818362 729405377 937287027 902679104 674934115 48958186 697449554 198464443 472282227 596301654 211774815 237910111 914666157 938443337 942823573 91268295 743953493 541630058 272146738 185398971 46119082 241488012 776207431 258618151 312800421 82031921 856363103 963259138 336242262 289877698 218578912 481548519 884100342 668769960 787985937 604697612 412944830 694655788 232049509 873279477 517652889 310805771 718383913 549594121 976269733 350695644 814082012 6490676 323160190 382621526 476531583 417191859 957181727 27344239 621116640 496126570 584652091 800155735 161470350 919719270 861943491 857634479 272761502 99480363 674846266 94401644 108870062 140299066 19119321 842033836 432223909 23335155 680002552 788597932 559568610 747244036 617109436 514555957 125021495 673491252 504575307 962974009 314984834 933846767 617627359 712521676 243821469 633265418 144219950 177947087 886162380 159586542 163701428 171412637 397654766 543512781 716195551 596335261 886633057 757872428 798994302 554395744 343462896 470634677 879917677 494882347 410817852 854572848 863003162 625207085 56869207 255078726 725743645 74813363 631349542 96285604 177912537 142102298 168988052 906952272 600993580 94884876 620728491 490881172 97832956 569925111 648321063 691237199 765091021 263124471 774176044 152290105 516775945 944945859 432309920 732466857 714881145 956386810 243638774 694934974 397464346 844267449 707477674 170190770 263781399 821080768 376918256 849527391 28442904 64676844 281281736 663395740 404940168 182122012 3650065 933213423 952772193 22706679 998389424 503974875 301749791 855831335 47147852 125691935 905007127 585364163 452917692 112865579 271715547 74032146 154186138 289252298 571174193 235812597 663731564 118240259 411874823 737119476 868222976 267745164 306552730 586244787 993591347 694691107 817737927 164249260 183970148 553124684 957858605 117399922 438546251 119480541 58701955 866477688 147738537 127647926 146161732 822579915 936785368 192814342 76278219 964453917 701657040 571984824 546929372 910333540 591860294 903630347 121515907 710523705 255768344 88289635 719962613 150762423 183666891 935953286 697680165 992441590 323321199 912541105 766583547 127386568 406140319 329666223 41772141 576883739 390558661 126499334 566177252 257563521 69753633 506613232 680374703 498462661 935270624 191906640 573645351 260670527 443018309 453952263 840930681 334109188 5379953 216514782 652439079 513601418 344899826 369078014 574933547 531544725 797572480 779969467 381475380 32133790 888772817 313700332 294626421 2371403 87956827 468673149 867862115 144625769 660641193 120883958 421089494 481719720 906165602 967757455 927703040 716092488 585607517 118927959 628408149 591536580 859558590 313392235 599062092 696967105 886640231 752798379 68231773 104312944 725673414 49132938 361933644 656322169 721541417 116518331 160434556 264714141 298052386 602373278 904516087 926469400 66547133 292927545 208679667 831220719 960333918 645209808 665527738 255398775 764020352 297349552 891331639 769873130 377793592 139084330 552578477 85239113 216922439 904488313 179527747 709045336 956088162 425946295 173492676 343343794 55631561 938832248 360111887 473922130 451834454 514141239 34670014 735136469 2695203 701192906 558008386 443279230 441011925 858611823 780340865 190919678 60941032 289890818 83873144 960209999 804679181 893015796 611589804 808463700 522631570 255184568 105082960 780932708 323953964 884526538 522878874 390895584 572590995 665023662 900296691 871557549 152847967 940916317 231778770 114205413 645613982 795294734 923095113 757818534 229154004 784772888 184205685 791353026 810076407 336560375 693323418 671787008 17806537 130170729 905676904 159114048 811613322 902254590 525498531 983460482 538052316 347863914 16694339 528091539 703335915 649533316 261649693 361369050 858077762 862058170 282269391 189996916 311543993 476841176 948413909 403588352 842943521 71462348 399062438 445759571 708220457 483642245 22640384 272841723 137127276 155952193 743075443 464707024 521386238 196382565 559183420 783511276 845594176 983596335 869453996 53163935 799908795 517190947 43789145 904840191 835234853 493661102 222710073 672944935 297006720 428708244 149638315 986541353 521324116 359251735 506913132 607808457 837617120 141194726 653935001 967040875 253526924 55952255 842073427 509600363 428101127 554154164 785452328 389555808 625462605 923785634 382495041 626629607 734852713 374979385 149340630 874967305 464923606 53962512 225248178 26311622 703814081 86089584 595992416 526926150 634833304 820728476 936209521 866924404 360556497 510025145 948648933 334628969 41357383 318401872 146349142 287990712 114363381 693898976 668678238 857423764 393664571 999430043 892496394 80985149 519369110 574572452 546283994 911797315 792720192 740338500 147481793 905809748 431269114 603207008 443309206 639174176 25909960 284425842 37767093 417882810 914347068 425951300 622757470 441412688 245674599 806149069 706777211 495102674 430551544 892528680 897333176 426654448 751872695 832842379 975735258 569784815 984419662 112340677 870711297 394840046 701811864 590452294 979852351 278563687 14789615 787557598 527394259 931392465 165541912 547791168 852191823 419853569 245920909 26220985 880375968 316623450 494542442 524529654 690426984 324211386 96587755 471961744 715619029 669096174 53303172 655888431 896734410 522085915 410808692 287282084 36923340 706436142 102203076 391651814 139815868 31657801 849095312 105268844 644024619 800823192 858698806 162967326 271393943 646294378 599815884 120401274 792113673 363474667 78364748 800711333 338304942 355545830 949270306 53466448 40099464 486638584 526601903 500447426 766960985 151687049 416335218 678123642 69709515 336256697 856711843 902516472 714137458 181031074 457752333 306018560 881185506 228223529 168571099 155354699 149448276 257043616 558484393 39196025 608521612 356036796 470912639 861430066 24042447 314100218 824828575 270150742 62113253 203512927 924918286 570447437 141101639 495148364 60367125 719032 817699977 498165374 509490545 129384032 783547130 829740672 292459622 498478151 195397188 488290182 160018004 143001065 278042743 332590841 191572792 969856824 244260046 925879639 6209890 720257777 273319994 489464640 583809706 873375299 810859990 48432099 347593968 819366911 466708692 824638625 70658879 874318775 414164908 536575716 985554263 611773981 520485283 43767419 533006712 855198874 995937473 872307091 343145256 584805890 174063554 605346745 266753894 660837085 266193543 277723218 94281418 241879653 46687450 106341418 213642675 493413146 384371691 715816388 425440338 321199343 340722267 50348824 62039366 600626100 390662750 164570109 29184460 843119256 858431517 745117338 811302785 637196206 884607347 436619843 371398871 475172399 600272030 988276150 211683443 319568940 251247687 465357211 164468432 624625631 245692874 746949997 462288532 3330726 822595833 216557629 911696480 686880278 815836922 181992269 142340811 730977817 61134850 865530880 75214277 774412927 162007895 340690595 315688490 271628705 266606416 420836915 79355451 539802118 150692997 800774744 790200061 901915279 397498669 765703443 915183682 363386000 665635264 47968612 349941774 739347131 245685292 910638783 762654442 89506689 152443876 910034245 589488350 479406888 836969907 146067492 31256689 410305838 359154502 729438577 469394452 195703956 362729531 806313879 12322810 293363046 495102336 272664889 491974241 301217831 71816212 612886181 395773801 82523863 638022918 144505028 271645089 796454781 236527900 164970231 741467115 467262754 950140239 519874885 50796177 3003809 71438451 10001225 654570902 1636462 128675350 126473286 646789453 403927867 979853651 384115653 359687513 106449221 465336202 638637162 597026056 636859591 869954061 593162230 657212906 305165798 167640580 541701402 665366238 769545190 533906646 871598123 389686882 661804404 513218824 531428500 349238278 18978988 826821315 668760463 168803452 541052203 780120272 602584158 566854381 229513612 614985391 520092956 737693885 83472365 480626928 73086366 460187334 390564809 795006902 245363252 636810625 672179906 613457112 409060944 416977150 704490847 108514706 320865717 900505879 537507999 382489377 893414128 567232110 990953222 301265657 193867450 466145381 582272910 681724004 126258788 117545384 303222541 122394614 54894944 144141814 246987442 286921174 976412999 673293653 353916167 28217298 777572181 448377861 289959877 793102516 866564281 817348919 684833116 744167074 32447945 8206598 332424112 871154097 109159513 956635081 250446951 490191933 489366004 564448312 175645572 796351241 852080488 342258736 980933350 240303611 270558418 400842495 153019055 76540722 424369287 421713107 430012648 425230897 66227393 564223391 186697445 660736511 717895594 941490527 732778031 560735049 687964934 33123553 546696982 531270314 690038124 626972626 139873279 261867072 354443938 158964332 417955393 297667959 689406425 912917250 215679686 139161713 398612638 678739379 580712086 758967024 324760066 296607947 390452314 5824669 603056924 71779775 919304999 869748556 890260373 308431544 69407011 982303192 754169015 587680051 687217170 949700973 220246756 738635575 261900644 706145293 549522032 152200448 208317531 415181109 513028174 100982653 798888586 860397094 398043053 111569567 750047135 75156005 972856783 519035376 819860538 664725935 172112603 962842969 106789617 223085824 351421296 871885014 961675038 536361899 107507023 398779246 627131453 133152499 192158783 202204231 744218042 718691453 105087695 140418731 183819758 348595501 210011466 469561894 246964477 936324348 819633780 449515 567023131 163028184 949584495 462854308 679252151 935255715 654474496 448955337 992760322 720561513 542777506 613720021 865440689 347800399 570386845 387474555 683372252 337676842 863769567 942955159 908860750 960587652 557664508 377429698 617790960 986016664 725511235 239786327 607941498 541137118 203696454 128234155 995940577 398413009 540663968 178387358 855449169 980366404 450559259 501350031 382796990 354574947 188317406 168966895 283374728 59969818 971809028 145914631 35057478 876047432 781756824 647352549 635166365 348884520 7731287 310941137 179774789 202357386 199623979 713559178 271718329 130656776 258364231 328470020 357427161 47542643 614778243 100715129 636433143 260650674 888378567 11068616 254955035 88204606 153334281 356212874 885376331 960095544 429871594 599509222 168378093 592163238 139488663 230570525 927798811 468480760 201477635 521822451 981247310 984389606 822527186 323773639 238521037 854943496 166396181 885354128 202575329 348342433 446320666 135371652 722368512 982096091 59629048 248682842 981469860 425595899 631876938 306492720 717390409 428421113 401447215 987698290 787011396 282921614 778960977 394524476 217271323 290348274 505059916 443373759 221082022 1699702 986187136 580132458 334725072 40447855 526140874 550447839 826447992 6003907 670196024 142154563 284191976 339613334 273388466 776143242 199635375 923219049 961994867 142774988 13885378 762052874 323786837 500598775 179856272 15543029 400974873 878482728 880847341 165105731 119435586 410996097 599387116 442453771 870391636 708626347 286230975 711274323 95198372 929389750 115744164 361958918 239433032 440160071 399977497 325893648 472193521 452257980 644878499 975610567 548518709 506145110 180951785 486643387 630482272 459656417 626131712 147513539 449370390 674352111 657768769 215249710 402278127 848859478 494524995 361935572 128938207 369244632 198553942 487185712 324726068 60448425 987271302 29836901 990794607 289107064 445260321 146422194 165779695 127522474 826797866 660010356 814340452 473569734 565748518 268805725 414160953 142426374 96495501 238167582 962119345 148697035 235479892 351749739 14058060 104452374 339008263 794950548 447230564 866321280 227415200 491502751 939889702 17834010 73409043 196077116 778149741 465738392 89418126 146766701 281668001 535240334 615067899 44507787 542796746 53859335 353603309 140500259 382299366 584355762 625242075 811546090 465297146 757379658 123508279 476697741 761037740 855719350 571299277 678948183 659544600 996193885 993983457 283282471 1039650 605587169 330239416 190455724 454384310 685437727 826240613 506538601 421660456 815171763 914491732 896133257 646886302 512599327 735341834 548777277 777938121 296365479 518337252 729212272 979719706 863725601 872410479 304901143 266578931 453430877 302341670 571293780 404367318 895787052 481682099 267867870 308440765 393703409 126764206 513340125 940584970 396959670 961087610 981933621 571564756 331935649 190517431 89260715 623512354 164560355 421947489 913480323 990747113 533244512 65718671 131307902 3523793 673658540 783465450 583153347 449389220 350219919 297484364 238560317 627657762 685880413 456320555 101703350 561415236 431747443 708550382 549748204 397826071 175469310 165122967 445776757 675632611 420897783 390774448 455178524 14649410 463359076 248973957 857534690 824152645 434774749 768587579 776285484 312766116 100872536 794809417 363040637 603473324 996187696 564008365 847494492 513377241 255618554 554179121 794526185 843343133 166175003 6409968 450805873 848100093 404653753 114598953 292710885 508861047 468212784 223566962 569818606 370955860 655808820 891144705 1222932 159349448 929457155 687351223 689211121 828782874 713442667 589013664 79741935 812960835 912803135 926598018 522181629 995682659 486004793 85484371 630659073 845115562 499385107 55909257 410982578 93396574 145290452 500559918 609064280 490520368 413539807 353826157 460828169 437784208 559594071 238946984 237406003 10012508 548829912 93018286 963914312 509634509 569859905 308720756 485735775 830770365 445573901 441196917 665590218 462971635 756356410 459676505 734239649 689510594 307450430 419071428 774751914 714009701 490164860 420788481 853237216 498183223 163469077 136291167 445636675 116307706 431904119 899108218 358029471 158051934 38639026 568099113 993143348 436844272 483418686 819413155 949782570 469487200 166280473 301704214 623397139 194439356 571788528 278235248 870036478 554553766 933887536 399435395 900351039 28715826 372542278 421426230 750081457 979094607 85533110 559064004 879212215 536385804 344519143 852685855 396206106 230294931 901827664 234423463 911240089 210458979 522107713 548323027 65165386 503586838 627850626 440051818 912718456 478168624 724636389 930481670 796786969 788023277 414836156 554196639 172368788 196549923 677336007 417344891 2869688 387727881 993979571 835373474 861879152 750437231 549941111 672798947 816707468 795189364 509424800 166599739 676200622 812907600 191203809 990506769 34846259 506726911 314539826 78371577 330761329 671249310 30826956 100265880 46474949 622660039 930243819 819694426 864620362 634271367 19393680 526330162 489110222 11682918 289808355 106666948 103272888 223670515 266965318 936967487 14307559 535521788 894763123 626619544 636944890 76173773 817792839 592378865 494436288 434156884 43089415 878275115 672668008 136727256 955473392 956489304 194971529 723040787 586583878 797836125 424916853 901466946 309742313 514873553 995994983 642533735 131035458 816004131 913714660 561460235 67729574 853348076 914304456 836736742 590440423 593994813 159096753 282604509 270779292 598610450 734494073 229977898 359247339 661995374 800619073 112361728 616087896 549865230 460620891 578668250 663287324 922031859 986539896 171357926 858954609 829468218 330913099 783934871 223594890 706011114 69558779 994552950 835716057 616466220 76239099 585956088 267861591 661732399 505283212 92427299 411417360 201537306 930317999 454319404 72336096 808763375 739359619 484726443 738591674 683875798 76590727 697627149 337120744 333217009 385572643 4740018 117591064 746055043 612439316 626362422 999739698 58685403 487474669 615556974 38379964 577724181 718831340 99222026 222563405 215344744 655777095 280818783 557096965 994563906 288577495 149493762 927402959 153164159 692581455 24185355 817180782 960215709 487065183 339935681 1127131 601282670 386804585 387534132 438655758 552552338 860430085 706860763 484688057 166815883 881183172 625366398 125444939 369949600 107023986 157263068 253880273 758342866 706148825 513216605 453534624 405378763 35098818 473652595 429749569 639600390 781898804 871675343 847361139 330765326 79921340 442195724 152672288 852733927 956572886 365339182 407429891 616161021 302642720 239477280 671762983 850394185 844763568 451898753 406653866 109771380 171126523 196679566 318305556 778775370 470400284 440384621 243944239 660956722 450761182 23915054 479997092 616822729 730712921 462288669 854596055 408006311 479108597 325269180 28544360 591206450 150448963 524660625 74384948 395190973 170108381 193399806 372122019 291583784 204852928 340714154 578113447 116265919 614077536 961849461 234689572 700946456 34425837 739539576 317899395 891337439 497334959 138042229 735130783 865419309 375057545 648163080 982053624 607166018 902269332 906961370 437040951 520708395 700597734 5052587 408601661 718273302 172407462 70389318 754625719 16461750 72687274 26214256 327379136 754011447 495413896 134365268 390271453 348715930 373531771 787709174 929015955 924661015 607142775 465035161 463692073 426353395 223505693 61557078 963299664 356133798 488602864 671930926 600833202 322798753 504450263 515716286 939014341 911334121 718851486 171770018 517665746 131071214 617562616 427484804 759318910 235167410 685126552 345129334 977628332 884464331 436767872 222702081 597228447 359083467 272690279 817616909 643261260 491820897 259255399 828063838 244764984 932236524 944327449 710023030 393525558 588754975 717186858 697040587 586242255 845694088 275286242 865902087 951596961 401442999 349459947 105620588 292992492 639038007 375723273 723788662 39906863 118549870 414735455 838802779 729345068 840965753 72522470 938565389 870276405 101219492 819498282 671092847 337582108 101346028 249514714 276910032 290049574 921325656 186356886 882176302 66891330 985081978 161652711 560572563 507264914 18284776 321301252 142167890 82863427 120671906 850514969 847746882 330324710 493297730 834095821 266880807 412017853 825224128 110894632 71757431 777336456 103103887 634022137 8921280 779521436 444952243 44685270 940824794 42622044 358808730 218978581 811953313 46317444 301641037 734753617 781299875 867240186 993768466 892708997 797321836 886180420 701161945 583665193 239201118 775976175 309763657 445579657 348708211 328177248 783399498 610802642 259755733 603495638 250401896 834026195 737364551 640055552 145721245 58090268 165731887 504850804 327936855 624015065 811092386 878310148 692545253 688750088 843817496 466782839 868098519 223621912 770320274 700541034 995692772 722705686 282820214 881067323 84758313 326001115 529906147 762425882 271042540 804130529 739519984 1219230 633431947 9700481 3444682 84406466 749145907 515539191 738903389 253774896 547599555 388247402 975925185 267371112 84608117 603620806 717606578 757862729 567021380 904935423 992157501 149899301 514476772 426157051 481313654 831157077 81583661 989528430 768927316 201125602 421192429 314589258 967125027 299296724 855952740 311443038 297915375 422259537 791463791 369410808 930962947 403646040 682380538 778761221 197825539 362294758 130196289 131627206 51288129 982509170 727454752 390465037 298370773 68855349 434476225 782513571 814678372 328088720 735139199 546045005 419010586 471634897 68568114 482284383 925183222 642937441 629535730 86092618 645124723 874858399 610567218 605455579 444536928 344486229 795899846 606559480 541396510 993423891 916101588 398595181 393508946 634851311 774624521 727688284 443778721 349015433 937149914 434988974 636756398 820546538 87897483 373077287 833969472 414525870 193855759 283983354 663801885 52072419 698331665 622222835 866521034 931946466 79010631 536979402 584691636 734466995 758729095 804310719 435080652 76787976 168094866 601178133 301658378 962315074 321434071 426353686 559118298 345338990 225940508 350286670 19122456 631552460 864021953 298549618 103163144 381928095 839787213 122067426 25568203 997336261 656153355 72217538 196770741 418955801 928147809 456499937 479494380 447133695 522913434 186993303 897395366 448348146 643858116 28763938 56018277 620626227 572792298 128747681 630588659 706153806 723992174 969155337 17107176 135731924 349270721 883686968 659302299 211043192 122941326 562828909 687751941 875976861 803268620 491309301 127498367 382168476 831987632 449816748 634842885 711296791 758771064 736898214 575044653 640112441 581953685 193586339 354442218 415845985 302012362 515910657 28711023 870878394 103382331 796325464 552820495 978281772 276232608 87320518 489823935 389899204 972934961 841345787 236051366 107547759 13827614 328720122 295347177 200450460 573346093 938281696 291649746 269784781 255038173 92562648 946103052 627933944 710453759 100856595 787318589 366379189 453019072 373304899 430998590 241331963 996124433 519669635 502064712 373160619 890940006 260358724 227615512 77090880 891916587 451921203 309866393 624742840 210290558 253581063 434100064 485774020 3771445 9573971 555895214 282354752 522908281 970239039 943418069 388027577 406822123 994290347 755469166 410163781 798470374 91365841 672412268 962329679 327666518 396048315 516666151 684130831 828805951 470923933 3924715 796646634 940196561 386111556 414310061 800548533 333889630 776330416 773605380 241208971 687005434 542019254 386881068 925512456 590087164 594098173 757026704 520900321 353789696 8885252 758267455 460896881 828782959 555449526 956665504 135389030 693239911 780851480 878719710 540914053 539098727 701519854 993411214 353243751 872102743 909390598 454844454 297549818 656476724 904696166 362220046 402685418 536491308 208951361 206913431 466999171 748112104 902107623 881157075 457739951 980290790 915653666 699817000 736349363 768094702 312110087 211675782 660182934 83489505 96565127 927073500 686634037 450074981 768889519 567935407 60754906 793777742 780649625 411439876 976863142 47036206 626852121 186497736 929754781 144979258 807318153 637963617 473495318 27988535 845871445 921064171 133977305 264706217 45238602 472606008 899508377 321161276 545401006 50629525 57405978 436471944 798103486 278819328 93829139 881165177 618408848 660001813 777638116 970861683 746200761 696652972 939813608 361380163 7472600 417068201 677159069 300551865 573630000 120899805 631294928 697034202 971847902 596012546 181860304 249739331 268015281 653617700 275410625 142049536 489629468 339367669 149429607 1789172 806016234 726070923 766866338 254894316 73458459 759258040 516787297 161728479 372888843 798610815 245686254 33856849 244890412 942136079 61567873 629193387 608095200 5636521 684582236 570453634 120777394 65174059 471665399 590567646 933674804 905067480 736610331 988914497 921897818 516908410 312237308 951367179 935501881 485426444 343641003 716625592 578885823 659670161 128565799 201095828 135035358 458291209 203663372 355101099 573622108 33938614 797022674 432114816 805397047 76185668 215328110 460421408 363252211 661893951 316572810 872889636 863742660 6083027 994920303 513325309 692131201 892715063 564727484 376772500 66536471 970481061 289530448 803639896 317263141 565275803 565102423 178152889 573223117 682975285 187038144 769446204 55916238 331481780 937750829 852008086 405792339 462154261 353973617 695279164 49954670 645218649 187157370 705962662 7085951 98289440 289790855 441490631 462920001 876926644 662366498 8120776 650650707 153415883 114994062 746266801 439977316 464834912 557909178 971333121 654473850 564972719 413949052 540715614 346043416 607339864 789196847 811444735 706373602 240765517 764672692 593346797 846462186 257091817 54900796 640240333 629682267 398830623 736386011 103208440 56539166 555377604 266941205 135609364 632945567 288961355 168435097 434277655 993885960 869412815 687293875 689126699 633867902 689523503 5489683 375159598 846035455 496584553 79096893 45976494 558815049 261703841 764485601 609849944 674640695 174974806 270381602 576725498 266218657 583879974 74084271 777591045 682744925 576910759 459004463 277367577 505967655 303760459 185845584 60320528 168972734 779951191 367463947 113319204 704105838 202058467 158157971 351079115 805221583 903478641 351212381 719414029 483928531 997991183 435686586 328187930 724647037 414531273 540599652 491321406 402545449 284547013 462529892 193426960 131752566 631026957 273255087 479510677 21189063 96462444 130872965 519296047 154511568 52485166 634186445 498282827 106787184 255588877 487966257 772365455 522106508 529910727 390302413 414046271 130706934 386511527 232054193 814712582 492594011 580854041 967256363 757785728 312965158 807505063 361861517 462132520 278367609 844279098 339150947 867176439 139114206 765896789 434787603 632209839 353799982 463354245 7942017 556422686 134207114 181531978 976232603 683795248 627262509 865504391 668429256 395044747 636616316 127065188 495437563 672803064 816911026 519386035 174513682 133040839 661025310 957736899 694636054 76402285 932816405 385011066 77866242 265189603 6830843 566150438 544411509 809936287 402252952 72027963 648553890 184743323 290665075 142473692 115088258 155799900 581739482 892080042 979552713 137154011 611572969 272016551 750976736 595203700 123357051 267948849 92202549 251125205 894576322 825300923 7897635 419563777 962741267 339831992 242040531 67886151 33795513 665748978 901661374 409243435 960797784 302115117 283474894 907203138 747546679 723628920 964972153 775755228 782062573 30590962 920725286 950128934 90651552 25066795 910141218 701713037 444928775 822960669 966400081 153506261 841181896 557294430 706172833 865821339 12571493 28815010 772547007 285094235 500584258 344447691 684170104 504895894 990992757 506562250 406849951 962761470 473340063 525259251 537406586 890065434 409059044 357509196 641086424 173802958 341443569 835009497 384165921 382477521 583740968 425080659 983031147 152807730 848841656 873526855 858772143 315351715 520112105 871231715 951192259 355872460 281668193 607075447 685754181 871822972 171668755 192708336 66437622 919183911 351842586 262856459 241810719 936489639 330089217 875890106 210123289 627776325 222645588 73555807 36817616 249722668 879179102 788885393 287793686 203156257 642215229 496950781 400019762 235553716 454759001 631750980 496156083 421823275 603303780 796570847 895098050 481929374 160357231 678501256 526923214 52117499 886277399 414390950 597108161 32009217 182637760 976289770 554212884 760707571 428717366 435088842 749987072 928168375 350298658 319431514 459602405 723588519 970601162 213322875 214500366 840118656 5348189 802806208 420378963 327928411 168205396 105127014 937036441 212295378 624416712 168152935 950199452 311314658 690222125 760050572 970004047 987145671 567239744 197262944 566231625 464236256 875965360 930600489 557992875 608746528 586575939 658774133 731480265 988193395 457706163 653275818 646356372 412261785 788915721 652230804 742897399 746046311 20005647 307995923 52039876 74290147 929722515 449731930 237020401 999265317 309710785 232847411 453730783 138602054 656835788 731679190 344193925 997034458 335076532 871817713 18203454 882024709 157710838 79057005 928524738 564274306 389755755 126638863 407743292 231628336 797735753 591902690 649615080 905991702 124238278 808870855 618568243 893190826 685592352 252524968 395088459 321603143 768554340 783987839 363564516 796477859 460980701 811931933 121740912 33974993 129828319 511317067 308078066 888350773 403385822 243244121 739366083 833112561 173803059 545815120 886483038 716266630 740469466 751556633 43598142 600890323 85351082 857017148 161214646 908014289 149381632 181750324 658045763 516651075 913097396 227689474 598021010 545903098 394829596 769735423 512130160 21134276 436986050 582445805 717672551 874727112 973821973 387201838 275467447 208497637 531653316 410985805 861064745 466434972 260627212 58502451 337207330 780766055 654500878 267821323 846759508 203521370 665507944 536721532 894964377 160694098 767674483 645939329 347071017 775187002 940165802 648992723 456072413 200809445 972560451 701274422 97122483 184541656 439300353 845144393 85534393 201124544 904750875 51647792 201643286 157434920 218278731 291588844 453745860 482088521 677910047 846453057 920120098 182758250 719712737 692827285 111676162 536084428 665087607 915528541 221553762 431984553 326673550 239972405 525177989 163099593 782756996 732882495 475322686 704679877 781354010 141340892 561375824 210349028 774384679 894808201 240520580 111056943 410582845 117065877 925376151 416624592 278364354 279948010 84318841 443714895 220989977 368626293 430808755 567630757 95034402 451768647 658371788 927152954 461906964 412125189 68193065 25917436 340402281 640621107 210361903 813412303 412361690 906424113 625969586 252682555 294423909 376924028 48195689 36215650 29555656 258652919 90498714 430582498 371315187 773898217 122464838 687370869 133135014 870166141 214359791 393969515 82484239 588561008 366716954 963795474 154296184 836976532 941557665 87582984 470275186 398490754 454971911 42854762 955085846 269991121 464357037 232092957 879672918 458435211 305911708 618671016 471780924 175181020 940014725 781998136 187868009 267083907 666113167 872588313 379753211 877908501 529749190 511461292 578756828 433338944 634706508 540837545 439965427 335386480 863140579 804696151 951220660 959519149 395792148 653005273 64440660 877225283 354653133 805854685 568009636 671556619 862355627 380364666 538068467 167741636 562122334 532999964 726326084 103075685 165341132 13584249 382196135 764582 268548093 824531054 326580373 964968726 523346824 468257913 477262678 657400911 852704163 559487832 142238444 141269574 68340166 38849740 116107405 547230609 358318882 196758853 484971064 230637043 678036062 701583771 148160318 952600406 146155251 758728706 333795027 509024917 79247002 469220974 221966655 525469220 199337105 166113914 921700138 173146975 788787220 737811175 990209169 375724248 374263568 842030422 752302489 264295913 597450444 583304942 902494654 530013045 103558637 406130576 741202193 467469653 144677976 721184824 519692482 625172837 717854485 709384427 610630506 93451490 851577885 547719654 284765775 310719351 566800204 212243485 225657333 18566153 301849969 477986117 522863156 653535072 632353381 980587875 626717796 492130706 226975864 570618829 987505950 925874482 697045478 172634954 384435203 369056644 709239915 91896844 558949155 534772700 822825055 844647326 942755654 356791313 605457845 234591684 153643414 517987297 750838407 708666148 613522864 914746767 477481535 322859188 539712040 310173803 210538697 731467811 49921800 2401246 558187847 845241611 606675659 546032049 228179561 608806050 26624548 557772467 150915375 818632842 990227272 455702086 107469552 718677202 819565036 893584107 355596336 376560261 903971173 379132347 358442265 979686698 979619681 900238626 344390870 981219761 285297048 773268012 741527051 459490347 155838039 271785886 627865608 946263200 578772853 347506699 764721414 754692419 294741740 390853445 38886418 657302803 475468327 74248068 422535834 493112296 443323862 441148833 395107508 30279211 695186586 456581723 588730733 194586072 123035694 828666710 141291079 205298441 546395164 516294650 580279057 730374259 966175581 606758648 243572773 465877913 690239322 892733 128412407 657377519 625818543 500120201 966096474 75203895 105029862 424353285 980506845 134580664 388003512 154811593 654318362 320591630 478320534 232602010 778402736 592840814 470790875 984966141 565574789 30962825 159802419 798906562 684254884 557457965 79801101 89952012 3986504 20208326 401812206 358453954 630482344 346170591 741311524 309725128 858438152 25564432 915893391 46138070 568033702 668185429 89935855 913197940 171667597 250498735 362697174 281758940 700857689 821582843 984742660 565433997 284115539 347255261 219228615 565042228 483047359 836450854 530193804 209818906 962700351 110606669 285718120 199035510 321861579 674739816 686750310 228381136 342771641 252821152 865566591 391651196 506497344 484188564 786002425 377054610 884824587 247319156 697949546 981108591 132221677 82975244 878832343 170760875 190136011 960247131 560312477 898880712 328473108 398013162 64481958 450738935 705645514 149474099 254685802 790882154 928649711 769585454 694794975 577863232 455742530 400751597 788104545 325479352 818068248 863183295 720190130 559488780 423188690 44956649 106408195 614089631 893922331 743489856 551349447 815830328 738209892 292533678 837205780 838375019 316681813 906925575 715819727 106803894 921157849 712626009 102161536 629314863 495923666 876038547 45974975 374221634 580350549 388704873 378195103 940415101 672931519 692402748 216599768 794703266 732566726 398481873 25661135 244902108 722184639 475034813 352569844 30223585 352043207 532692059 32492295 575920919 402130694 332053100 944430513 714846275 981222003 968232466 749957745 962712180 177689057 206297510 303623673 590944558 824456736 816694028 16046698 978313389 830039972 485585124 201187522 522265163 36496898 396183702 627686084 790748491 932494099 87256313 57652465 260081472 770743462 3518 334817817 509268574 503329197 6578534 727988838 849656217 441724541 28146082 631965719 694038852 704150262 964036767 628284493 499035559 823741574 752674832 820581629 949147246 521158860 382170856 734774587 612742962 494257367 150259320 847746682 639411826 118524586 765043247 617324262 459675247 949197578 691927040 504722994 469558775 303764622 381257296 402611081 143017211 417702539 293722082 864872351 181085800 629281155 315257458 107631064 625244835 536667311 274696804 679225852 76931450 320935906 314549199 735183318 769208621 814347091 152020572 237172595 181076531 680053646 570560854 988925018 474839633 797204587 574037646 607190686 523670962 61816019 790500393 915348568 906198337 370889082 440641311 925773382 390324088 13600438 126750327 388885018 352281399 735238354 358388422 537961313 429195419 498984994 763713310 213689965 267559704 918540349 791776558 230108166 647732822 956438124 623015259 559828027 548579925 867220469 157753595 700661463 516620481 584350429 533985292 518122875 371126041 885907181 380764319 575583038 572460926 116911073 958815155 704191078 830343820 129921683 980016817 395493176 254016425 772765769 197523866 499484342 110210225 58567865 842803050 348677349 401724539 540074077 234084062 282684972 943795300 446494650 994440484 750150752 519801437 352569965 843483417 922879980 183947717 418510526 4595375 154250512 752432823 524796295 114806516 886623595 362456527 183720512 368444701 156395720 692603475 856446733 958364877 97788365 128386321 120515810 51665614 273499052 237851001 2993503 559764986 813160002 382012495 390040379 714416873 109997570 907848919 729925650 491155197 670497968 650267319 148444471 424385998 296376122 358275372 879177999 503681852 684173467 403398985 409929409 422889791 551302965 900628306 968522950 243236254 671328957 657680402 240523227 556627792 939185528 594544298 818824676 809649055 603321258 476018917 719071851 347593850 720182807 141893739 205564984 194014580 889453492 951075595 976338053 899061072 186583320 460770758 77881804 221362997 569110279 430434962 836644899 848755018 278803943 851178447 589151535 617274618 397349915 114511290 968130603 576646445 318845002 29028186 794157120 384461195 468615932 105597098 382425143 696069597 268372024 160970430 790971042 930551237 658662125 339809829 908407827 930911950 312679277 157538502 64523669 429504398 7068177 536233925 374471437 884843462 877512311 852239848 268974726 42672562 164878879 604713912 899157173 272844668 34312672 412366483 129821685 872418786 883341563 586858876 90568973 173803251 94670414 13551381 480044359 854192486 528973401 671584428 294287269 884542221 36128956 482381165 79700520 469357246 888231540 419399822 422095637 544971553 57133390 103341297 987751959 865908678 750151412 772883244 430273221 64951205 556998006 915834551 472455636 124149513 270592245 23493668 97435866 68512008 293881692 568361897 198864192 725060475 49988781 671275374 191505068 912350086 744730792 431316948 971928242 25958789 442633198 551611859 281565882 936377957 182101358 732725404 16075042 490707405 155863788 876469747 463887847 36629868 275797519 88615496 705252326 150842214 210793049 74628980 970901509 581633845 805930289 703413315 616035393 399358732 830679226 181619417 522727242 134437615 805370032 720875785 456169885 541535242 356608230 353225630 295370334 906531121 322780355 655003562 435449664 619017958 587998528 727998824 190615060 331976848 90349566 959686523 536515089 421812045 255012212 56782399 926183509 815872867 733416558 578621702 645545866 185759667 996329597 557415180 392764843 863907586 102206145 271638451 604651064 268313951 192890339 69475223 725305627 883445836 22615367 820390804 391600342 700695058 321526913 444520342 11342767 751010817 251067533 901591454 984158021 430276622 199986466 664419223 987639227 765481394 663139440 743146574 163843218 256718823 558192062 78547786 229971933 979995022 747010083 914936432 931799137 571924357 718782371 424747284 201309672 439366571 538165124 48415859 602028897 314113551 151843723 124646572 257228341 474091678 578128103 443180033 182999744 925360453 77602756 655002010 308493281 156796066 783873618 659818506 627842053 13745704 138328494 751776079 46274229 738612083 327437303 819197785 887876716 342984599 188512441 312562233 66692483 52789091 471857823 271759564 540898210 550729257 711339205 20004621 246571279 9224328 174894733 16248268 512246132 605306663 329022471 385800034 776929951 573163595 565114291 468264129 994068386 354871759 990481327 755622113 21000805 781590682 352328232 790590547 980016667 642513079 855040892 861007267 323277562 341182749 299013568 691483857 656747404 77260088 468872639 895165220 427357991 174886456 442145428 434632114 623069691 421749798 691901513 775996744 450875322 618643721 875888847 815564157 384299715 424590660 273589889 199140247 120776340 705003610 407174480 978116537 501857934 987710108 578848849 348238222 194300082 627908025 526153749 644194739 88082275 148850794 11931521 242814892 19097484 290461459 291524786 831158594 139650564 352225558 628773584 608162841 241718741 64440925 735724532 688051488 907532380 711902632 168988508 805376272 139475665 454673850 388773483 27020595 608029819 665823076 545302582 75977935 6450004 938309867 371426322 296422199 423171159 260785164 264908431 224779660 364234509 24858384 658039591 924963784 558142594 530300533 410319482 663350162 587597292 259294662 534955638 141969067 770959236 480697926 142490777 245591765 552881446 84679485 331333303 21520391 773769066 773141991 991361637 350157553 467666314 558415374 220919128 295259798 823065588 392818540 672035408 276105458 731405378 855868767 768942110 466069815 246887660 806760792 726347124 633353265 387617377 457809750 124091473 165538414 596289454 413454439 975904646 220812038 509775949 697780559 598230146 368868191 180692024 987984740 353150574 470173919 117421597 484075441 58591725 221163874 501932063 753464699 340431479 903861024 621263094 275828337 56397489 514808037 916844904 962402241 743920392 384508526 641546067 211043724 721136080 112584980 481439372 310802939 154087452 613157293 57452926 718304473 344291840 406102586 639524465 844367420 996754984 957573979 870742024 984407847 660557997 61084370 114668472 342808165 359968138 619764477 676553069 60568434 819856862 974587293 518380854 491935350 78345322 64626613 639898435 428243606 248357790 500275941 318820732 804186388 887683543 192022818 958964482 929058636 555758283 600560635 831650506 708595424 124301240 271089491 701640721 957581502 457341557 829509110 269133052 361668195 332621956 235207058 379370426 820757327 225868012 951047476 662262847 524427635 424894868 656820158 846098790 642209465 192374521 286858989 995664001 135350480 940170383 575661718 786259045 475393484 620262023 402236766 767771614 389354099 211266510 638025149 643857924 638260474 181904397 372929373 312446214 182417180 888708018 562775876 35195095 120638471 251801108 177993439 734558708 127655035 616951027 806243462 794537363 659830263 371981460 844375245 398369176 282002070 767532217 631613881 119158802 998601907 399774525 707054366 102525231 722372098 818866072 379010550 364505537 763559029 992925194 865080771 543040719 988936412 684878153 579560199 469586925 249802972 85269685 697786897 425823938 30914296 931697278 551668641 281096786 464415315 261260099 227456112 1800082 910140481 264724348 415311360 722700803 887821535 692138208 577371980 662449332 629550499 266968016 897520026 572005061 21055119 892753893 345189385 266676652 465053964 187190088 488340873 396011597 239338464 973641615 724224434 329446446 8784821 430229966 456335780 452983848 681581716 86639308 299006040 353697787 895332124 315220832 620573442 307963197 980857736 752537454 477545279 773358189 110444059 574491043 883308941 557808286 533600061 165468192 437123765 106186132 526579944 818738072 252073257 732593260 62198639 901142660 846147103 342511508 370081663 263208309 126622988 354120253 530437496 316637570 156564286 801357179 860075547 422438762 857256124 205693298 141648462 236206155 227748757 488176160 979747873 584383437 523203491 509753654 393523131 851852081 793927440 391362981 754335493 262425874 725089616 669427648 693702443 472411874 332736102 866600088 871741537 226178992 880015957 39096181 869676085 878890554 234037370 755133308 556320189 67530198 299984485 231148305 200557584 300390189 97829405 439178177 291520151 716974238 637527744 406608736 802706029 18544598 862176234 613306847 798948222 306044474 848472867 339460177 431485411 680499393 135573099 471248131 607919337 408759028 565162125 274997173 360351222 270439725 652577970 872055165 851109329 236383967 17246152 586507244 880318295 91504833 669366035 904540173 979929067 655328131 155744050 836720623 31744509 116050231 11498530 463819003 537961314 819199009 187021313 467377751 883066703 291984197 98803214 252522128 91289912 603901520 22302087 131717717 659477384 196823876 276941344 55946737 868112763 587777795 127149169 160738118 833608491 449109485 846932106 348349261 41195504 131168809 824422835 146925383 419472879 772965739 136318984 547085867 373618851 912938407 247263221 643088386 167751577 925392947 161610788 747368101 60758574 544261105 668852404 881254616 743015362 728304343 6446579 283814449 471021197 148687725 45760790 310536195 707485511 420221869 983735733 659786418 289312568 339492731 399929341 969624014 491609151 718928399 255903580 528216819 458546400 251982803 826727492 116639027 477585335 876950196 55103849 347895121 179292458 334464435 345573372 689723397 859137688 837646237 201041786 539413880 482727427 362952119 497721085 765701715 134141965 849035173 129522387 243702317 713495309 303078247 319176776 248842652 60699049 597591567 584699879 134653278 161102855 180371467 199919615 373958664 813933612 673858387 408259500 143785971 61355119 215757241 343584886 858863550 714586688 510121887 312243338 614012826 927399400 777806787 678802153 949836904 812781673 765680556 101458087 397841610 659551551 682670721 794800943 58374433 196491184 976443637 70479919 388636030 246026603 362652287 216450447 231270070 845247110 930659780 144004563 881573952 555415271 432080172 345546037 931419430 120389728 359807559 386330008 295274479 627738052 840434709 580831217 295965869 720135079 192003680 155662650 543296496 576837805 601193743 808337071 460146962 595201441 986773035 280276373 488297297 202066233 552655660 900555933 881424593 152536477 563895541 204019772 769771781 534422218 600185014 528351552 105704944 265149257 955599956 576264495 212530524 39119948 864253034 379404016 487879565 955445895 35676257 293920483 874531919 777569126 465824831 52567110 856708205 967376939 844431512 297219803 176617003 666450278 761798715 875779764 697766233 760839106 160441874 150598433 144478853 118417080 461684995 941945138 703121902 511670933 624250765 668723358 547058253 307071780 356389256 891761705 448055929 830402558 578366509 274752171 488617054 831586054 583767665 364000767 281656030 163981199 187423949 997687585 538008482 874670851 34114622 428570506 518396990 626583033 709688809 399072219 574638365 828961618 754685277 42895046 216090342 165004896 174310052 686967437 380467814 29473774 79839264 255654521 210320216 619396155 533915776 402067012 190541649 834154981 875688438 560423179 826638996 51587203 124441165 523520890 413927585 2270015 673679314 476466658 804236694 427911514 365478419 583904445 871704502 347370886 512295874 959529784 423570213 716845430 375524238 814631321 855566763 736576024 852944677 282508193 274373287 199513805 371805907 954868196 902687889 691692106 396470773 675329463 891174163 816329780 118370368 755547956 773114597 882198836 475669961 342007151 755976848 202995639 43013356 70099812 884671038 592084791 75988602 867135259 24292908 637815380 130770769 849932274 11133465 184522580 436936400 860230890 403995014 454696586 619555882 814702305 236945097 24758131 318357320 887712442 547487626 775584737 101561495 338795333 975527023 939576054 295670717 684046405 802558197 491724938 833807097 607304052 356285144 665556209 592826411 973662325 683346017 960722223 308403344 121173955 660069438 324147618 248947273 953722554 64023727 63226317 73180052 993879170 789329980 930398036 42995658 457987566 24870539 181792971 159663477 472267131 303950970 563925227 206485869 63656062 390176552 520399617 270409840 353718515 681237856 417357584 163478281 649766858 840255272 581256488 568601689 917370289 763236297 749490768 171447244 18156655 801265615 629252104 469721066 252192721 425042047 31889921 755701582 459590890 445454976 817171440 220540408 48207736 583908756 972113172 251319079 660705892 910345686 606401968 271395911 807133118 369226906 417999182 976785690 280740742 537080503 343591919 166208359 908214182 125789404 74349457 70919753 94728710 479241461 719338709 675028754 840151739 981935837 313740822 611020383 574138181 637536070 487217684 450256852 680105142 277878175 748246659 318354365 49759307 268349678 489109588 629091480 333667710 834235152 164953795 171955812 456111681 945933563 113685160 538818938 533967965 396023429 457947668 460045118 331205771 15255713 980510265 130656293 716254250 618940682 83058206 654260316 535495924 53783134 264495477 798138983 784109693 640690066 716170739 359734921 128875617 991742377 236102588 25708648 901834843 534198517 424070445 848149437 651116739 177940968 517647889 938845464 420758042 762377495 390954530 774287602 563838905 624772664 824221980 10904040 544268682 171011052 824850706 910459256 913993686 128542647 961867153 769684079 434692205 411936068 888242785 206085920 508272319 19597152 283857813 936481703 546073999 377808541 596244508 790069346 433424756 52217240 69969774 796288595 442479868 589575021 143666508 476149962 16702547 21947387 867092344 409461190 264317251 776744706 542379776 532143798 204955747 59390433 905154883 977862154 201283429 768888021 360166623 87196775 949285661 592867549 361209336 616863455 418633939 38990134 77676355 178456953 729264978 7883095 730489961 660294210 764195069 179837437 404358894 797758838 284033050 146175247 653068659 804609758 667599965 609300753 277111686 180179072 161090129 696381452 223301018 204486383 894678624 384509465 478046091 535818442 122237017 263200633 529555731 286220310 984934011 959544522 60040422 779431459 747991270 254381241 366133942 742114138 51810517 817837611 489050371 47693006 828897103 954138701 65123429 191826556 719083096 211533847 421103936 257516680 693044102 761708903 229608990 789138641 842209758 647497302 615180663 725595825 700944756 226442975 137742971 896050834 801229843 978027177 472954039 980288675 580433105 303991449 210515217 315323153 217588552 938950493 568050799 173170157 434811298 944424683 628595003 561352278 403968961 288459711 75640376 672227774 353876342 497311822 213461513 3713567 316982956 27643657 32918262 373478781 681538192 614151994 741633005 30171732 853753750 764902857 886107681 651388056 966704132 890062451 585842954 343238001 70712650 921407433 521096355 480218368 652848643 35417596 821669186 722114819 238955617 968959329 382188125 799195924 737966722 162936995 748957854 905598632 277248028 969006857 402874278 935385128 20126070 31342017 544062098 958083971 193294303 751398960 119634624 685103644 60140833 384673044 134603865 453950780 560837449 961319051 497047306 452073407 410315587 729120047 766067958 345505083 407033806 582398127 838882496 869923967 493052752 140675184 103564582 649968938 788330286 374926136 387375135 954168049 713558313 731312125 943153423 490033249 420216210 615584992 402048341 597799483 653585321 242776576 138261618 667032531 310299288 471192651 646576717 530198057 107833572 185946939 646498389 195429812 929798184 267802825 687751114 519626974 641672798 126165858 962387447 974851179 662238673 520362244 78220504 376776366 18831690 465084082 836485960 209006415 111355977 67535870 40001351 50451746 96742196 575638316 701383001 821495386 407756638 282103170 79338349 289094919 879183189 522453835 785533167 810632255 938263596 718265238 524716468 167917284 315213855 820838094 391102506 155173946 189115980 258794423 726617702 306593813 37304769 783610825 427160565 379045201 83246180 248358731 639006197 527210225 393245928 911603064 30257006 670872897 884784212 381741872 190303315 336954458 696760848 644289283 410240771 89622979 913797090 162756526 692182955 614959040 370324749 10158314 5625524 225151068 374561557 309612070 239355748 264866768 173290100 535768449 345858419 700372185 872986357 374651193 72487321 116096164 406753851 463501580 544310047 842869847 450838153 222453710 746399004 717892530 557298035 986395396 769235611 975055935 80967800 995479833 828924641 595577031 832772004 537620932 360565929 834080718 209071018 790194931 909449940 825813138 276934962 736912103 174337908 113581143 47966715 929626449 149881279 23639252 345052106 155211660 297952990 99975881 241836898 469189738 401003040 738759880 372123301 1098823 416489923 820963868 557317180 589765995 564237749 447859685 745946177 398017437 531478863 98492705 321314226 789543587 68527494 128133206 804761011 969106669 457348846 30417133 646922800 541940851 250105222 893845017 688366293 803112980 547231973 153659758 393638901 139224549 278739740 366117621 836535772 582931883 904114009 250323172 673099514 93595409 67904329 147715125 955915847 375447739 226611918 427932907 96743581 150704684 888681661 336686281 278393930 909497449 652076094 109227821 871892180 74046585 191324334 953086099 483574830 59423641 309055491 131677144 349791684 500834226 401611892 981630732 225467919 403714267 996918558 927267296 381126385 463763666 957516233 485385666 808481953 726524253 275973911 146054963 532527877 625637914 864850299 664308832 628241173 244395975 931749232 705414899 26379764 447330299 974209084 426128981 187535619 713606392 218463194 667513473 850309368 978452034 864982511 263288167 779660960 298713193 291557772 45512464 991692765 343738282 276124149 456702845 400892796 309749789 238964374 80850909 212500795 919494869 425620049 902480185 719002676 509500268 74454012 999537052 992338051 719293261 112619435 11647885 868005270 712682642 788666834 730256114 33105722 568933314 173921623 957547883 280630325 393859670 996366873 668108054 932187720 687573978 510839800 286392815 950059263 377904160 871121600 681210334 66020805 358053886 976000713 628443986 307443720 269867622 246652835 297422920 991316257 49622491 266247954 711343970 477734169 957553582 125070213 905861782 372875703 299937495 991207744 644827736 825349868 972452483 586429975 422735666 451953779 18117052 1169534 387172856 825377245 573134378 264427241 18472162 650563080 233859397 274204470 578768310 287748012 558754033 415468407 251342250 20930925 324177862 701160892 551092956 756859783 987644213 505576161 995489828 327583529 217790354 957909224 549590419 303393061 335106765 559793026 602365732 331671099 202444383 256667467 252010576 63094974 908816341 426616385 932970786 162290636 984375046 89782218 900351129 712353618 725522270 418732971 652715784 15804133 110579705 156051443 154659567 387219669 736211840 84832943 905728841 603208441 707513892 122028726 998905053 131453025 166289411 825111803 554587040 511557328 43027962 40855725 333852369 946552722 909853406 266560967 188298111 302724791 140502528 727686350 668195826 77716399 329490413 46088997 51528567 270960384 128995684 392827611 904472086 137021812 4612092 318360167 146248169 83095390 163186937 285807276 37430599 305726940 996929179 695363753 906363351 217394674 383354198 768120153 732370121 933747079 303282574 1907502 8782566 253525862 708350418 856694762 260774127 886911536 926859859 573266971 901277575 90442774 657640690 695106155 848367690 883824818 491987884 546105223 619205973 893685526 196446535 291413959 406413487 749571003 349765547 373183581 94217034 491954974 320191539 592157206 510365761 787706590 332533407 205521041 424370216 276987766 996456879 767492667 202467858 261393165 774087095 473036980 61916718 763654169 917973179 899027742 360197866 318180330 227496926 579635524 416697998 680650230 896996011 914266622 367851231 787506855 535014042 673363437 767130846 967033720 728509388 329429214 136889274 64775323 492593474 476072043 716831887 654692321 902441956 624164777 421708528 871342253 97629329 69176642 940105734 984925191 204931736 633745468 980524458 584495487 651483453 128801906 114630626 206169932 371728320 752688283 481759620 823921039 278598821 534348758 495869722 528384964 986442308 714835206 280980088 103291697 293963484 155865832 677857641 232167685 65604833 580372117 462999185 454145222 289135662 340422776 496581177 716723686 355877516 386032315 80987780 18282537 666667956 16444662 100492601 560850701 951296717 766160479 952805443 768013848 615235799 74230892 152367893 583315232 744930747 28010082 225633448 503903431 374625491 576389259 542325863 526895849 834940445 33498744 319283319 553550496 621499933 284464725 684154506 799283948 270015743 612641717 15663282 535516668 142703145 169404223 700866785 887576332 86245773 981550194 576724299 116294587 19618630 673408498 19238477 191222830 487266462 618196275 379311189 826706664 108558267 855498884 171645710 642079491 499699244 329070553 5209422 443945840 671437097 992223162 636791214 775010208 85683693 113083862 588363053 499551384 492897562 293392563 136938569 710610925 363399815 565980700 209131874 288758768 442392680 94338297 735590532 774845584 288074453 854904581 274595826 901398340 392191527 327485957 756732339 22284604 148903595 125186475 133652720 379052639 63274056 752602917 947459995 385476207 381933473 417801511 139496174 631324271 378493158 873002412 820558540 678243575 562393650 235859910 216160247 395638609 936548850 261479139 609151133 574870897 931303603 679231407 430242322 367948863 200681200 503221508 303308256 716293009 58994509 178262191 493245994 250551947 581450726 530774006 925005645 779296654 789833625 561579830 546187262 450327578 722123107 584131771 406536133 414370809 155305295 480050665 348688318 720275960 433884555 833410483 367838131 425274418 559086011 321536147 266038568 226595931 68541077 339624785 364332597 371549978 602563048 840124237 758532026 237973041 727459834 347247452 602746667 344531572 457908372 467474343 488126419 397182131 515426858 230962425 292042853 964523232 204468355 663209698 524829102 370346454 958429850 549640777 338739554 163808238 327012239 650402508 749386137 23221105 991486494 329666159 752841607 761506884 532416525 61225216 39817257 445042045 579457974 414966912 499597622 124889437 812302521 414595012 780028303 138193713 651663268 508544409 275336648 935507745 717715378 864553236 960374880 575352343 58265297 526801470 661954527 669581137 119428050 547195393 252251112 535017482 546203212 805673063 641503090 218933764 743021502 442088653 424419569 147996493 162206303 580350127 65957906 527853725 961744182 13973338 868248454 158495956 556582362 981426506 606676027 834247025 436965018 276603457 109014851 678016096 695045826 840613918 435954707 608705908 631011879 588878177 13237192 737036253 460513273 817328607 768477004 332990683 796901603 517430020 183308700 694518386 3107980 472795950 137857934 132786169 475441796 163424261 190153456 14193351 810242830 416542327 203700979 224045961 954694514 415773970 932445133 800799191 882241852 134421985 62565529 906705792 210018369 384919219 462252548 746344966 361133225 505075180 604084868 684261588 641123332 932875022 350994078 829015597 53184642 667448639 78120038 977442215 451135335 686407631 458014495 200484987 441985152 740268363 420021418 165547906 939779290 737387625 481861188 763655853 610040819 776591166 207582182 145534528 345918227 700680074 998083843 862610579 947287568 603492317 202335450 328800250 548505513 436924196 657710205 902594710 555873705 125472084 154068383 568186670 950505456 775045981 295679932 166209522 201545296 256896062 619868452 1452615 826032882 816617749 651993428 654663723 245676452 507749402 181229765 174818114 230837692 446122731 755003668 142143363 836286181 886633882 164193356 654017466 79581229 409683063 75934418 109471075 463548006 254556032 684030136 72373936 668485607 925043066 30783529 389671813 929247086 719548943 142091544 991305620 41964938 570009246 897400442 167605237 68804609 361620655 52737403 682862674 182858536 212198661 231582173 6531005 759782172 852407632 771898490 400639783 828923876 825814111 946018697 757965999 643643391 646328454 699182888 781186771 726068952 992236501 850778790 679039905 862085577 545904287 57488723 869722923 133199386 59241487 277709080 110239763 18680175 554944600 251508153 781057093 519605927 371153295 327061604 523948916 650768886 166908855 56433786 907637278 78554767 735719659 827522563 927422208 411700272 923184409 564814512 411484523 47345735 56872782 25437890 610598335 289083720 162193731 302958041 45402783 748650826 65600453 675619483 667003585 975817717 336950624 626181782 543981957 302737869 748864648 250722715 118518649 788559151 796753355 383224451 555158153 580145467 677078456 813996727 924405994 639781678 387618175 48634590 419923568 81624659 881710890 797121619 660365597 831999068 750158983 999348869 923953975 371842588 92076513 751984745 980337429 551056984 611684104 885790180 437339834 918144182 139316250 410538661 447996061 325069863 79654290 129688945 183678110 276594643 732326558 556639840 908331728 465798877 825282243 964414070 277259115 415153175 197408063 300940580 711251370 209045113 964887168 597654471 796195559 612162193 811269549 650042743 719037276 215794122 439287523 542462727 572174332 383550387 275215027 56345777 398398407 126962926 399661327 273266288 587222423 747230865 364063986 516108126 542289890 799034643 9835802 542394503 247186785 595242752 780991516 783003301 252091133 730346729 595202728 526382805 372066592 734504142 182681561 819615311 436577406 616490439 967724617 74479929 206624913 520634354 635683932 229900536 58798356 977587869 491818529 229635293 164159787 778513144 130642054 156978017 203968635 332986616 189792148 899708174 931037822 693368906 267782097 472896327 185387678 84663474 210898720 575136130 753839166 494286091 20143545 107690120 806712895 460801855 533904930 402390593 635133802 636277079 859803171 519865940 285027023 644729555 924036356 332283144 518067801 29502201 326315830 652254829 172288779 902165750 284897748 720421403 513731896 37877957 27069803 22403876 99579560 79456288 532333263 984434770 108869886 502877445 558640252 38440009 793168754 41859615 360091213 632972870 164404441 156280882 180602997 352407612 678803080 726116560 713369270 835385627 972917736 514035721 38664408 956702805 962714486 963038192 367743241 765721479 487168303 726627339 785732223 957003758 63682110 98523647 534634382 924871903 501215463 743434147 999841749 320176633 715186189 676253564 423742119 686093319 49838311 323450536 727841190 423021074 433950629 400659653 388672144 743503143 253870384 545396204 766894504 297839880 327950292 543229413 840648252 594239810 725184973 155761276 225540557 649632149 376980312 779373781 352110093 165973486 316975026 12923175 886743687 203890172 655876179 30849850 533967288 480111907 203483188 764075331 936188868 758826876 656021609 472379253 765278571 556380065 213869354 680648594 189390001 226448426 201454375 68393335 78451047 52053812 579250882 161792328 94604081 631416032 82762823 597730796 722900428 496684740 788876519 999241901 299850634 566654988 775111619 667640671 5443467 978958742 551651712 39485066 500660629 997010998 893654152 611570555 865599509 415590402 702702050 359705381 71535920 789279836 767993826 875223932 610590977 544674333 331494769 900426678 518925705 310249381 769808806 480816661 396118332 916989034 891456333 757374434 523584265 830904905 370338868 930685974 419169727 397756469 326071098 144262459 483362059 14525046 368716392 548824015 892880276 576239065 760977979 624902067 829821690 888939547 376091100 277920417 36368911 45368894 583825713 517184458 776833252 68354790 557899392 624014246 575861896 858867508 418682639 16288994 105043055 194287584 30642931 132936315 84008077 62856726 861954962 873420779 70985801 939659179 89103535 107173095 366198102 376191352 332499488 599486385 89974993 363308935 336474489 336897172 629168339 85195539 98847345 191862609 3832844 543850883 634879424 563886892 421256215 23333493 131738723 802802932 397730225 120219215 468655442 976680312 251495401 39488556 205986453 680267531 245632978 224353153 236841790 45024873 621517175 875167776 739866472 412706376 191345481 486779007 666520772 898296382 563236343 91284269 209137617 774930093 340094159 380172823 962586135 987524357 730127433 706557874 812655400 75780791 308694704 934848177 392535982 574759157 362879686 320779529 451083279 881233334 597621599 429357242 690560654 180339933 952295775 910465587 189875774 703165363 115276833 487320274 354718474 458777867 215351306 312960591 288372020 722147614 240895578 918594784 871236690 77749165 932730662 56595841 654706629 820516545 700682232 383481100 135858983 158123774 752921332 629231089 354268238 982665747 582757267 107751838 949259121 71718590 3477059 24266872 981460098 235144900 393537053 250269490 839612495 79299133 917307093 817019489 925822849 609484949 525924203 325368246 291459456 737602800 664161579 322550967 85426673 492026229 526411959 847359893 695931280 395387951 281100552 220304816 507985405 729460957 209714179 154599852 692491331 377981676 433306710 347435659 324783872 610788786 244735816 284094559 48356542 461396937 152704796 773031990 753496524 938941705 736309620 643002926 73032933 294401118 75090061 206902297 834462463 633321840 989012885 366877040 430924088 5836803 962500501 645571584 87244549 712686277 323084053 275874389 430801847 413093629 844497156 924078007 875205349 378443204 244437675 65095123 140689417 451527956 44384001 5276772 149397171 609860107 204695695 847506005 33015349 485634210 448360096 313529484 521703768 397130339 268587313 372078921 960001155 126139006 790199363 126020769 366180430 530468371 40478734 855015269 9441438 83491395 271724909 885244295 427078221 872846426 420189822 759279225 643881922 63340326 213884791 559088601 728631815 40571669 761082457 455689100 775972050 240812380 155755636 870965446 481154658 185145325 271714638 558332978 41551636 158310421 660376784 394447247 91436749 531446510 272603807 379838910 971232299 312888290 987681452 298490079 720812243 782169965 24983135 610189555 91185805 506974103 320822714 526507250 506643482 216333213 262630144 768788173 873343453 950067048 844213883 162691527 313797191 858665401 247981976 544737504 839651430 890707161 512668879 838743247 891838247 653639478 804226430 259187751 409361773 377058934 310629724 405939614 661873979 963702650 146626706 609265056 600914503 555728161 989534012 50924023 616479182 293214453 610752879 993546516 322534371 490792707 931909711 440517222 726347545 871484764 68126107 517113643 346063523 830951437 819712162 369144654 323841320 749495678 259277549 37091564 547693238 23748052 22838961 101141306 193310718 936569139 228571946 153805973 230637758 884008975 674291092 117716291 101409548 978078847 573787518 705175375 329246680 642611179 55658302 38718222 369277096 157907757 233336736 442104580 561207373 719993391 628650559 748853927 38085615 586554634 452733797 186346169 698983705 244191680 483755783 537456625 418187640 185278431 635757101 493361827 559524935 53260311 927356496 70665048 904917175 831031919 274774388 120348262 896183891 116506323 454592627 684754146 528376665 804390695 352171780 83780291 846835891 737371074 828444829 987946733 291037742 383546 20473599 965062406 131641153 753565211 144981129 590965551 850529698 531413998 977111373 994042618 899044968 311223529 331850142 981619991 543306632 191674937 89888578 18134883 336562275 157063936 2873669 946888938 320658386 338250545 627414823 824792724 464088622 996169760 26874837 821034878 587997772 871738053 559719426 743022149 790837077 813042841 661100747 989358643 884394138 142753 11196587 665758490 100707248 93152269 482411960 45928854 220538672 231924964 906246046 417118730 606478489 195562338 39209790 197220961 778978819 345291182 122045204 997379715 903394848 418383001 17795623 926591094 779979490 348921470 483091188 913432305 109614526 677791740 924853065 706988793 480661204 290754036 201922417 922680085 963252374 114013037 639073476 570020107 11746904 392822447 713007479 6000319 174783365 325723935 209428060 480448317 374726476 461974676 425918448 933616675 744143723 375457427 92645909 847242093 529916732 672653375 666312767 900609351 573068230 876766001 43739084 700933957 114744617 104596265 395628649 499310060 811572741 671982749 284269487 259916032 961896001 149009652 872821636 44067825 567035113 541403642 894417840 998967730 782569043 877731556 863659682 285794816 257750965 533168633 899499480 662160445 471338257 843559693 685203377 17460782 225557956 384666739 836246000 161852670 781651232 256146452 156421948 382290792 708152122 681436927 304535156 285850349 93648607 259519877 304336791 359109026 600084234 203121904 410478509 780820712 553354634 593753010 766098254 585306517 880658211 897690911 197797760 635911142 451730557 936177025 225180230 786127079 183304650 42605327 581392004 713551224 612461109 926832787 819447307 491041237 454493251 467220854 543938105 598686120 9002093 222584226 546724103 102950517 506692085 479231227 238993930 273777675 233579179 286827150 841018046 25515110 966654868 383325689 718368162 163596431 453862069 252345427 671562510 288640956 22504160 220605477 364452531 543629430 152158519 192022526 442743413 911315473 212265960 386747356 430848605 656138675 109417277 149060468 163620623 884968370 446148866 572548273 609570693 36647119 709804190 879685244 834133522 717603992 156481520 842734789 459500472 372487815 359239601 175867338 969383941 477961017 75845939 239973181 98070468 854617497 311612783 296298722 351657258 564924115 121327975 12505066 892663544 954819614 918076609 194634998 940845913 241948029 652267864 628538854 886939127 455955237 867842096 130054636 201145850 434668537 991775160 145251593 665124851 694621122 763760804 248102848 274801170 151170065 347131308 918165762 975132544 714883399 378184608 34403698 306847757 944805131 802731586 269712315 154238489 542211422 579986185 164616458 295720705 703025482 366590770 89779507 860632656 507187744 73590021 465030228 577306308 735071718 228947567 49594967 55044619 653245422 71851221 125695818 150456773 880072754 450229178 670776113 622696858 740521880 645009999 804242096 930180715 417184201 583662908 965360965 716243475 770745693 79246126 482569079 13564659 902613492 474186257 363900733 799483790 650887826 753756497 166951429 527286499 856770407 786977446 140920084 755085412 475284886 907565885 704392840 951163579 339830528 916263775 622107490 703116449 569428781 650817683 522570053 361375370 481980816 171752870 944350990 135603812 587414287 614686921 92442436 666470989 110182344 707433942 643861539 939137588 270341738 181232823 280337217 702695631 720252645 896361943 910678060 272158927 421645128 852209171 786379393 311734926 380638835 741159302 51628956 363451902 200328894 961346849 135156829 595202384 397040753 109195088 343392166 364871202 408738547 288621602 596985173 265635061 21348947 432953835 377765691 588662173 558377482 360942024 958336446 51131118 563432110 492548357 963103954 708111679 780185055 236102738 381472429 855153921 278495916 486086668 905808737 752385549 159389853 313453497 867135512 806252075 241102880 134879988 152869088 878887911 581008804 976489738 403680162 830593970 586816205 308225292 823964699 116604205 444327449 493303914 134896989 113492986 758382520 863960229 139941323 138946345 122783088 480320868 61549973 741226967 368134223 705541973 919127623 441699341 875672660 715633117 208402999 869083955 162188999 567544275 125243278 136984803 176801302 508125932 572723356 600612290 951664287 617228570 910202056 352238726 157331911 74439466 7908886 54168836 271649254 946157735 463410782 483593753 761824784 196299955 420116515 781785429 990723886 781570456 263362995 239488436 790078952 843759533 721552816 229320803 138950785 83682707 293525947 455156466 666101895 745399299 43041609 614705985 966279651 862197040 968108096 555150116 690017819 436012876 565467648 541992420 797445739 486446751 868284241 9866809 305205257 674712130 571745900 812085387 289390605 273163165 640845694 555233713 662906832 203519454 748556389 778316448 773096037 23943301 761593857 509812886 450997282 185886129 455096923 42179826 38969130 774240102 270633116 484545039 953112576 921422233 80485304 414822479 481947823 870900252 312257755 825715318 544228050 882928497 241642091 635166720 9011267 422525056 913029906 484170971 191434606 67656158 59547007 651370244 678668630 243548238 181705876 978850274 826183650 740968496 380124284 239612258 41891346 989175891 4256671 743717600 421562318 820047162 608825362 600431211 886733738 853305782 927612781 180574974 791744368 454622306 204798570 296290930 870210946 370270733 626369913 944363618 366610589 298431934 648851991 262755102 956162336 177800641 429708951 123924156 334845602 715860909 473586785 805269771 407620715 11634102 389228137 930500709 364241443 278992398 929125583 426942421 905806044 541145729 528842385 234906665 506448823 506611024 485654557 62984356 307525804 603472644 148601290 575479702 556773836 384921730 569167111 905877391 383945459 433664152 341316450 780887480 640739972 322202511 857503454 293276521 925698419 978547329 270440983 478060447 698063864 17124268 533714791 228128232 642790694 370606471 126693488 105847506 77312015 769249233 496222087 115691301 259327054 559061612 579529554 492856667 636772859 823512744 329669547 161745446 934796509 948898398 6123499 786605062 634035559 790192377 822093722 623081804 100303653 188312359 473841855 377248907 779948594 771900331 759695941 674339741 723335005 603520782 417201701 54926338 268227614 646918150 145608128 741719468 835625438 914086125 293863722 138352418 941266227 207708232 570144478 478330969 783127638 862413420 656723355 431740626 501190399 354489627 79247025 999650813 531353493 181012239 213279615 757318203 894542225 108150557 736337760 315526266 280741005 447500707 470662243 331810760 424335083 373075029 977591298 791575876 769374982 566044674 462174696 403197595 499061834 77611201 677486356 247395519 977293158 288249134 370062795 447528563 44569833 260294106 166031882 484408408 314285002 866532620 673722717 458707572 779535128 782651490 987416333 734008301 945006006 277963834 139849568 154990939 16246876 173509030 47990501 947882347 253725932 920671311 737738526 346550726 135870947 596062863 830591420 585404464 38634214 375789388 675070487 167859990 35546564 749763544 557227170 889484218 916996540 377691671 75464093 313119216 61690544 839137383 200073788 842737765 81903691 84297188 744297726 437013693 448829453 449024951 393940462 641790454 846821582 783775466 686634585 439382333 927136435 428863794 521672521 359380410 516517693 996894168 709889922 19121394 425495622 869527482 246002278 614754363 469740771 815011577 276113496 320316522 616673151 209558501 898806001 835588571 545345985 125652244 435135228 315830331 843307035 42834217 633422314 116417487 132530640 590099894 127781227 153554039 646371811 738848457 555031178 63091152 394289289 876446201 398129980 104961937 878071584 238789498 783681650 636680063 880119808 661412639 935296868 455696692 340029100 923804482 534075285 184515347 34107545 710090298 675084352 388563882 106586126 716324902 509019474 886214419 674796565 924473664 222572892 126068701 125717875 49078500 370120663 348565125 732610483 185420636 590808045 480998806 580107631 392556301 190743777 953359644 987048049 212219803 670793877 10775645 254445309 221738742 446549257 554912580 676093878 230070449 746864130 546776135 441607868 406239876 389972499 945108840 948869799 989258987 973964388 486036915 869478845 65463184 245313683 170681089 851310433 77867627 533128487 69351192 981668329 472467428 624115035 833649000 367350622 99140849 910207595 338359055 398785336 566025904 130625076 414215744 269187654 157556111 783008433 63843393 226296164 204382905 692415632 600839438 619494198 508365675 526187005 776286949 559161910 458722308 554383275 821518206 711500717 328668206 831555935 589104487 930987651 9571647 166179834 301207774 721042120 309392834 152887459 91404229 154428141 142539932 671302078 518911708 860382067 893195643 696307208 937899632 29059306 47494500 107472450 892482543 702061038 729098615 389216026 762694224 912935572 885127948 215626942 556485810 420424310 492485303 679117764 775809661 774762997 495767106 888188394 261697204 214653316 937554070 899396995 11908372 198594185 59246254 839975246 605169207 689316657 985857090 27116634 578444787 90754141 175934811 557373604 943844488 670852826 771231710 359770802 321807434 898136173 1238348 446877068 281066326 604090062 587093636 6109234 6402519 415024204 128063919 271882225 205072250 793594359 164453412 300284619 554291605 780121554 706666042 723853208 284654842 148304301 853534086 327829646 524099900 88761447 710444602 749609422 818396374 759879328 31112723 830606408 760980344 340983253 485234097 445362106 825464403 632452120 613797687 583371909 471630658 58509000 203864881 400199272 939240879 907169952 391190519 46283963 866873397 321420148 742385818 764999610 561778302 220951702 120996900 631136533 660321896 371767492 723215821 906076552 841275821 518985566 945335282 19184322 904819293 249870228 857858922 197602425 72097587 733072320 768394226 961090960 689002340 276918894 765587061 694019779 796375256 132240531 265924707 891066822 895883074 195182241 413373100 43956662 890959185 705161557 451317338 704145033 304456921 873701998 500474565 611998014 919525402 402130034 46521106 16819242 324852152 5854393 181475885 313002210 259892076 593356789 162024644 391378 615931952 228773074 515837932 521039497 600069894 806596519 995720104 589654080 216133372 99683327 474101757 122800070 185057360 690071998 206336555 869151419 243622102 744764778 675309315 700751759 484000156 694133947 70385697 98375721 936671191 695079865 539538317 294523622 370831414 11599389 620151376 886513702 186370591 681077772 341867923 12524803 771829893 693676993 58642312 252536646 585484792 639176552 982605637 23547704 767958332 257691794 43194731 710473695 826852207 652888988 6690999 256153801 896699980 750897781 567824760 925931809 417977371 553030993 743762371 393733583 584133787 612534972 520892878 317754302 652752856 897366172 428277834 528436424 530837877 605775649 349768397 876032472 439696739 177751331 72674473 336543948 845206844 868275260 494747242 691428658 192192934 547986437 718134284 421396668 252498757 303163050 20598435 592765913 875128222 811176138 637630327 861684992 626491385 662212429 840482684 379019055 482932711 780068734 451315843 178509314 426014349 481561520 467119771 97729893 593052111 707371600 70957172 29045991 781157503 920644713 72451275 398098102 847930673 421320993 336624318 833779662 370659045 174446628 267975719 236708980 414158634 446426480 208297921 764243400 471379723 518220682 650385718 64978978 201481653 590525535 94631601 399120682 275566374 171420516 119835966 379610938 814768760 504913806 35857985 727659516 778090475 398846461 579826630 607202281 125416050 184187553 817259129 518204142 689309122 391177739 871791118 514905588 884210558 860272356 587830211 181638619 809851732 773232148 240317753 819551138 909043179 963273975 113895773 77871529 800944222 289946040 751623553 999752893 46473822 893025046 12767630 195441693 11533870 73761119 13877259 738984096 918140702 726127477 365270666 496357885 511249183 548512925 933425302 692110325 900088718 518106801 197306164 365975591 860041423 395544516 111042237 248245479 38604216 948152641 400437180 541323490 322408099 633328911 726177697 446189613 239374769 670573024 276623942 661908177 201989211 915619120 878812351 70520501 945282669 863401011 728049311 735849865 186283304 630550116 778377018 96371830 600282741 400404996 678628030 710424870 248527896 991920167 359174578 125051892 701792939 309367054 981669393 915553377 859206672 547978943 208741165 333107336 804915897 736531712 926643364 676479380 325792044 805790390 941707526 34310217 143404846 415792315 299150274 942898652 166623845 671106741 159343150 401258909 746691612 916185905 247468527 685054031 814258564 527937738 910043138 71362050 348553120 517077095 823289290 916567588 166599034 412068456 606134956 855673201 247603187 596172382 538663158 443329632 198111367 138218536 698671830 616287800 443293173 43970114 600627592 127022855 285676777 9190875 999305804 458381581 727640244 442523585 252828123 580765698 318558624 807344586 878813562 806281131 289745513 150473846 457557019 260849955 810182543 365275531 530782272 278524773 389084266 239991611 888551971 401745144 686350903 543270867 191489868 513428859 859549739 562303316 643575340 715265301 429439551 167956684 13664693 268152179 391326279 246005130 788147809 796292381 466152446 945568520 270252805 512324341 352169838 43440343 824151877 274890099 666783282 909246566 78228516 608343031 287350362 262669599 137903673 394757139 864292320 186156997 233496991 535140126 695699179 620613578 528011758 598955372 179631777 225026478 924316730 789082169 52188643 295140657 42027893 850755239 420246181 701113832 297522969 799665163 125584528 732747420 141672632 652888518 651627289 630848450 157920976 296232457 959376439 801353496 81321620 957541034 13231084 618724926 717156522 673539712 717852096 690729952 336100817 928663379 376057200 882463039 292310990 739049399 701157137 878890944 390983088 780931136 617596339 879510306 152234283 887968944 92235303 176605992 702619034 719324372 86007958 446555128 423440435 629272614 849898068 202363939 704375847 847018945 242714281 588440625 833536121 294041011 140544077 403450215 704900514 300147551 981906505 840622323 395002981 145555687 178541191 875004108 145078874 50247834 33805272 843426800 972240997 219764780 582216676 588561463 597420328 837180856 999907417 613790795 765579907 76210943 433064954 308018643 809157057 746843785 776153457 948665505 712682221 763220439 131558330 118328412 112354524 461923810 261368340 654041526 558682374 424193165 685768025 83370601 674196637 395838324 234766039 192132690 398407974 459838150 252485559 580398873 616085498 760613562 422213982 176949938 236625225 173560259 468437115 930995550 701849893 37634915 373710264 175876831 916739423 666441700 189007115 549245966 668723824 210376792 822952651 711994114 847732703 556383911 167541650 309318779 42498582 673591377 976654688 870127411 151303268 484146432 215290840 733920841 139566860 598865948 199364380 733024197 273835026 248977610 354002391 620160380 246901454 978809472 470297339 127849907 918702266 345944949 701001339 232020653 817451977 487555067 499831771 466583838 964872949 591936833 22785557 323265935 22865192 617214234 59784883 934656894 335163226 879933442 145715568 218814943 801036132 779958538 108276127 391445312 474122465 674874431 941365602 946195454 77141366 153120997 793729444 338827674 981044293 235965014 811503208 95356785 197883685 994214811 175919923 434213650 448545895 815948731 679628401 773473264 103924507 54719174 721944131 451175162 988750880 647793595 22003923 395644579 796683885 199232102 774279243 845026977 161932848 541775455 82470270 605685897 293876714 780396237 846969307 567723008 527247995 719636540 208341507 142976579 384050528 335185045 265439774 425632516 798771490 418215323 628633619 505935835 765942509 94058689 363567927 141357850 882193115 278607580 366709167 50097348 343138955 23273565 401442670 708968427 219903091 412256549 194885359 189589944 828085577 170643716 244002988 298105166 611730965 583041325 694730441 409027864 645813349 45352363 307936562 256386305 837427624 932211157 400468271 612006777 793915680 11122715 673496749 851250314 2348877 110508643 932819577 644064187 404925024 225131103 200126422 190989104 419587077 562557651 824946290 28716356 743396489 261420854 577524153 922627734 578914580 903192961 670327942 869767716 78992432 659692245 770106440 942881721 570863468 188514619 639403969 330544589 607629130 164394690 187051705 931214423 826753946 490557505 657435800 939856759 94965465 84206180 857643494 454812241 74911267 919011983 989066337 318753097 553714605 603233015 377563717 154601172 334020309 6317588 836142218 490398382 46197911 900294720 935187716 901484107 131066673 864328213 520118800 171845748 218809518 475926173 107788731 714945104 202082828 372681923 731252920 715627105 274321628 722697376 661470918 117649621 150771538 544928005 142755183 211166478 592495459 570048096 39788231 700264370 144291822 424186915 732864211 884602262 490220445 249790405 435964381 702253439 95404376 957913394 754218812 335683129 412085997 838583022 913012562 2440763 717493264 30181974 86386396 671784785 722506198 601294210 446855080 379676029 958563707 655641013 784328424 785253017 218755647 132619790 859839825 601020210 203955987 515410820 956426657 832298170 211440368 129613720 929095671 774774282 181691112 319109811 510965258 495386047 736573680 549021248 531203657 534345073 961496434 385098973 210469024 130475002 954488716 385582875 331911058 776362421 172406053 277962914 260141566 835240508 971881434 104076081 248465019 237169436 6848611 760614867 574125980 384197470 648454695 561282229 405806368 264022321 859084371 273148030 636240874 386646924 184414603 517510357 338543428 87571225 329546844 307101684 398522388 462686735 741676377 939319936 818117907 821103063 334255986 472513957 118012696 836655541 210258651 443972787 788294928 539384488 282132492 593152865 887651184 703904292 889509134 869529769 75559506 905131436 97669190 579542623 652155771 131603844 968681191 435577596 582784879 224947964 763009615 305612472 912784525 113925825 322681362 242768003 654736415 740353066 58661218 945412173 56107932 635434521 249913783 820881271 25797292 220505885 983623109 636161116 900650679 562784535 96565569 215217935 748223204 830234233 950083212 155214563 398060479 81776070 943963611 981552175 667003 202717412 650048225 163243851 527193447 854812207 283314539 645630778 977342885 283936024 83781876 5684355 648315704 584032357 209306248 427680957 678284577 369351742 831336375 57369563 717337157 837353090 73341650 212672443 94762638 535520636 437717370 683829212 962465808 798958567 469664303 929114013 631361340 994729201 148569317 699225953 350311598 970984292 804178522 560481691 839135433 709062474 276592677 850293420 768668430 637491292 426346094 693853493 61156326 76340510 699157685 820941088 23167641 832186023 887513025 326265936 24690451 909370402 403837615 889110808 411611697 262462443 513054255 348348190 770974515 238119489 833285297 277386420 110218261 839080707 57645269 631076364 45208274 368661847 188995125 461533983 472883303 147155546 77336255 966183719 163994888 187618958 242343913 269560179 915347676 406509258 721644146 364243748 477977920 279412259 345597947 38493178 438246321 76564498 256149470 913103496 484906389 444008070 685012858 789450251 970269305 413756520 818605946 611204313 63549041 693994695 797631299 550979750 543619107 868435820 256782114 817395194 290896422 794137593 984735280 466019911 721365185 210948877 693693621 373146164 26582814 129227027 792054897 43830591 874719563 459756353 191608585 146560434 648040919 248702036 706664522 58686467 133119376 952409475 377204575 819275771 939728021 635689908 441140564 569725587 626514951 93582177 452742983 695702539 611513578 263172555 408051867 759271836 660013463 390919126 216564135 482315840 675860237 960051742 339549326 79639037 456448963 716574284 281025049 85792814 81161179 405171174 853038186 611803265 683450488 94028610 927944769 81707911 767395445 733485775 810905874 689133992 103705719 132047306 346572881 398929962 299111256 901970877 530524107 599707572 973106798 818625067 234341555 299197427 807622317 689669262 631072416 183321877 886147896 237431080 782123814 474956504 38122096 89767125 468482470 494384910 111810393 7889286 9604803 451114684 418134172 648045799 722157680 17221082 637264985 938002733 331957162 22285420 447322580 291197714 684493758 927511850 48675307 920134459 691363071 819410964 323888684 581051332 727050127 646602374 219644172 155153562 956340472 403447586 647914319 872557933 269303360 473360801 808894352 730550895 38535816 289927000 337234059 904076072 466718004 520187856 985287704 946549116 822212036 621962988 269513408 689611075 965979620 341534622 569276187 471346359 674879752 967947436 113402027 202542840 445750546 863149455 768851287 234058681 887531905 651024865 6088956 272753683 94635222 171816153 675395447 820841449 521755400 976550354 66854539 977506654 58706472 749455909 678186311 639372238 406534835 785939923 826338391 931070312 320265756 398558835 159061017 105748990 357146973 107845625 377180594 178527547 728124817 536268819 60641466 153117942 790351150 895517060 804158509 673769910 489467190 226155469 822236816 979957703 537347308 565667376 423126554 310465124 430670169 688382467 851067116 958326835 961949332 117946585 472491443 63337583 881284631 244392298 639367159 624719228 563953580 117824181 640504985 218698477 694899669 948692546 934523807 784777153 351929335 301440920 397578836 329495281 887021163 471413987 365164784 170625271 14303471 900056363 207159549 889485314 116993358 789638187 92725355 261812369 38107813 95061707 586518092 513974790 554404220 67383634 99654746 302383050 755794394 837848860 565672678 696065992 907489882 100117678 541280269 609170673 251019321 258540596 787985713 643253267 947569317 66845326 460458886 740657840 640413504 286589271 916555230 926641929 296550600 808868380 653873377 5057442 716952845 503026730 378084916 37783361 379045152 484259365 268606557 385710279 680739581 453785991 865783433 794216425 430346853 692573195 831537005 731160436 432461219 478657461 925717790 122362163 393123248 55745183 867817932 740915014 978247246 275350736 591244185 497989047 257790574 931294355 469004689 403532108 472072253 532474567 195919005 719982183 887497081 214090013 25755737 820480104 93691863 555190002 693925389 686413352 667150141 856971998 19442173 577439418 410340702 251527371 590707347 271634647 237003739 999821557 746272776 318672624 128276800 88154024 701112828 200138365 937309889 789242453 9935665 282344931 557377311 675720442 13691012 633897184 954148802 346281500 126793061 390045122 369956330 534233006 305917070 743332251 383240621 511916928 47146406 969458900 541320798 42593279 156250659 337261809 521453181 633763781 723342300 812101797 340974538 197728152 464407334 595962729 790607937 927515792 220264714 937812030 82317031 663674743 143098904 785716383 357267602 304628647 391835332 193996749 57250917 570052493 522354853 677337286 17779360 426162338 776229104 994472770 249001145 149988871 224462502 407942794 772524884 954252467 861851547 41798817 108239600 674264462 880818445 874399200 227306847 178801360 865995410 985416870 909598704 926206565 556614088 447711517 599806385 750250237 811549639 779362131 425550170 123759617 886175198 951077830 367776104 169711750 710880508 815867910 169958093 477534912 270646617 365533059 738916790 901250089 8187982 480157269 386097629 636253400 680344295 176422215 548572833 375137197 279150814 287109398 918004082 812811998 242321219 636341385 128559512 376432167 934235781 179198959 819776301 867420990 84706479 475586863 380348385 873248558 468872270 375289124 419502720 234405354 714813689 649535146 369216967 212065587 441080702 732762579 730138361 39015425 412383178 289950571 393659600 101008441 727724122 381376002 337139613 166574047 732753467 444047578 54296543 761816438 826798982 535703432 657846928 516816986 244272389 474731511 264403513 116720693 445125425 669679940 8442578 560959141 966649939 470274560 430837230 55787577 109778399 296471301 485369533 712965430 206640289 56402811 184849784 587677431 643090686 185094053 731625642 857484966 714165758 763157112 381130164 613484417 876293531 89701762 235133747 339914634 770376095 343944302 343642049 465687295 274273950 439056229 655590227 247091818 84727832 360461782 545422727 18782124 142609188 686374635 404121770 46457332 875244731 565086385 934997040 633073168 761939865 328911004 450423740 356145033 874843850 671460822 218567797 407888503 394335123 38951864 487033451 698572180 791704183 131491161 419560293 961553832 34262184 746368797 520161417 951475678 160226281 692084479 8534323 179357636 587796776 794284367 529275342 159884390 255586689 383038567 450893941 862392622 395050522 631036918 416469928 824961859 643935075 434534085 961542547 359681859 764576063 182544428 250934343 60104363 119637968 816665305 940780944 737199548 145178678 791128520 68197129 116314398 753146916 999497021 800737306 131764902 203710093 496659032 6850659 208902465 964988407 136095605 275771217 109407662 978376760 50257277 686881062 992164961 261120741 695456747 683253561 298424272 110144344 494712183 130678642 126211950 283667897 382797875 378428023 184818284 633618872 300328571 227927682 526906401 484890458 966831286 942729985 715575447 69848806 50176010 264157256 729631709 242864603 55969082 877320689 485153548 245174086 804820005 612101608 631589451 171538480 445477742 294680344 282254932 64607138 188728583 978776942 734695660 715625367 841499528 117699223 54271423 385331325 255738070 369627273 573676059 166000715 32663948 591110033 389538441 288107536 574870077 574249037 480069670 946491798 194657716 786636797 399182665 347512333 941033657 954780423 448348191 569696156 247590484 146813108 876872872 946939571 542568290 600937403 795324445 799198822 726314246 902318690 915780845 840877967 957174358 999012157 883134290 957030878 992612363 953922035 486150834 87639786 81051387 93459562 659939413 772144965 742162429 518746675 744328237 847833703 326396004 31675412 599064610 182955172 913548678 581830783 176746769 421031012 522421860 462873321 634215043 428093833 511769470 270010884 511593661 656330167 414013325 648753145 838450879 85647707 252005540 410494585 173821659 785159452 604799248 207613283 29894446 419440371 220935154 379231413 414444783 642295022 736575237 276334193 254900670 876688635 220162298 63504698 946427959 302308129 769029788 447024293 369481816 69318628 624897852 152559479 485588701 901467507 489180163 945968220 654141427 476600620 581639404 61154181 129637756 768330845 701189679 890416888 325932100 307787551 644073076 638480143 711994358 132759388 494633597 234878304 284901496 17675311 306306641 391255776 66060076 396348394 784111653 423001703 602206894 938687380 615745074 410640253 239094007 45819382 169245673 230179601 899509637 486189573 102948028 375878034 511050339 118043475 883921761 172965550 537205086 241904878 845996977 553816142 23642862 279893815 106517580 346319441 834736823 540352937 139563890 932321289 875649434 806762135 215851487 710502888 200652763 127397741 612316666 517063027 565181926 880615334 496947575 509184794 990884882 50571693 632691530 870755486 71639119 559146890 870017023 578789422 126659889 420385193 281956274 455624755 14001461 432948737 122563438 398742718 899519768 955167542 91275711 541149421 96757111 179624239 81500950 17666302 375426505 818049815 525605543 137905614 926915121 788757776 576001781 191925111 476265881 560754464 797507859 390274805 19181880 908743399 232674207 148885280 486596214 479359159 896125036 5139112 26699989 18247377 770212564 377435726 850126355 60489318 147030959 793502638 558037789 987959233 251133280 721276901 696336599 634753094 730585596 71079024 497065210 387329553 325160149 846885045 589456311 684881178 860155206 656073256 458923558 731053674 968885632 559523109 32759152 73103984 82582946 347801001 225562438 884692380 765897493 985696314 268417695 211777015 208911703 859415071 763232797 402672558 308274409 165382244 189005106 494637601 276037225 344473733 143788117 862673120 21169673 96152960 435409268 953862128 62356379 265455626 256578516 2948982 602512795 742374002 836609646 99253363 787133072 745450715 374413737 840532927 951693964 789919342 307941965 418647421 740870082 887034823 134035927 928931318 223459928 294887414 998817866 574841421 235518541 663088168 864432045 821259294 220123178 982295661 519601494 667504178 236283479 855202165 815449860 943198621 251153987 892896579 330640286 997463622 506288770 691695907 189932193 194198243 466662135 64519564 195186983 903606551 901990695 608666264 213187827 40143858 465662731 28217413 954127685 51241345 78533312 809403326 155524457 147172866 890779082 491983322 294158897 582445927 887101586 287993205 301962747 862781327 611852931 829005842 736273042 886119448 446905742 321423480 964963772 765701395 321048519 555025541 853244330 205247274 10136264 880179855 838328109 587171766 394681329 503690852 70207012 361718261 785352587 65163093 6736819 342569519 739769026 792702706 322683742 841917027 373082560 218267299 648009746 540644490 279115152 594269352 278243133 473714650 701799631 753161795 803113466 324605023 527531377 69598805 586324815 650032367 891251813 828815959 343886897 963982337 754035330 509124354 730717448 397555230 614072310 760377739 307145110 191750075 455274063 442387611 2046298 527306368 950986818 589363820 785500160 307883672 518407881 302638972 269790384 159622286 76576659 143239458 333662852 392713527 940183544 946638206 599856268 479379706 200118013 176246097 548638457 290103557 452183105 65098874 290469725 157634093 854236804 482875675 33248986 834710245 462364616 763138132 444037573 759418317 892068293 682630543 6799700 892043057 759733663 719344745 33496455 886134410 489065087 221097763 23532730 560388742 445113169 966869635 321082303 416658279 774170251 261041417 665335791 378524869 574704403 842452630 448155919 245788615 134987536 717702943 952748604 864048348 371760783 434841896 97307894 690267343 135089377 164926197 353784692 395203382 429687985 370618563 945450211 920522193 253485544 427433194 937443572 528444343 70250682 451748799 116099806 759566165 392455572 950912597 882066109 250070926 704414192 562468271 864043447 391094492 58327522 548871306 369180831 158060829 523251165 815361989 562886219 601709103 955968182 12776155 474221426 157246160 499038693 417342158 907469174 635306802 170664659 796722610 551528883 880967864 748910213 764121662 845553481 440485328 664123241 833678828 976938449 596419688 973190701 564638401 709395090 815914240 464675802 147188537 881193543 269252674 731250388 139608428 45467144 502796711 892596384 206179295 46153695 314953804 387628042 886864080 508992514 766960102 815977497 381355635 610926395 697080391 257558346 772526600 466290552 536541521 414977385 795801163 28599525 703604360 20425150 305981761 52711757 410450750 513780300 617643395 984387006 98699168 42532926 531574901 234603915 955882019 639538921 371387902 745510706 131955766 302103439 218421823 36419732 167132342 65734351 306349882 45296339 953890568 265415693 160887067 308261005 817274563 257155784 656291671 101711575 185641227 349530050 538171592 957121960 637057602 474367332 62322798 460629958 440511960 551551475 910924300 155450384 403520057 636382658 601543123 540099635 533979165 471739735 305097415 924819205 470393523 396021456 511169261 582122214 690976782 762959379 652794301 582088003 152147221 497225368 315307779 682913152 876905217 728800060 922078410 797988868 425973608 45626191 338816437 408429627 255676603 160653218 543891745 313677166 725206518 508696794 972573988 190940914 283019977 472251075 984498000 401261725 393346631 91564268 746403455 735519712 81416938 755771208 902671262 711421724 883492509 370407228 828568048 699189895 869387784 426281500 834166524 1888949 874322743 630469732 467059439 496017094 958018830 908046720 129202610 637942718 468216493 78328251 100237398 11545362 405341966 723116074 492372617 510204145 607821643 790789437 467667420 246831331 894095040 486902767 839610383 601211815 881267441 908611898 331022460 129898436 945970213 824156001 357723582 219310125 770816556 314312635 732973984 591412954 163237638 794806883 626298134 231024948 294767251 257693650 63690708 359649757 577135714 753016611 614174093 426944010 213477908 35885179 34108412 896577724 596448677 87475910 798641153 721786135 312930324 184808615 177788119 184830811 789743983 307374890 944788468 934952178 993946749 364571173 486497468 657318576 309614558 309222126 645545651 961095477 242432619 389971039 628721725 553674338 759832131 191438762 779933548 705891380 226503079 890233912 608066260 510046779 159078831 361099763 493995569 84989082 944935997 334437538 842013613 954935114 101131233 781440456 577128335 566430074 667601921 311484957 831873936 702673754 177062560 693896685 35583287 691016701 767127746 867253806 485467639 295539733 339610567 388258225 364173938 355122253 131910203 348049510 62751094 864280230 243262697 469583730 241992942 838254351 433145352 130830457 272848748 648185772 211824210 364523235 122777849 216228894 332942342 834937501 43055709 100166995 932937082 147593898 265308270 39827789 284978755 653596746 30731997 194902983 297808461 849336739 342497695 638609812 998518963 845600648 641614443 106737134 233182686 840911645 186321042 321833027 3166589 791256167 171738706 111874961 579978337 977873114 496002645 18552568 877232735 762355064 777810521 725362714 239383218 354171057 170934342 788870017 712314209 18148331 137870177 246374545 286861134 895024907 517659305 478949700 55071616 948322303 943363690 769131553 467553678 5487493 334356184 725624261 629955259 126785720 702402879 763932248 694848468 297178638 686669273 222440106 911530119 883960816 742627779 359317316 137362036 636063626 991191605 758370192 871810172 346974594 635089606 504947975 397496557 972907277 325665928 818756943 951868119 825525419 450373670 278355997 767109363 11543079 337993645 128628571 288504476 763122249 365471375 787349297 211486749 988291405 266511914 698656692 942365904 188234958 436045549 323719908 675897201 973806983 523313813 948305815 175076641 863911274 700539082 477229981 650021711 185721404 693794300 323111642 138246328 558402028 891151206 805230667 61719070 349076985 447751641 4655285 490207084 699710979 463981574 169618259 283342050 117103166 376959386 468624545 136593599 369276548 351245603 788596477 15348160 26375302 268508430 814854617 403600353 484791163 162349104 107882202 491443358 367177172 848012525 473791774 337820004 924582896 19342632 130221225 272166680 446488804 909852289 178641169 284383694 868891565 324442186 131327680 59740691 584590407 590317801 794160166 657332596 306495719 273511670 335187242 563822103 607683461 796534767 206315646 557724561 170917131 839607789 576369289 958901545 577067655 102883572 607167887 324463648 382094933 265404177 10178084 590967533 373539799 591874495 325028884 265288407 492381831 109576520 756019841 434022910 472256234 928669369 8938812 274057196 330127789 540683429 658280146 905415724 146551589 663805405 589826275 47775669 391885703 484750244 349440154 87422878 165941584 487510020 798287893 844013619 448340648 740428592 820750469 274701816 21745204 497919835 948131747 789734534 911607267 27864711 558186416 205794371 26718799 646080907 356105818 960933860 328689716 364402091 988764213 302728159 950240479 458480139 47555150 765797838 234499366 899096636 291418189 54913988 570925276 332000746 150967948 393693442 306453611 456292449 913655843 172851877 606595538 670781789 181504894 211307927 818458091 489669673 676234920 576093299 570220152 549505677 896731664 878360209 338328379 330239121 654873241 16056057 160598112 203050984 747017483 629709662 948901531 783320180 772294430 15054626 641217591 598977474 873768591 121750581 674327881 805320615 138821148 497734786 481207650 424239887 308370934 771078069 313146332 353522938 402455488 78331887 654306866 51891044 427795158 712277347 266717163 304580929 739053291 387073903 454752220 419398550 607297002 680395908 823279675 242394835 273396933 211881024 49014193 857434105 842048708 26711160 84639298 499324575 948335704 379571661 206275902 343696599 393724580 2662259 108403404 935308716 112925117 37308768 542474812 4789886 484674658 278966492 363881542 158219990 706119509 678604237 170390006 707594118 218355812 338740854 899003061 756475908 994677126 783846276 855391505 238749259 176927444 735572015 455671629 487182217 358679551 838821645 653314924 411972335 479344578 797103373 761238968 390122509 164659068 831453829 927157111 607241930 742429846 482096707 906291100 231781203 342485432 761625531 958228783 891620357 455387436 147441959 881339713 597160558 938230229 145774340 210136141 956700093 254822839 671620926 636980198 774147223 613752327 690530485 275650578 349650058 896593497 8674772 246658614 366442443 14516336 649964712 219011054 584682349 524470076 777558673 216187145 473040743 933279369 853556517 429982724 77077477 39566584 413883624 193377589 997396199 995487794 648239977 743701628 317981956 398194573 283309073 486196082 821302778 155894154 205138498 373639096 927694951 527318264 974962773 341118978 913137977 994522033 984036722 608478143 1966107 517673430 224152041 387857581 367085493 99826727 678378232 700109257 147797097 593554505 805885144 548786656 812185582 404272589 790102536 191320578 617580431 919240826 219755369 981811925 613222579 791940579 125174033 964835393 484895111 387196926 482255499 919356819 330850374 779474748 267080068 390197346 693854834 530092723 921627143 190227457 290432912 265757466 148406860 934972117 426960174 458080259 316608712 656137001 243248761 889179356 688241140 256652715 432546020 166864311 3351782 379953080 987962807 365480354 539914701 977411258 632445713 595721521 793209884 332768884 876017666 561814770 640992671 85554089 420220436 980032889 834286293 785593591 546213834 406836148 186039615 465415731 168264338 861390229 6387986 616182878 79450036 164368168 635491704 166943724 973737263 740749863 10256248 718617009 125867700 654794884 194049532 579042487 257740841 27643157 203720728 196022378 327774712 965638860 892169850 638368038 879645706 621371795 470802626 355253051 197316202 185351121 157046490 189900565 342887143 104872066 341584650 860165349 173467792 596437482 429038885 194348564 707066599 315125083 828406685 933233879 574043509 717540 679741905 570821188 284653912 391266228 441890262 654327834 473994763 90864985 642826951 135350954 271284801 168760030 293115383 418479023 254508485 575361083 567406367 327508960 109787480 61309178 697003350 775327906 13626337 132100562 556155765 520298415 682187531 609850239 914966805 51745978 83909263 803601017 164533980 172244496 66317583 946493154 683197719 937673879 359921597 385274639 196106130 106954308 543123644 437623181 138993337 982318168 301183982 486020962 369593410 146092939 896395421 666046144 898099800 739271202 123110950 388329451 629050442 201879732 371914112 611192214 680702255 233121540 668709296 864986664 15582553 422060149 35716301 593328347 815557054 136766504 288216920 466305532 76443392 65753833 157451965 534910296 707757480 288738089 858961390 834744394 436319601 452811293 911159176 611010729 222849693 974275789 315634306 9416670 301761427 315798854 400973059 893418827 834497103 885365829 321502850 389634060 967493131 545822573 584203703 38315060 132598509 277789125 70099301 726898065 101493457 583984275 677689431 195419221 751828949 651855749 555636089 218623300 258969268 108315282 213685949 968346997 124930536 57245394 382672399 10143991 934039183 602772909 418541080 502764169 114816006 177350251 857135253 453090690 825417531 203387938 114027429 87566342 786209341 957424681 505582965 183362641 80858618 962915990 423646714 166797052 170525043 158860152 240475277 48853156 956044058 267377069 437370048 539323191 753875871 687285417 501690441 364734925 400037762 128596439 685741812 213978928 634517884 18557455 295060903 805422749 911104126 99836895 365396494 719248192 72129268 655988300 827628204 882240978 646834947 299585149 170881509 701605478 704630077 696246069 80821847 470965470 441405350 48257663 296359319 19088056 36860523 207486766 982845469 82908875 595280243 413304063 798089920 204119669 228460806 305835265 992359017 839574971 878081757 938012562 675940642 386704353 62636218 916800618 520085379 174630371 564524074 193106839 186991729 198691462 353281961 49798449 31101543 774280877 450960194 26855426 334407009 562504072 897105783 916185960 742255144 953861086 587744571 759126718 587996317 274141508 901962690 722977155 896775689 296861791 439898954 994997544 361618070 99177722 95361140 735044937 640293115 747990085 630498455 468717355 412570968 333823175 750733056 814361931 865580824 948981433 949152506 894155048 520162522 946348515 41363256 700968134 301234323 242192020 680809576 195846140 256410678 255113939 949206143 880634687 273905327 244803606 308965155 653322899 44580093 740263720 893146846 591733101 175456386 510181243 356429166 224885203 321087052 845533771 5993613 994013698 967638064 430376101 183397330 699557517 921704292 105704977 903007153 310271500 364510039 439269195 491140030 943759079 613224966 925286825 143198552 92380078 223267881 500047705 444624222 61548946 340832002 550450812 421380166 321786778 960816140 527711831 751590323 965836139 297383961 642050053 919621499 139591072 671901637 851191806 936855110 539850208 219040697 69163552 994755873 760539523 1982346 844223395 568442218 247940331 74034820 454346655 947343432 974407069 54500401 604607226 588016550 979730426 524236874 608792404 734434574 243080150 74812930 556090776 606788798 266543737 462902015 695409364 330322549 81800614 670051389 547032783 456598114 23577234 245635637 136931082 820808620 980574265 220978978 600166349 11834247 554747888 920034980 888151890 36709492 14637031 836715041 54121584 332360633 707411490 808073242 356110293 480976745 37300951 63999809 668632697 473098555 61763338 603598578 15628350 653494395 843615363 42304982 479781480 205715720 776362396 320825371 61383773 190121377 491030484 522903463 641804311 924104461 782576065 365442297 665924249 983074041 248143831 44296304 568094048 191278937 18997937 603460452 461477311 855098502 719240667 579601528 988185446 75904601 672741159 35299996 776575514 336620439 732949337 361030538 660942747 660110468 630688434 27604821 205079729 23140269 682423067 710899251 741267345 317599352 287401876 393197782 46872482 912943008 759501983 11339134 549214622 613497119 272696385 804972763 227400681 384160288 958846719 841274639 162206312 111311791 952986893 435571917 958652113 489312373 639437978 806190455 447020397 57061660 19049699 366084310 701124347 593236713 29488171 891020894 862058683 482919759 58305963 876401152 646394932 486691434 230315755 470029502 185201231 46858815 512839571 195389274 730511392 977627843 861044546 9564558 153867478 726693074 574076445 824259317 955649435 808838453 891736236 724139006 910257481 610464073 353227627 411126595 449253444 568073838 331962642 172238702 628105804 332233674 256092830 388812241 986874566 33072483 167553851 58562378 278509971 148253405 864261765 179304217 141223129 468052232 442472834 404509704 880935228 629151903 522014301 938898556 282776217 8441677 790129168 424891966 501336042 88844576 796429124 865179928 812511821 484685057 798957451 318125226 354024977 178049510 533326950 228441536 994754055 440995893 665385340 207799590 512388552 189882176 772368630 329456867 411958954 507243884 665459802 456335817 116744369 764739580 273013474 289695491 503665657 70233078 760474011 185399187 285836975 461871694 950458045 380246584 452576284 826534872 194010417 960949617 455595380 384280956 868632934 701721117 962061805 972569581 818849654 19126446 225139607 224097463 673139362 961636015 721845834 693127571 229488176 585993536 399578889 869122324 588108923 818821435 820538948 648271698 535017988 408110441 107829022 33731382 767730611 387511899 926368862 893132182 292751184 849640222 575590520 529530486 55330712 274539025 408336970 292938617 583808454 787111163 114708943 486689596 299807291 822433595 988742554 983160767 688522019 63260311 307727302 944220767 599163659 299962201 294586173 675046843 550037139 495443433 146274157 317937096 135382280 640267781 846872338 235100981 767080708 625924830 767204395 86654407 561476806 3302734 327583930 622552536 853365729 199100381 391547110 33201172 18173438 592708693 980478236 89381089 931537834 886070708 848915385 991815833 971135334 272919351 684620942 436039687 471707259 258690541 577158268 956344471 511381963 728853803 742636697 150267116 683914593 649237420 460363237 20534305 863841663 875258145 522545864 733862080 522281963 483310396 111997539 218333266 75889032 301470074 359940823 904659885 671946453 35193023 279701021 311560381 657183231 110740009 711237048 104691250 647418496 311681759 189767042 689985881 935035393 80774462 46671598 591797212 446118408 318683747 128353901 100011196 602984578 285352177 394078580 682049070 695134037 432432834 124271293 14791436 311156315 938709701 401212558 394207357 484536549 13762865 437521857 511363410 14142188 679954982 776217562 287654040 705267312 769866030 510901226 475520568 167754570 849790570 640589771 984304783 253004677 849343429 181294547 644645878 178461166 767641666 620734185 507893177 41311693 874916482 16202386 72693356 172556542 427691603 266279129 443287436 147593455 620719219 819003743 884651133 665911524 357689595 207589799 340767194 776217074 532543974 771059321 852717614 330954247 489798783 131410744 59267974 719037637 603197524 342993688 576336733 831338783 691286494 666314294 30959681 544711199 753440124 298449758 44063908 449605118 439462724 803014284 119614854 508805430 749953492 422381520 953008266 149123087 36655116 980496344 159545084 542417208 112262489 159897352 681176035 35674760 937668030 473900042 206863813 707593139 552954048 164626933 185442879 973972667 621773828 378787502 968071308 448076908 352507313 157709721 399076319 876897903 390933922 324042109 975876196 430564346 85019990 480574281 607640111 139272850 659519366 629649472 319098036 341583850 529926166 326962779 497709963 770077801 446158695 228514447 335276477 527415898 695661341 523350456 617976595 78599357 990684384 127064772 400970116 189468544 410203762 284454666 389024613 463099847 755176025 577729159 629726335 92091607 176921491 269278792 690731632 513401141 385618913 642484608 57686705 691590413 789228853 963137524 24473687 916423700 243336745 19507764 437844264 760789935 105389156 638733431 141137663 726673902 257917467 394836746 904541685 264648126 190716811 704000367 609900585 33881727 316586502 207894918 711069725 8320440 123890433 59047346 626151270 275311825 266437095 77153042 784588064 431890037 534288991 620179082 663828544 701718792 694606183 541518345 629114821 899995250 190437991 414297848 458426208 683932445 540734953 433146968 551927013 320639743 433341736 947860538 190293518 785338737 179528360 237883334 880688336 592866094 650016707 978465134 187046527 349557728 928868663 604943899 499616261 132973220 143073365 493456877 602255954 324546539 938223077 399922792 127986684 401456942 219605293 301367503 464522679 2356252 980010663 976619400 852172351 255913336 497584854 343921036 662119271 833698474 231885836 403215683 125271709 317363481 41644455 470536183 204977832 282225997 784509512 936295753 299723279 990695499 89897555 281364947 105436333 746572304 32004288 342168949 376910386 646468653 458187652 490464449 454559908 209921716 870247417 211434898 353264598 822960581 519253950 602603975 528084870 655500117 47476368 943885391 249479651 818323380 615838796 596398090 71894764 314524393 838248841 822993729 891896725 330624011 991048570 427559874 427417108 405784312 829967858 435182798 658008117 697694728 723565028 974374857 292000055 493865193 617929926 907494266 67981011 591077304 942788559 900814424 962046737 744546741 828365862 839310499 840731024 561484997 815516538 794228732 113248274 199324856 276608210 335287335 511826942 280970166 607552376 792783899 309357394 422113678 805951245 96072792 923374253 500435623 293332801 345597087 822378147 985908637 71205877 332344491 389144015 980129650 446369294 348949065 843872185 810194894 912400583 2092 728626455 80065783 946267653 736789129 84755573 140534366 406345321 335602528 152990802 580890244 377228496 516742312 969876810 72701010 230631577 594705446 468638011 339274467 980001422 76220760 30937274 899970323 696657862 385873515 974724216 522535714 848689509 556791928 984242442 738018519 83534183 789468808 444218011 913977600 695360895 214768259 266893105 688134402 359606830 248969582 280799305 402896663 436676020 513894399 858319294 610106700 482373385 832373283 855942054 430553229 866774182 340730798 744761883 803210709 141866406 613587527 454882247 993893511 100088962 876962476 125666975 693785674 651263846 864437442 796684792 75444852 36474783 896065938 449604867 937833325 171326975 707376618 696795812 694424012 398101033 834471817 735343360 536873002 111602621 221531988 915300561 719366640 829161680 258450727 181425098 139497781 123035607 255319692 630566365 884219416 137475890 101860851 649926358 752823816 289226768 448898458 814776580 358197212 697133290 665049361 718444306 206661019 511153298 581165971 321096593 232595109 195617603 905547059 480743826 417609356 156018832 668251974 912424740 776038504 842783431 939420163 389811466 115703777 272060241 261336840 767397139 737568650 932293358 6485500 116643198 367025419 918434707 207631037 81449458 304532857 487524958 153418384 257477083 113364529 861705252 839727645 573658498 509831541 418797651 45534752 95759135 485397178 281611983 699267428 981350990 736050151 414553783 461072133 765722666 203983044 529482122 28345795 328533834 806825401 672815245 825012409 999237898 799887092 632950590 443740380 843166341 530430428 945652166 551868546 408309316 762954068 739943861 896344373 129208020 84577099 614582982 506911254 465498293 718156252 772452345 761825942 471268669 970246627 149636856 287989272 450872595 948388721 48427831 61142503 417644877 767799379 741556504 63504430 554430092 293749755 585881607 710352524 324084604 711424972 799452057 252597355 119735436 751921618 855844065 587394791 209502282 153934679 752137970 55584317 468109516 82012802 616243382 194066156 694449471 882232676 817032103 703986131 270928682 973707352 213351885 368457134 41656770 297616863 565657398 10946508 889526288 830589909 826420881 155664760 572065903 407201592 23485718 809292106 56586326 160912576 491541008 945457397 711065993 782545058 353552142 534453186 524437757 175280279 150648101 857246484 299275354 281214665 943260233 527907299 132047244 694611143 229021668 466719425 827218936 296648194 918970222 275759314 238850371 468759137 819729965 314313371 864589411 234783464 619846607 489223250 154610636 476785816 862223593 745658417 983689459 565485484 734158301 142014980 961107734 689877211 617485439 800502582 130930712 542546354 570055197 434841973 334276065 630365502 291712219 529010625 512751093 662581669 968892863 142722472 847151733 677246798 480931050 197037138 902520566 322339328 339122651 587790102 48073719 793149589 467023154 78069498 864553063 655860061 694067486 740860964 929129465 866966852 416881909 584986465 821302248 168111823 802137640 700218764 999054784 786422295 499643830 296256234 737271092 496860802 65202138 763052029 45739024 554844655 793074463 802623748 143952608 414427216 932630734 245504480 235362317 924104797 82220977 106818862 454810402 401410930 824552177 477823750 157610484 219019317 147595218 503011990 493876841 202295395 25771997 580256858 228931261 551125011 831531017 790246478 545772410 187119443 599353934 9414233 370529952 279973185 908116888 692415573 436927215 111535181 811804880 527872055 693867774 327080478 755426845 18658621 354284639 990173769 709421900 643129593 788387552 315895240 785219173 403366920 126607888 545214747 865657475 29234619 497750747 370846668 818804226 692051889 21282144 347694 420153031 802216003 134630941 748235530 911038130 193204890 31379531 659244474 90603739 452248491 615175987 176397064 774824238 778306108 281853746 574663738 505149354 171090209 456961729 825614140 538464441 210541831 579524202 826760903 212866593 103001003 296400198 306527206 489834866 761272049 888234911 980694524 894709530 923622913 412551806 915500851 471346357 984132527 787304974 744815023 912436715 717921006 808414974 287240552 937086113 414665496 868648689 864411978 933613635 140277544 776007263 979377188 363916687 597104986 776319381 40888540 326579903 738443181 41630544 614091758 172108528 765906282 904601318 229801655 729706200 621378005 764237348 556615655 782356429 189589954 70691581 873484613 882910126 455559342 136165291 895068711 39221432 114395325 313122296 948543810 463846733 883090897 649832012 977608435 598831014 748115272 446204958 899709668 908236892 648191689 704288341 17474194 652258051 283603261 192949464 457208959 943790922 818115225 669276539 245169000 618461945 832478514 247473932 349112194 724266303 620710967 257745229 243609282 118127911 779784477 351549799 786163428 795872276 334193528 98528638 194694254 788034002 164994157 370722057 355459904 423590234 166888389 26547799 519318083 886441657 957280866 766374684 717967442 593733283 205237128 915646038 4174327 458492774 247773064 95235111 710055949 946079118 144827700 884592285 465773884 661559368 868139123 918507778 315026258 361353785 770421125 839299982 546358454 103156113 20602682 270315131 848792349 271054035 311327210 3004560 967664618 309489157 708275853 713203182 346065637 709659695 432281050 862986868 211028789 441798145 269778402 217497753 103750863 645095604 810535309 883779851 162393678 260094632 500328550 785980573 85117488 794478341 829838851 41071763 155839416 371773575 189839628 233767782 541469465 4833369 944541610 160538710 432551505 194300906 827155489 929448351 965088663 999196505 948495644 544345022 979114030 360679929 486517511 735311723 812579748 444186798 966258557 827012063 848591033 937396035 385459901 197657879 657629602 379894275 460101890 178479927 965285651 780517264 247693662 401378936 69986247 131915018 15213158 27660478 217641218 779416267 657077828 773421339 138316687 244827639 905147181 398696355 233740391 166729072 679206460 860125192 715716856 750778764 974343029 641977722 565588177 423048192 558813357 951966977 143646123 762050021 41380745 647946991 513590017 925781168 3682914 237090706 966950441 537215013 982718201 19055806 989920329 540845719 186375094 61332314 121832464 489458511 84778604 11415709 219283572 445698267 722080839 243594543 376675501 354014214 868444177 352603709 270096122 993804023 142664133 998023287 513720371 305104110 965089814 157860803 478313138 597616234 985873363 833808836 621376352 810227820 988097007 518082436 75173098 804791506 410186018 961204228 207368892 561514461 697428154 34397133 450763608 402568319 262309808 565857406 619430843 715100003 873434870 543890228 277140699 51826931 307289605 561549472 948609563 684802864 428199435 665015465 650449804 200346482 305505134 883289761 131582377 603116954 21954353 233846348 714119821 260711728 994127389 669860175 58589457 103711058 16277603 137798424 654556224 811883401 110041618 105652149 457700089 140744806 823809309 492993080 731349091 166767466 567937 34174176 283747627 933389516 853018484 42711757 191383810 138046445 329086792 608661913 293339841 128904929 892963830 580260031 559199133 308731492 16356333 322775563 381745749 892493553 119325770 881243246 934336628 684779392 892746643 903844990 309764192 194115528 786009089 943156015 942262457 500640531 841771251 646409586 773757589 678478270 312230515 6632121 922859176 885519357 863621471 917100650 12873976 360444907 926442458 885331447 106144071 315134651 861192837 489660815 406928330 856945892 560158336 9017443 267019889 466995530 511849124 283816459 890431195 832083249 575125441 330972428 327112435 986200608 558495039 362217549 834562388 616618652 524051443 910337930 329878880 605113784 639272245 212345378 690657040 32634495 659258856 916099017 684143407 253889355 703289374 221263456 808497677 710353974 544219104 897136684 155298943 41904394 807735569 888533196 811168790 170571815 676274337 752522865 712973515 460407683 684600662 254040307 284358414 72669619 558988667 644728963 719839895 740025668 725587336 75535858 483394875 834891556 202318117 277782999 579708247 914818983 853499210 713073325 668902240 230995077 420213036 936894348 576693948 692307528 876203693 890909537 551728948 465712677 439374818 41194820 391574375 359452478 149181396 793194084 7768604 817709384 309608870 174604923 180001492 80651849 743467292 472984548 737186851 252067727 582761843 958653530 866567871 193903317 606481584 903218294 812934075 935370620 67018920 191096746 483934633 43678309 6627406 700204745 458077680 214973431 34791240 752333825 583660203 628864175 438707548 838658607 942501899 923818039 165826167 427257074 213284231 663245268 479792065 873246361 126771779 189170033 716176722 851722721 935473619 213702111 664772707 947292687 830973757 541504171 48436231 279358838 579016360 847611634 128284142 192648059 779899128 562723232 783783941 260124249 225518208 913082777 325143156 384476873 771893943 390346376 55123754 240479869 351348087 351134461 933943183 560496271 337747487 948546354 604720595 398562195 393591557 545783644 953562209 640939262 389153507 372934741 274354311 123879675 475381815 970574452 195244784 490321583 633951764 833847856 157193099 147139044 86250536 848125896 674301442 294846461 90756187 98811868 254716478 801478273 926789093 794708160 499058639 14819553 568106198 171190491 170719203 145598011 193842014 552091723 675203271 869103168 673112732 798920367 472452414 968935295 728426195 527207911 638203993 10637630 236235176 698925045 488830952 410330222 562895481 754729307 177558763 699893889 478221972 775671475 801511235 887470904 58225795 11599109 824217883 403299869 933600421 213489458 198829303 800068684 263167650 869191976 714944845 4787204 958964772 732863951 752543760 400558834 95204055 550060617 306508665 979655522 541498730 481420739 566372065 536462931 719636041 732204002 601835345 892215300 308224138 559734781 947139679 122332041 225406524 154181764 783086140 934272258 486651685 648139826 852408382 497469027 337415227 569470818 644237561 256240922 705214557 637850484 572879697 117746614 370451460 921481603 572739486 888556982 344851426 283910086 278154830 733541732 97975002 425747409 568185654 677145721 504319782 923307504 934475601 353289984 47192687 292267340 296483226 112919842 409173469 96796102 859101142 744987910 343896886 818303924 286142744 720700296 572786647 392624110 12246251 572629366 154813420 670733937 924255030 510936787 446628945 223653300 344644698 225002816 864810036 706319984 10569425 796697817 981892130 610762722 808420130 105679941 778990073 416726123 330029000 585849731 419936630 972696703 796837522 274538653 751091513 40715954 756856942 268033210 858593397 759366587 988478516 942862450 844969404 482024364 261844795 443445714 351556981 55481296 424531427 667302781 26629937 644844259 685197940 449956038 894438347 316424446 861046059 590170870 839899188 868343391 935027682 289195442 982560570 21035448 923461131 60353829 852891904 995000932 364790466 872058120 532427872 304374938 784739155 744934498 908744019 251382875 712641300 380909888 879593011 216398717 1076175 6122765 236660337 377377895 939591219 444664014 357979123 62842087 261415846 440053236 217141664 708800381 223196148 309381405 666605405 241901912 822347990 204164136 667356080 308696414 875914977 406917989 462385147 828330444 782692848 147483196 553885146 135764643 623866836 119950682 209196418 553022669 283901296 405636913 721255587 609212495 465728893 710248194 142267552 498318991 316806830 205902421 447716937 289137196 336047203 793932764 287625355 181015448 657980992 444078633 678923688 175272512 74304014 748263818 703693360 333915321 866863200 548283774 290926218 413328833 965427754 146248573 429185698 416944544 499496916 760041312 545100397 978290888 544442732 721356077 882507379 388437824 448857274 488984007 619984296 59836428 925882173 994614085 842627240 966479025 646541506 452719500 726263643 289423740 101514080 203017097 349831367 380174462 876050441 778438384 667708885 589451459 289870047 984704950 348720690 821798316 670184703 501750654 926306576 85013262 677901309 673145907 546372253 716276008 113449296 592609999 812586656 945353097 288897526 693559930 120092043 525717138 841340503 648830887 19761709 209591236 140951302 693396346 861336798 175301569 976023365 875074606 824690956 607099439 263760758 268851606 563177437 75901484 703696429 813821925 511364082 392064628 589225591 956963729 174628669 997189287 655940766 645545887 826260249 161794658 78964999 138104886 88658980 555569947 645610250 909808983 668978702 564262234 687689794 931209474 688128695 253974700 165524857 39218251 135191589 853186340 619296293 867072852 805550238 352161230 24406399 139618880 553085322 661261186 229254340 725977621 404849860 941884249 375775646 89086189 46807077 29684179 235749869 278681278 113128135 886324319 63700969 951003236 944847219 201744455 565519270 534718210 685283493 423560885 821936505 787639078 724327969 658712358 175196844 1647723 21788596 344771232 624970042 396615651 16782444 650865499 337833687 580574189 914173477 104977984 643600582 278335083 231976849 955581760 711544230 178617386 119294410 721598731 716096008 452276144 644595307 561951298 12489834 409649559 794014047 572406875 970344647 735752508 202016999 970864719 735689793 645080726 23838397 409202538 817572709 449087425 456046504 144068853 859773565 894899393 196207900 573109913 364172986 823394840 384098146 579989405 165043008 967753897 366124770 611420805 223826715 527031076 745684114 143415497 969370939 28205960 188513061 232505311 547100731 391366636 228089152 54678856 779988266 313760365 659819716 181469403 166740216 672325048 602278534 757786403 887928735 855534802 385622261 341169396 737673676 199997917 822305862 293078727 293913025 854794540 833071187 706475519 974937458 800367280 371212719 1742306 966561506 62367843 897552428 961064319 553198766 616360069 843658937 525612936 652333925 156046517 140671285 273000787 627910325 798907332 123878248 607681619 465528085 90023781 484574065 687302897 823786878 655600701 912344431 285058741 250527493 343450173 796748038 860417979 535582361 845247897 493329315 393118528 194774005 96110160 249556499 618812628 704793939 736290874 606679138 536040042 5052608 454063952 354360855 358181708 11189087 691869684 843543021 914437595 826506207 617254269 877102472 454654544 692715397 687581514 988362544 456449159 264403426 786565666 972574315 657130708 683880503 636793314 298554096 3452118 915405340 900574603 756684866 848008242 41282392 628247927 939562546 808060359 449464480 965892314 798349128 63037264 12083453 699879735 201062070 491460534 900611590 192459661 814845499 317600813 948809710 933856428 808340946 187524525 225978297 205355751 968260629 328784209 846943781 171684044 585361595 828114966 319136638 692076978 204245036 748263803 878151256 927423579 811864112 228016699 967839493 961749090 639652476 200514353 441984780 216924878 134614109 272212450 587192176 814314591 90825639 811254331 290630238 277534709 338629268 123940477 88700524 881858019 801720499 457137069 835380471 550684540 153529056 860817151 137681020 621641873 902591827 620483033 675378492 576952414 613715716 202739274 373127843 75816215 64021098 430183171 49661350 906848389 268859745 943601467 985546809 40976205 303713876 399088136 209293449 343434421 597079619 231833850 227422783 821324324 610608984 873786613 149703960 574616751 347081237 560248161 450427948 517408228 375735743 671077410 299351359 289792739 4983898 303822725 796211523 104249155 39307103 83383149 950794044 562788519 879124508 166895840 844482176 478682770 416111199 450219025 89872860 351581054 703558071 189669892 8831672 874278152 621363553 578327677 753661934 698983064 749072263 435871555 103487822 472101045 388067815 772307279 623076534 509097436 742375912 537756595 736910645 223445057 886671356 881038547 414983075 403371023 641750028 747474807 346069917 380243572 281826084 596973712 973771813 402520296 712320107 68428491 812948854 343146395 413483436 170910137 80868410 497635034 892791271 813341165 138340210 753909871 66957040 951770035 911070934 14761441 119302930 285333350 585685248 312212374 843033492 157729414 21913139 614193465 417724434 267682172 252820121 769558737 597751604 400258017 965962040 422103517 426019160 266188601 370067342 767213898 650844203 32480676 483593134 734261630 169158588 364060711 582528680 399289091 457997908 22608789 915634601 20758400 474344436 520613389 510569199 154858209 336441912 248713527 892484561 306869176 588602839 868937052 554704936 960874439 836348663 611590933 46760857 835535181 54758621 188667370 928502196 16968397 47145935 488590407 757467984 733827766 747326285 131848482 712306472 823906852 465810901 481916312 545128135 852109768 105607530 326488078 590860181 259865573 564848164 342829172 222825771 531931843 743657303 206186787 869216343 268905864 762750326 203591927 704214421 364557726 633938095 69309053 739927470 493913272 919196804 910422416 485314375 278615047 815119379 940537860 908828501 431208429 477252346 148126583 240477757 456122562 15578676 586313391 332560876 366250362 939235039 746583525 284786020 407966976 757744340 394840907 415017340 498127353 317791463 827670583 829215894 580832845 76647649 355189857 950499658 356906573 806584828 701968258 451714007 108168999 554220536 666046771 24772100 988167891 282701262 768095695 141559766 318173511 893001608 262546547 613128562 934110947 672860362 116536102 427754236 974798824 705128027 488187693 697077018 624357908 223559887 811171551 491338559 975483751 887253856 931539171 902311769 344587 922512443 843728079 377082527 741876184 596520658 964486455 469110345 577077388 518470977 77785241 394121281 532880904 351621657 57674738 481515868 343885000 737316146 109433317 526765723 124739982 430666063 879241112 78551203 751815581 867861531 654921866 866695073 3556909 486468109 4156761 521810475 409629184 190690652 791678498 851945831 494636411 416329216 870828470 216554706 71839080 970444477 861098281 344075080 180003930 648950837 27217814 844534223 327209119 686828669 871916361 313085801 938118725 974683775 770951822 550437062 858530999 759664147 420354048 216680865 455723980 600341935 549908573 224401655 20006212 749338806 754622872 186858623 221288022 182707672 453469614 470310605 580206142 487466546 399206519 437197492 1402558 558538341 943281930 711938654 454490870 27037814 86681338 815512492 375513492 937776710 102964532 989688341 350376604 527266521 825105353 463582412 517997297 241217599 534418599 436076334 711276887 866136822 196536689 661414753 667850962 326708533 693354750 154429957 46321322 692840902 604091028 36771583 15648946 298429507 77630625 290999822 904832976 803726070 970125184 282971058 477119221 854917027 863703450 628029273 456991795 313279286 875083678 489270318 838927211 828681193 141831635 423498725 407501746 723738343 283239062 742603051 155421742 657081960 828218843 730452696 663888221 126233138 950566122 617111189 99435059 941651664 113342614 85852958 30875280 715998012 327487975 572843036 952161517 274465243 362362610 218751470 211652507 976140780 478640991 740132880 66298021 211143345 779923014 751443545 944459457 107683267 825635110 878560989 157552953 56777721 757729710 886202021 657087646 157652193 400376429 132332199 7129808 775156906 992296308 742044078 513203203 737061410 822104105 279399365 843785480 538831362 583309765 586265411 733126557 799230185 881469749 309447182 892543190 845368628 454240750 177197612 975890023 693596957 80935306 612346670 105906734 18756317 28978999 669319555 518496906 794819497 753756746 719399904 555333089 235168796 199087689 37309152 715308814 748198753 727592741 740443662 431018585 821771582 793559767 945919762 414668462 847003553 318785108 208373382 270153442 869538508 116552225 671381869 876097861 593242624 839934963 9976727 77607133 68291494 371399944 635519476 789154460 848970056 1797477 7780764 653187624 548961580 525139386 806722236 452958803 370662710 230081700 218751691 365918022 518261270 953493097 270371519 998027432 650208096 667646790 986141445 612880755 602445579 244082398 812519637 799920841 903168789 250418268 108307815 171562800 370675496 945029996 87839180 400973362 285797230 715353494 81039574 875906392 291846301 766534581 112537442 505976089 37345518 980316220 416585233 646106274 850408462 892145368 989951268 329735311 233472343 576979312 445286528 114015010 390997425 465078117 342741355 736677251 51420419 959113693 249572719 403798698 359800399 71677853 561083484 81229495 657823691 842413767 577757092 280512139 18154637 740880259 302459121 133903875 711431756 845197016 589754885 8604752 143984949 908272917 985106844 614786872 537014181 795828235 560794302 233634431 529803071 223321913 231096451 469210326 405058833 48244808 776072843 919588532 27922758 53104836 113822120 153780925 48361277 874825320 982254178 800093524 17298120 437626329 38661632 913118349 843872036 379518386 691696679 186770432 6158856 913954342 81274774 429045635 221561849 548277526 579552558 224749059 407330293 141240812 904604606 541327656 683727086 706961759 785311548 300726903 854506952 928185372 533970473 978180783 45834892 418134146 937367168 998587190 953177475 430046691 797036645 398428957 622920222 71406947 638494063 612182012 568842034 343776080 183655504 246417719 276165813 605885515 29544177 458958316 849098658 191839725 386151462 91987687 957047527 469273726 371434392 11946554 27398967 906178271 76659425 946437626 971229940 46242906 996299659 102267427 612761275 339084638 731528893 782053920 431477374 574987424 112155021 390888801 230149114 33004318 284294704 410218381 307054393 704569753 529817945 966064726 479700393 77533435 885061626 147056700 552557181 576579456 734608714 412467524 632988363 949684276 655618641 243802514 692167244 513791835 489258301 581479799 781287457 926144029 926675282 517627922 461908977 402658569 589139452 679315167 405697309 300509952 481577069 107018118 378488252 972447408 300675410 328591872 375732829 109718865 673487144 255940629 636405163 679606065 645471683 347125348 363159217 863556521 993339559 3046520 108678043 532227393 493847324 106749803 671249260 73198563 817881665 982402906 461810372 287839935 914417216 10491479 259982621 115103696 98536669 580320424 629869211 23116710 883782974 612517726 954131372 340308739 444483789 140425966 257638915 448686722 166515521 589887622 130664728 460062247 237332200 882621381 136218001 272868101 943371345 800394297 929508861 327878886 487191390 909436360 115693664 606205802 936167214 21053275 641760918 605972931 221318922 636724975 416216314 537208813 341232494 285089143 248895028 614564157 708952216 523829871 995440585 939643281 727447558 58483623 32240442 642740000 116401450 472856097 863717966 41506232 978376711 792136896 572284975 514134688 655462276 639193363 422945315 445253784 173524959 353547448 563397751 140622380 930852838 566839839 971294969 538598247 765442407 897741022 66909133 81203348 911721551 321340907 993545372 72221803 134582146 910929515 834586310 169420687 548633839 797535176 872747188 923909505 822579634 159858166 416953962 129746182 903160391 249770792 663738413 786076605 109647348 941177044 28278654 7497369 371835951 375578900 726712295 784778377 69097611 750299615 879562326 216892842 842097233 676086003 865512316 702171679 410769087 582080631 2155298 357514240 678951972 557616778 604888628 552595300 79257259 272066861 163008911 520218822 57818347 724199358 979451540 670458253 100640011 851250525 49083485 85184627 524434198 139878010 680273911 555759324 488815203 658198690 941107518 823696430 214760463 774885920 767133341 342977676 457099923 842475926 133398101 706489216 893226009 657430510 934353872 565117985 493103800 919301296 210381257 756807867 560452867 957532748 373273655 702476321 310323742 80306872 170011995 835234741 72767061 353433378 584342306 847212735 783729076 268622497 852623479 138933103 753760867 713509382 738632275 257534825 274577261 368529722 666206932 71537712 717004759 308666354 153600417 49375359 760551424 409722083 518596836 711614820 513973812 581728969 390011517 292875644 93684656 54658372 955856746 889884308 677932982 933881124 347114184 545981526 461581531 355056693 995866147 573903919 364309027 768843267 436829680 462767683 154066519 562495297 134367008 228750782 354532163 418458918 542377470 560003261 317977796 195845933 975739273 848986664 932103177 91755473 372275719 304580470 508569659 125360339 113070079 670838015 448841594 763242570 11405737 676091681 198849988 302975105 725408899 669910171 4117507 579910514 986536791 592816660 990689786 387032084 482512934 362925299 41082500 174831488 28461387 468031411 325255160 206605365 288479495 792214646 590111084 892284603 620094534 879022997 49126529 834089959 317676079 270006586 392171353 949432276 327133474 237288462 327315083 694808143 494609026 245809454 716429538 356053789 163643030 182421399 841823923 143474103 907412117 889258109 184452121 372960902 359506400 779474907 762497432 750729604 696465692 485906993 419917876 764297473 246396915 34295700 515659405 81421784 804008748 233756524 340085095 297997561 946238048 408306668 509218936 303406015 267063696 768842102 780525585 548749289 801849027 979780321 524929742 79882355 112487524 742312977 795417866 330586649 267769784 679820875 957907199 634675930 819151326 413363978 809930009 483613830 162305994 838751517 511791800 575642324 129744096 921073480 111636255 554676833 695711537 863790937 927315320 430278504 586958634 93765100 402702990 258500883 591571735 750128143 51682693 170911139 522769619 497850108 852798704 559346629 901719030 511061319 198500784 180838439 392464407 189335024 830468172 531032047 399774817 505451862 902583852 245099909 79152747 76359538 474054802 230783713 691728847 123329207 799647507 204429512 461420552 342024951 162285496 529772565 569846783 240978714 649897451 308034541 632928094 953675876 445887660 349767126 969985126 738599903 781940622 687434215 538288955 685596991 42921535 771488428 452196813 7486094 249956737 372890480 259425397 565213475 791007701 698697689 930856340 229267946 929603464 998374792 690812165 82438810 835036373 111721136 553796640 453397351 702893670 694238871 462136687 271485332 478896 893481026 489880982 100738380 340651885 380322996 927723595 596672782 482911690 875603950 466835369 399013431 949297640 534450010 344944244 276513470 316892806 709046376 97714028 92166451 448543205 814671656 23011417 460435611 739898332 94861251 462252271 592608145 796285945 398428608 926315206 642368816 640221101 542640929 645135870 510287865 343228232 913491131 179579851 970089424 617957726 211968354 815514249 948811148 280818164 687093290 928295156 826666786 775551535 190946524 703303046 978616906 458722070 234119747 328362028 311868970 373316579 620190571 28074409 312910214 280359072 266875565 453394512 858842389 114317930 802674126 911257572 117229522 324801908 973256754 904918376 356080232 743253278 169926010 821968419 522291352 140132256 631792168 582625842 162386754 463900754 500897971 874433123 174203465 571381455 786442711 783159531 113450038 545536381 819753236 258889397 359164078 467916591 863876157 533867428 645324138 591400620 42304181 896116164 339962374 225996235 632976228 388571431 668756610 886786332 149218306 559714995 904169610 638120178 963591579 553052293 576206491 344236534 915266328 305756272 17478011 445171746 419969286 344939801 222986262 466144535 546855089 334481484 573520382 946688953 281832818 823692756 56578025 816389727 581350943 523134152 489923111 410739766 936924955 907669770 953485797 556876648 708667893 862915408 391747463 324563722 512616850 294227143 520457756 305515076 348063906 36237097 215709576 328793347 210902649 800366951 372087521 999068200 34462442 664283534 49796017 849443912 827096288 907929639 150772361 842152052 224130817 803035866 886124894 643837006 800134974 811585301 812783671 458368123 440873157 611801136 887102563 618642344 303685401 688949003 635296990 195312709 243313578 790301576 622090894 987368702 334603950 256679258 653323651 263853822 868102452 797663246 613664850 694889327 455049695 419717032 959316678 445969053 404417211 769685022 367240159 17903879 784083898 178293439 329309497 725112567 502143660 205500726 964417436 53490389 101385245 288459073 675492253 586735279 956514984 933127014 298012898 426601204 629350043 30743064 722352442 887230516 283666707 273937991 566483943 161514757 942092271 933396922 407902863 291499566 731593363 968699119 655149885 852680447 147030165 359013585 120072575 255993497 730199353 352139429 948339355 938845452 118698879 961928567 354471454 184679808 875891880 646955913 204185030 559140286 476451335 213410181 272277526 97913218 688709735 992849201 203361206 512896657 738092763 693727500 413684868 218244519 163989405 757050324 91762350 619821161 879730324 286919638 242586217 348926257 845948240 634661547 176498046 605739854 316850886 984326278 228303133 129101461 793168725 143390618 564784788 256675888 631150697 942308197 818098768 638490241 394154869 32728477 677658599 538418874 414561418 224816699 430456342 230751221 80281300 48574153 597864168 945753653 385361651 884825134 925053126 204625989 370800708 420645953 35275997 468105020 602024919 530989017 765968481 185326704 832957847 238029610 962312155 123165919 247557633 533184222 58345984 865578972 782081453 570800727 394549548 958035734 166166851 754696005 249206422 771628483 37262980 93311378 383238583 987836077 820533740 582363168 615799125 373540384 496060635 225230270 573637007 385868370 763447150 602047168 224142177 90519171 41937350 168566475 987307697 782607222 892177755 832102618 260223982 289637988 476786865 855859282 722854295 103311483 914944050 5766400 291148484 343751564 155641633 622220001 211150132 19373713 546044976 703637662 163577507 883681975 220293582 570499842 699334583 984017010 942301471 992079499 917860382 59289010 23810226 436783250 664469106 454666507 443980801 67565373 55568698 177479146 917948021 178761579 194811675 276151505 105015204 678732348 494231146 625732372 589138853 913620507 303545385 949008895 753662342 42994467 646931889 912587028 490616478 640881282 801799909 941635226 620975358 233557360 981346903 98778185 303921762 944735118 354977896 487411075 651750705 782153132 32747980 770984758 38526872 823783817 830055610 171853750 407590952 502421204 384229594 102727957 325656674 322223356 884778721 521143625 913296198 379851204 826990546 323191890 897262985 347772474 440306157 954840589 324136865 745099637 114822568 975874271 512606547 846083929 563318929 859617872 549321957 380579212 14563152 106392730 240076544 900217238 385849215 172404980 901992843 966689198 878457238 50214565 508849519 29414330 926651889 976120408 692899259 865023020 574081311 380408840 52869240 659646317 628184699 468643481 109687632 88197966 254943262 855518775 578489763 324211200 326338650 270533418 715135665 348554586 796064123 869200610 265426136 847194992 967313576 961403252 589354127 270643168 604788703 991738653 116227701 574283839 54120596 943297884 812903385 772403798 991974663 177784171 810931237 230210649 399495676 619509114 549895226 290756427 685432589 346063553 525049461 912005410 874235976 434225231 981128256 635931361 310950289 118349220 599562924 493607605 463328766 785554048 307014135 95001775 366833320 866948799 202194525 345161743 70439580 724990997 417177396 353647137 952094488 674956760 262418551 458851448 649213011 439169175 321483975 658487316 564546230 701967339 631409608 813412845 200141045 759423736 185256625 350537048 13780939 974360846 754348349 58599002 238802956 518648330 475028680 117201349 377054625 470378086 92120906 914102254 533114918 97745698 304024538 792043514 753619198 151957630 874545909 597826855 706534827 351307309 976446068 553425618 424540544 263196782 933510977 57540487 939215236 923610355 98571745 633961167 85156529 931971858 232213987 490153561 964735702 265466081 460009818 960055679 519558662 800117366 832754964 370106008 224809890 206141095 529142054 465228698 247912914 674238045 42230200 138138780 314246376 363327783 682879603 915715876 156403527 940689572 381298371 906353476 435934465 463964114 79842578 425417838 135012768 65517098 327130231 802544325 50113387 138027436 788255499 720143421 804000147 41740386 834802744 59404537 646650219 458178767 96524430 201023450 804066470 948002249 719675203 834793762 782823793 278470905 547696657 160422613 469592548 740175424 55693370 774614692 505647633 738435177 427573479 62740867 665769958 268659807 505035511 254306238 538389658 86380825 459654898 332001053 790530226 386986303 105190685 318843251 517415034 189881260 41597148 948164826 810872703 190707824 970924452 936254224 752061999 133350180 920648117 811227569 130051566 751405998 191640837 399843326 498177912 856730187 38839473 957198657 912317517 6531944 272110121 341590100 739007021 441075289 264481563 761230399 97856417 304305291 357774298 407396331 471885886 148703183 878713768 650882213 261188272 244353758 332823243 36273011 468179897 585789100 989023813 89121514 318468601 248111804 162206127 764765858 668305707 50481899 404193199 316320489 558391949 992525890 411930583 388891195 838428515 747891344 728837724 114401985 890223042 265971203 815652529 758162465 222095093 579752065 174403216 247244340 132338854 589151090 487786505 897431184 993868091 315404984 852025441 839886643 717257154 76771836 286368820 948552216 465167291 918377165 865914529 501232758 467711097 491915413 724663433 164405719 539014666 821950699 392750665 391043267 24763314 550108994 544263467 606476825 195518860 799061873 455058505 191760779 546716965 542883572 131996402 221912311 87086216 60411862 827654509 422773967 188887052 484797625 487274542 268873285 866036615 15121720 861113569 956059515 864485816 822445194 693183475 650417023 23083125 93763350 546061944 200215225 794630506 508397273 257075253 219620972 295144624 860813660 473139505 547018287 293012903 92088560 776747433 482574545 542738983 765137532 95523824 704543632 475410671 734605902 971686427 936925236 896929707 462852560 917253334 542610432 83119155 516748413 303408433 328580384 127216287 796588787 731768284 925838991 629699787 283997526 784837486 683498108 417795024 44217517 890867864 359981905 950786456 864173152 6924849 799343521 421268687 507935875 838961695 145409135 257967850 299583003 12616090 624668227 872024827 305600518 347010011 543967853 334407872 188656698 164304351 81384238 51744453 216348188 15232218 120672168 423634720 243359451 870419109 174539845 197622197 7954028 151255703 664028822 615380997 850658304 713023614 244843045 221151003 516578182 809548356 24571962 325581382 127919761 535542542 993169581 256388977 501279913 163950102 48886555 250287495 519668974 483411343 309348599 464217052 262244681 21920609 897474717 260704755 408683584 861772008 87656934 877261238 290014513 412266120 591744211 285217012 30697003 133536807 411715113 260566349 765377579 685419612 782004077 949097443 685846278 859331479 955271913 899470753 756554625 822450087 768297571 4883144 13337470 428336758 426085296 169924401 477515439 174702423 657008481 57398798 905481590 187674209 432100043 695341078 103706813 154136627 90830432 505025242 951529195 14043267 894603948 572291306 70848016 479491212 938379519 674280385 23599605 96495674 37360546 160869734 582276594 108362868 594371255 591117721 307097697 715106921 565634444 344809889 465920092 909775095 322938344 585420831 264970706 256595715 11146996 19891838 471359419 395586806 786577741 624468762 515799877 625084908 624436675 191481728 359885901 728412072 106294149 580074899 60689519 153629183 339695839 856719035 75581062 91443598 99295064 369993849 363957116 685387458 500628048 974632272 849056522 497162396 577909821 877743851 423196224 552319819 177714343 41964095 863461178 894556198 707291955 460155390 188133314 774903823 773005807 686437269 900841498 774549591 213276096 636583728 584845348 944008765 737826392 658482883 999171987 52319187 797215020 561866149 275563013 58910856 135125290 713602775 925699516 721407989 86631196 501856356 595135358 271475928 140817267 560372894 518905411 822609595 707484535 258172554 699660498 131569885 892374505 55652091 705727394 487130564 952437751 616279259 813749001 291583729 182771239 267799538 378945912 58896489 542816327 667453455 613312502 748495658 881655441 961473337 927846984 16015754 844985106 523991038 674929897 50190496 387835771 193077544 24592899 820361961 591091626 404209932 997906718 179865689 94450241 557219408 36427192 96555942 227694577 298343812 487531297 944996849 320555173 583927786 894660031 650712729 131696074 885154558 571429629 7995725 462407542 493710836 337355289 478166371 924729760 561097968 705286472 196489905 683205799 82793777 448734966 352300688 804230220 312888918 504909200 916966856 832346982 381209035 238650446 794494906 187466754 500833229 999313048 533541339 183343977 179480454 194849473 827026105 174566709 905895055 315248279 465652635 364235699 429674524 818808364 5190416 743698275 652053906 236635212 330069844 162509325 105121449 102323494 676144184 34039155 140625828 235014270 31394092 411950009 75167753 869077790 455439555 627813887 924193939 970340385 717566633 699851520 472226871 470569333 461016514 589017038 557042328 366185427 626498242 163508192 255199373 922107742 424144416 716302816 613298654 914066006 821276319 370148408 777196309 203692800 285028798 439954609 756343234 980264645 936626884 641927469 31588091 690771414 259400629 874668209 925507094 881142311 118582262 681079980 377218515 206842773 890512310 872810990 476067714 687586332 169313759 70649037 441193729 497920903 461697259 459126150 614407594 808609745 417287982 865321432 772970948 698914227 95899462 141588721 535332741 544162707 990594213 885616672 6334287 697711069 805922362 785895783 762295010 971478396 284153360 951875972 557044599 742923019 200570326 856434794 936815617 60504754 149525295 101634589 929449338 502214740 691491114 413762266 205926119 475203891 599130443 826366288 147147598 103643036 362974756 328441479 953136247 510227860 586884888 930162221 646237124 711566899 590971140 966646784 906060982 311605996 175631350 886213052 453002604 100803176 585738843 764803169 607589357 496068862 134370516 444420383 462147140 228930506 517064682 714451460 160773956 491187755 48608596 776297849 830330158 237272845 26876700 50462094 541649201 53935873 547576775 37082435 999226895 315944101 143602452 224611239 554580571 731968139 909640543 104232496 659899754 718865822 296636435 159752795 912235299 102363356 582263389 212559199 254206884 320183607 148339744 792097598 773328520 768814512 104590072 412115634 433413303 563024722 330828663 487876856 648315109 603174831 848473363 759350095 12705650 333694387 742651645 918268748 837021544 453433491 678935384 17617221 99055611 946492637 284705437 659199950 546257389 843304379 753788111 823542750 37148319 208422808 538018655 216852743 370581814 876073202 945552640 947957708 69243558 464845308 643184528 442716629 156472374 715131853 327321960 434110899 458924980 607394210 807181171 616122975 981774918 135611560 445030905 698091858 428521218 549585584 439423752 356859529 93668514 298417769 88452068 182210482 86783870 979302967 620582740 189152038 69216520 886238626 461257968 499410846 89509584 464236179 396519253 852156648 602843903 926918995 819404615 943472631 14031650 577765584 745725952 128276831 599891451 669613690 33833492 109915824 550897074 88958548 320697118 587293274 61153223 900930702 191817658 406161152 738896827 384069403 268979185 321762301 747799139 842919201 267999800 431058867 925043159 686273941 361815701 365311569 486548051 301264484 597683762 134757197 105373144 253119509 296313709 249645076 848357211 599614160 696114293 711055820 420645367 515704787 845703676 92154940 174087250 53860309 6582171 769017361 336525637 927904931 567268804 91937767 889841886 491584360 626171965 135739204 986230395 804752497 857488298 405628267 177003515 58695971 553761130 195076801 609532854 936965821 108265669 562442304 528748718 265931273 745336721 251300492 396624216 708022485 5796508 108297327 385960980 635686933 342002973 416927934 601888870 36197629 290068197 606869279 711576091 547558587 83357279 989326214 498215598 738315995 40133693 188746683 17992407 953200880 230764052 912494325 450831874 904189252 74610162 231061249 123327000 378968438 690616876 597949757 23405561 11889994 885618172 627500184 588614778 623141941 800614606 795751780 517417748 621121504 641303100 354768551 856615861 291756447 929933029 632771757 889485009 144879920 723481618 931502218 534477569 970344452 76466299 544964785 161773031 52667154 466117536 421606385 160190867 121689390 111827436 223959716 601896224 325795825 459002950 651407101 468299510 494001 245071037 6349911 98940498 791445061 562901705 552237724 657543098 580856985 623362359 624964738 590589260 380023345 298927768 192614028 99663391 755235045 7015467 325089398 898774081 9467766 742147143 118710141 558474402 608247145 964216308 575247242 299995725 338507287 982043872 595694002 917504667 92403886 362010835 69918792 494716730 620406077 73829750 796795953 397350905 315067997 268125654 721302476 311031172 753209176 895063190 602872921 706370612 935857295 258137272 34842237 313744170 103694693 690627706 202894457 265915378 987378851 423636608 998375866 473698024 843519270 35073433 655927557 266219430 335971471 931231777 609384444 174648792 197144118 657393313 263646678 618253206 789519879 167666252 255042170 286644525 123896648 595257810 774226514 420665387 480943014 225725077 117687733 34043377 805835779 468615566 341715383 548732233 953845313 817379564 678850810 20318940 830933466 821878113 442325376 553842710 802615866 972349005 475188823 300085174 578122430 52653904 674444893 135404797 825816713 173122150 741795173 855477571 454592493 87985295 467479546 327246928 930286926 550394233 866236278 345217621 122901431 549528566 892517384 800352647 105113687 847641819 670084806 734147102 369304473 147516143 747647001 464209446 604663958 258900031 951320767 915290617 686279060 78838779 754989026 850599659 846001498 33222826 52491493 615146815 376219916 120475619 648413243 290136860 995331460 936897287 216220201 169131853 320483621 234148255 842844396 570860456 710997779 846926596 28428521 264457359 113284346 256788171 827342102 795692255 180356073 962054264 676164370 625395728 384013478 293248017 285862487 893762869 376992295 117498019 957259940 694453936 634744438 48341784 813981238 140296576 393595573 117809600 422119168 590789869 414884900 87028946 675597372 246476356 459623951 440241736 965700554 915444276 159328382 77916195 923509565 408621669 640429776 433052718 345345442 630319564 497292615 491671244 722370760 277918871 971533854 105260654 148336283 704966067 614551341 998474383 554203927 714942321 952678206 129167333 311139367 146747032 700624886 441623541 637768224 706505100 941372226 403398440 782908338 371977468 350200387 318876126 850242816 975055819 580244448 695991695 454714955 351722691 746614360 512529272 546937829 621307404 863893573 87619708 302051035 740976833 721706252 501292326 822263623 730957889 562030878 954672999 698874868 49677155 57523143 435411844 55661452 333905779 527081460 618340587 512120589 430276411 653155915 858570866 994613948 73934745 491042324 895605317 113689033 803123534 775013226 835920690 41624766 102208610 38378511 927760185 53138105 405350931 881398783 990213891 618586309 623672763 800360317 618230246 255780960 476220877 931736889 937810240 368881797 741609702 855903894 263078544 922126641 629096471 402763366 374374665 420842264 191467050 683167302 888840342 652591856 546757905 512340047 876029571 315263059 7107250 311928337 411823797 901950383 162984737 945637877 150367104 963019715 32335789 606168634 307589805 935294907 348673096 888052758 303637799 718026015 266274114 282774278 427821282 629199896 844757135 163976383 986320343 690726462 64905987 318333516 440672355 517160071 740500575 406247649 585589105 779822417 26630009 869893514 785081103 664136726 358226765 865656265 97554407 657614422 6873218 994604730 731449453 538354633 897902189 251618514 321755508 348224855 276108976 877571784 670996174 575871772 721361021 490731902 410777028 317506082 206441807 761807588 632813422 44260168 542198495 200157923 426215666 811915509 452181554 53030434 396455794 410383762 311423126 331286089 328219985 479135554 373132415 903301946 456330150 853415725 163410752 345490059 431166109 947141743 205337522 980042981 528633705 830463932 139239 71964958 930811107 315326323 833781632 814368711 656527621 438269592 115145349 404368848 152152972 840262392 521453699 980191067 484271825 237429813 392060102 67834425 58283053 552637612 570592395 902941344 833436646 330418657 301940193 837661250 174186512 517043338 903910920 610820733 481479252 179302947 431798894 766131984 996009896 97593197 493443631 825378947 342908473 375717192 251863317 226596280 308131776 468603082 440133952 645616869 574927649 637406744 683523762 955785881 859421772 660961075 674794412 763289256 134821462 657411998 299231872 150193286 453709397 503994762 419304362 289862447 664790793 351005970 485450577 141954376 647674446 819477870 22540969 255014831 661263629 358121711 222354394 288837594 877354392 402331528 517410631 205512384 764507477 949253908 965774774 906568533 237435660 55002620 114509452 455890388 778928750 12339901 909131285 57151729 631709428 86983220 202917706 918426204 832136131 874819380 125707799 316825803 633470960 685023978 17321894 673642115 129000548 681645246 91741686 840091231 42955826 15587930 65273005 9651214 834775712 115168165 694733703 765147590 602014073 690766625 976407584 51851970 176322695 249355411 153279942 880111429 35996072 661636696 92127661 391355834 507679609 21676417 209219531 857749072 516327959 806699995 171641709 349377593 790386691 883835079 675196294 770448192 271728763 856531800 602004701 85909286 606121783 215365713 873048168 855339671 372242086 151842106 32465792 878501064 744511285 921210918 972213804 368581814 359640917 209251021 836193070 381257451 979231809 23279105 249369897 621289707 789792677 406026644 637693290 952653834 273259537 368795545 253241615 170315647 30755217 762598727 358966422 829448797 701875009 267519049 547298534 724129012 596760304 538919753 819815423 423395567 859785528 521650929 464213180 779010846 921264027 623216825 266740472 292648159 997614124 392702662 267885275 162363002 39593677 95064984 798272604 812319480 678767948 943964725 772819441 940491017 581363395 589632346 886328296 785819260 880300896 89790652 943086031 993771035 145599246 228509606 858282803 270872070 663625580 743512183 927858938 587896438 583680330 527320613 425271996 322151683 697889109 770803550 986579878 584280108 979635365 138182511 992041127 527825113 69409454 420503324 944749539 80790531 25813477 316232175 469526855 322325463 26398812 834646703 251900504 25521412 759822421 77240699 639313370 99895403 988540267 545768930 542314127 97697868 731332659 165348365 211089040 991872289 339778424 374095891 585274955 450974791 199742852 199388279 110579113 586618603 628538368 24003586 114097543 342862554 285345031 758620975 181274542 470149394 191371827 780338283 351015507 298855565 186365113 636038923 29644296 880802889 247663277 265583657 312120065 273312270 909103099 455772017 355112071 334830553 591701778 567181967 164596331 598801698 231755603 159981161 839292423 368043925 865176501 795546654 791361642 417037989 119865317 296964358 604085205 255466552 971913435 574388352 449148267 838402422 436971375 374517171 278167324 971771051 617160096 394585024 999297469 28399435 223223496 582530606 598794639 320818171 128430906 405067116 965155694 502647924 634413466 476840816 395844185 718134649 927789426 685882727 866035615 394919836 712893416 262554475 99486043 323248498 361884060 84413580 837877337 737665399 486334503 435003226 275940504 676789804 720724422 216323211 916113438 837314172 32410911 497800963 849113154 925140035 685304806 929110717 228209578 526477255 746554138 406079791 777170309 329733951 840395500 344558501 194063939 349806518 913863618 941312481 568634308 964473384 579121000 487944494 393698750 368928139 818657894 889867717 363132617 625083584 462152124 143685506 471268974 933343715 772832532 224583865 109521419 961858054 613982956 707464747 249843711 492382898 676990266 494940489 907859270 744243125 175682970 719582174 809620585 760753546 594553128 194818294 265727215 413521813 506223585 483746823 672944304 64308795 677863201 991753534 933237017 438156719 370422817 233785277 760646618 24119782 390439532 490387381 182967504 852236230 732968744 534210 731268227 268579486 685812467 127079308 507021988 927918313 646241203 286874050 198970154 824463013 717317026 339423693 960459158 855621740 955513143 256656804 313565766 607540931 723665621 130434305 427669948 523707053 647466832 740508895 301625709 228274185 603219366 434680859 976595227 51172716 335058051 66421099 787088541 15892426 96139319 302811917 647163321 19365395 125590947 382424789 183717982 1563543 451645100 849603233 662277319 903829440 873245360 146755722 378270062 865548574 555587452 861864889 284660052 816586293 690099279 448067267 826626794 591495048 858331225 74878014 98930817 28717809 468512520 622580162 722141198 884441922 181379913 433962763 455998033 570815345 208693546 439196072 994734096 982058014 267841646 204159469 551218552 898413408 928829382 475113897 219127733 941323019 869430838 113561198 150376453 523097212 339325921 754563656 165424754 856304757 605922716 872006965 374606620 922999593 103566949 769065050 430212356 348526584 115152677 345297156 726899003 100744688 201102609 956795426 496287836 102413798 963835859 462537883 799437505 65273366 621024828 498812885 185614238 912671449 338589077 563331196 219131592 546688381 221786467 393191050 343975262 543818596 561545891 945845209 322288834 496251496 485615927 543212905 426745536 307015410 796059050 721849568 526501868 495699436 78610251 121205441 231367982 112765046 435713918 618733339 792203575 663340630 613399338 432211479 724555959 530435194 513961735 580246500 151978658 182862363 150474470 840495866 90457916 542174434 605762556 859501997 388152007 748158666 684088038 257026976 333712392 674104499 696460152 930638991 97966798 850374544 451041624 182952114 50956762 554652418 716825627 180370494 718365671 407489511 676096130 243264236 153268119 923385768 428699500 714556292 971604956 679117201 636672776 668113525 538148177 274280020 809664489 222205686 358686995 146417126 380082496 92957507 904085420 759652044 810483516 411754115 73872106 447167958 108643077 479549838 761775873 407551582 752278758 337508178 222218368 865004829 43512429 218395786 944955852 976245714 95405850 635061685 585656604 444259366 597837091 974492369 420576906 859225345 850847056 511125502 612084952 779348098 949573951 149417407 198188650 843838254 965256446 740047261 646490750 747837737 812850027 705791935 273660079 299436743 764752511 12044670 562767591 878321869 873593013 229279203 784304566 25991696 357247625 362296258 469584346 322749439 496057935 76096224 496291902 350030815 142610826 566560842 405948539 218273755 524691549 286541975 542054553 174097409 699640122 187599258 341117866 595485708 443709098 450458185 919167392 372248227 953212622 243076405 984686352 642218303 280740776 532488971 581975339 256789975 261516873 722695253 951705531 685218579 188579818 701731753 714233930 171044906 816434456 927768216 579873328 328847087 125132366 378766664 723549741 625725564 850747660 443417673 339390156 113699929 976351646 98888280 222151016 874845100 930123735 233021769 746878155 339749559 504771659 258259967 439174989 116426006 962515028 156701529 903307682 835038787 233362288 141611514 422070342 375197019 885061396 237318402 61348612 710874868 67379529 799302807 460103133 545287919 702850244 449493343 433695033 518109649 306875175 125469421 713906289 421863578 932431211 725035259 713363736 58268418 154820430 392902740 436171286 690815063 105681410 307832349 389044352 860273349 879381694 593597086 36886370 729182087 287353286 944435012 517133982 819220447 456497662 147030471 854720900 566952203 607728999 20980729 635425867 285884756 774935218 7533249 399233624 520780079 569370758 446118351 103461816 519436751 564624210 752049438 216727923 941183327 522534181 219621389 701112587 816831848 868367317 262517191 560869042 90693313 979053848 87067483 169050261 886250569 608459199 362751786 20490258 485527397 649974703 951199966 656845149 117295948 709664020 119688943 70238447 820206579 278435609 712238139 631076676 417415930 387926905 416871525 103933711 705340069 846878581 785187523 589177330 408522731 350039946 909070818 979456602 354221221 80975685 154838063 874192745 463847692 106999942 476309782 696155840 248108909 686613609 530438212 280493304 177467376 868537790 325265208 952357270 833713221 295358151 92288097 99798979 273227721 88377452 465999379 907988844 725825796 661159041 825507314 649210048 927900512 625261023 857385525 637375556 815355463 241305375 568228583 982132846 102773523 846120055 379436929 32948245 456741063 156076836 975313386 245885952 153859637 465831758 714773319 73763928 390010058 867557965 377355621 126915535 535069263 334884116 765771170 144649021 516119449 252511774 573251493 25949042 523100572 616598658 189097760 971969635 407470587 433204449 919531405 970493350 255797619 458296714 158491574 128291565 102935186 535325808 859682936 728843466 185200745 573321765 293920131 329990853 263402131 6296811 912410468 847252430 414824484 601003277 278763134 330218135 140649500 515874264 334750477 508814412 86938361 9869631 566492221 214415979 258629923 898957143 201542127 452885250 134140790 805286327 854411007 641646984 619757230 256852168 533137629 771437291 800537600 123535756 545046368 686891610 287395421 64326834 763245902 648292086 342716949 824751654 596407228 729333337 546730044 682926631 734650952 794889525 669642090 43521357 952123274 938937560 534625467 933324801 617037556 857040822 689244770 994139115 961712380 101636484 349953159 911364528 971154067 246326230 840406582 475333878 9848644 568973447 754265682 84223736 71563661 46744910 366485094 996111821 248964397 13809349 940034625 487578200 424552816 196939464 536719276 762169033 121890938 860866659 197692275 145453589 405105377 242471514 685790184 108334624 615997835 285893364 952780670 711354132 39937507 287620248 983867916 302557449 847479106 201558351 976596290 980594285 86120684 706597527 401532351 616236724 179020100 240476067 334982937 313753705 223633094 261018788 503561583 679764860 353419876 46452776 763503830 759025209 975950947 964251509 712772554 630532177 719328128 789390486 712500250 162718080 578543302 336939661 479490755 748428689 428099733 114962962 674783383 238713630 177825904 797031044 523780279 465674740 74872209 5618118 331829417 977620178 374243689 499986179 199393271 521469747 878143989 66445312 787996230 556199283 808397183 859618518 832822232 666562479 431578830 773484218 661343099 608563116 505208583 815809637 801917840 924881735 319616974 323317300 761088404 153851930 914233580 536019821 507302025 691172061 807001743 279099692 212309757 702897194 563175540 720739127 690724369 598117404 179465272 192223637 306178653 924158784 736541896 674576618 15288069 445259489 645666477 94206991 487712471 188649898 950633466 575617647 465853856 942889812 847380912 485529142 919778995 267739517 870120986 391485190 437164812 258700079 437005002 421831785 662055855 708945376 784147622 261589780 851166742 978937856 207082954 726700636 59158750 379453126 280074123 208455662 284953869 907694090 398122123 645145840 443610671 471578263 967324785 252104772 478309265 12541633 1225050 117163794 855288533 828419735 406451146 605796807 935384540 296518384 447836081 224735791 723578065 451914723 28959357 646731128 617529817 48257492 316146758 610976583 69784281 789269739 300331454 887131359 134858508 44107131 527098627 877474223 111262406 498230344 614258188 324751056 772322558 830317657 217530029 13732423 601632069 772134639 101462948 88036529 738517488 272251908 418776283 535311977 450131503 403561689 4994857 163975803 697184305 248051915 622325662 60545249 801708134 531546522 252658684 696404030 62235704 430152730 208601664 115598344 556891020 297490704 877748951 60527479 321016053 55957234 417710644 471668468 562123504 999170867 795185302 185293978 667343157 791338034 523399411 466713541 205775181 416799845 357705991 210995248 659829510 884295980 894461457 888871148 682861515 699425379 70124843 260710818 342389618 843583909 480721277 936107270 485102640 291913196 841797581 263428651 525304588 528255391 384739474 751370527 775745033 772069320 415822152 640111166 796004028 392453046 304356472 821777070 787089659 841253601 169733589 917730597 181858270 508074346 763666676 516812916 993304362 624676691 463605383 431503200 390654387 417388805 550185572 913081354 144065009 773689784 981113238 55256351 213544263 584543203 479952445 11138640 973525135 799958111 154414 934714615 467695124 301445578 200313928 137252635 729038719 110756678 8928698 465690518 186623531 6751587 810462588 402546298 815670909 757823826 527033211 527529776 677414322 765637179 622262356 870507742 467795894 871388695 507013721 567828571 708926492 670911423 806241880 311953786 594483213 109241459 912941544 659795140 617456269 118344312 43940080 308772549 5326264 475761567 951959992 486537905 640503447 298316496 267024808 942014687 759109074 350826847 58231780 52427659 550226928 970846706 360905520 704582454 968860551 660717120 952061754 761546676 567725652 503776651 196961840 462486344 50873859 924880828 422217408 497499533 585409686 586174548 950694849 722237761 815560206 540619641 63455165 933884976 270339947 957670919 66799340 520714160 752661840 46031056 316026896 315074807 943048850 750275899 718606808 579897478 518662294 317176937 161397952 309899426 319496914 929436825 717158325 827227982 978644650 765772213 303739897 773707951 967216883 301943194 284016926 471710417 78122914 544567938 375070794 165336685 130168130 564846741 325040487 254374131 692684823 561203286 110788850 381819057 970808031 572851502 282449463 445178457 293145264 124893186 212830576 820077980 105502942 316977324 993642931 451913184 503199292 16825504 6248236 174001929 873354643 476705002 783202773 570576803 546046609 405446609 760298970 66655706 257626925 439709848 117706475 227309881 177765252 198906621 520383448 22528224 796790686 483631533 747898590 473474271 881543568 443216779 292750346 207787293 576749262 812116969 427665473 819769934 910321654 694240353 611175313 829952771 96105341 587632038 787185421 484376293 840868824 944813854 576817187 64889931 204301088 208844539 215326593 853138459 872818599 623275110 911168157 148297830 861636031 808761147 690406429 951332401 979753894 742450678 337245638 137756767 457035103 650496605 39703463 877600318 42771366 690745139 348049599 3991439 415398054 491568909 321454515 450076386 469008646 441563345 546704332 684352574 593684301 290962143 150705715 177185506 281984018 276678582 54301444 460640813 392237748 509656986 127843860 477685024 354239390 704988712 597014609 868652679 694628562 880281547 277371558 83394594 733257241 62282560 813560522 777151810 148014168 331303245 240574407 236723546 327707047 481273059 482216475 61672228 164635134 258971032 606324525 813185825 560576601 920469086 273706679 851068779 90104456 663885394 34067780 413261853 172431140 588593922 688888857 861688394 642716886 907881528 233165746 886127756 910069610 769947357 397908609 61430400 624457208 566403114 480166650 214331708 942306286 790109826 833610886 500587125 144958684 384573449 634461794 695515372 842776244 683377704 856641490 691254653 355169380 787431079 153459396 3211633 594888568 730180011 175383470 482121608 856691375 566678111 369518715 728224022 656950245 739281742 716396049 822773471 650510899 691869127 174080944 233778020 103139010 618508114 190421934 697800581 137241179 351513082 926657443 785968138 677297284 732473737 123136296 364966543 223361221 992777628 33831708 108907421 429434708 627008899 354643009 881103942 784420972 50022324 237206383 226874319 448717931 718320023 301568423 460303008 721787795 100983793 900868925 846895261 167919449 410208649 907526459 396171076 373980624 501929729 240202646 530853476 520782108 926849955 309206185 348742596 425997210 480374208 55516657 726790293 482228637 882879755 811733931 302146842 95952834 830052354 673746166 377212401 266208130 637752445 758324954 590701708 851324256 84417459 792244483 634845382 308410409 762718650 346537473 176083680 666435629 890886946 375264457 22615779 176960250 54311671 921001736 723959777 701527438 991191029 555918319 681531654 602764860 53758591 695577522 975311484 545472341 673815519 197231565 270787689 572860899 889508893 65691278 740534251 177804338 894928848 607844191 149189519 694768560 793485952 274861732 767360906 938698184 533655883 995109924 566828119 733911038 407373336 942132654 876701 368346156 71011026 947697830 173926350 366615466 113645564 136023544 202214133 6577044 993127204 195344507 469232301 555024373 884857776 522812259 182481868 362632899 304188020 961483472 773439440 129745556 898424047 358554872 690357832 593953540 474091978 173730924 861978006 380330412 690387385 896606048 969550117 272791377 498752358 318495806 790552439 109741274 744743657 365300900 497029890 31534828 554721206 531100588 732314422 542964494 240480604 95847603 611759612 528272641 100377124 652074369 129279332 820025461 370613472 705230451 252792681 541153033 87125715 871444824 977561854 473018224 15138477 305897508 384892010 84527602 286436163 165329380 684526825 227661587 470807782 790756551 842108894 52207804 576487664 17217321 865118353 37126786 431807111 21957297 668273668 969836241 222775900 861207139 167770489 318186665 986427324 786634404 197707100 754396526 776732095 52401525 679113241 909762968 453396004 701118438 19509899 113155185 810690124 177606904 128200878 733267879 23420813 273833645 657498521 301361526 917921141 723642509 137127732 395709982 228919524 916735522 928256335 528104593 47211614 797217775 241548341 707413010 161216737 959259920 493931221 672492818 327589000 123825961 202957625 543664372 394374782 167613330 129601050 261025562 980908028 382742638 504973706 101608772 917822390 755391373 571166024 886566311 985254130 783444961 594097432 592360356 621104420 458122870 389770463 374292621 509758452 17866780 108963507 855865661 856761338 995346544 323705082 560068316 434616723 313675413 608391114 289387117 950200650 130597421 850297632 683750949 284395666 202115720 577773553 993602161 53401062 625739369 13240315 559566228 910387051 198444031 73362449 271630507 930920970 6908413 35526869 452563994 473331947 264614393 194267912 456398996 214651731 503690712 721303038 409801338 506342060 323744055 891947405 201888488 117643004 706555844 328098471 463902777 875064272 638172773 75722504 270182684 144501908 500765979 5330110 242420491 65668442 323874737 375464150 465434648 807775881 409285158 482930147 901954792 614055795 640355142 462603261 845089226 49397179 325481823 809976895 469462767 841254832 731437642 879725733 166080867 829785712 4616533 22702652 836289566 673393694 747199514 126150666 814692753 783229266 104667249 535959993 937972735 649125753 479182155 358527504 44466927 116897662 318654440 210299633 690296342 703189194 917438947 118160455 483891566 937696204 122500470 737645492 483921540 671065574 280128909 10302274 353769190 69416075 498821778 376204745 52671658 339435873 603415827 778743518 244778759 338322931 195848249 899696486 915904910 452286453 257916358 854713395 514659064 499795093 887100852 835688876 878406 338420346 411692463 602509586 972587811 168831691 885728537 160237480 860678064 899986294 92509150 512479871 801875520 448706520 489549712 579962424 525751191 780782494 801743551 485197824 141599356 196503074 488764336 618810741 284275994 632372245 40153033 680489004 462390116 836645952 77461361 82829419 643683084 179726711 532077992 252430945 652489609 5117783 446569125 10697076 360388792 787824370 123856478 399103473 882271739 342568105 213409805 92189058 523469293 658503179 479006652 123662354 885324844 686519281 504417663 207259894 75691921 729043337 710287691 766169278 288434748 757896573 643313618 286921341 517876981 581136831 302364508 838500419 759594333 320940610 251434015 879698755 146144658 719376704 480335514 313227611 798825085 426286902 809985733 675323112 913335468 918216154 712073231 123108070 185516202 424695701 371270284 810504566 949335841 580599428 359104949 386282665 981055213 790498680 395274797 950115059 565108631 246627601 276571566 849377834 317241801 988984107 517802432 531307849 695440494 313463361 454383244 290262227 865049896 11387118 902483287 733435040 548965103 118583376 733762589 555553250 375263246 346363632 192983978 439988654 201061316 716639488 832879434 837429362 270572069 655226391 555079624 222704083 367197327 329823419 382391073 341986783 754328864 766941580 202748513 457424160 335457155 361766099 766410869 845865733 121891740 19711854 649964878 989777096 400202584 79514024 266451887 133276835 96130419 757059572 748397128 455144768 556531626 599946707 955340046 384347472 544151915 163013070 121912749 207427990 672690075 711021377 607427074 734385644 404685777 337672837 723964816 829462126 136182384 48499312 464688699 828710881 271115396 206703673 136291952 595082895 925618517 700564765 284639402 591517800 894776459 676217478 543805105 89271113 364511255 342258460 324640023 995858576 358150892 631043857 42364636 36729713 596115502 668273194 959968830 884270838 262796304 116319395 50513239 820699298 884509226 163834949 295553150 939251088 357959501 501891091 945875821 350415634 54289961 775543567 814621139 900466093 970129609 65041421 756324261 282997469 220922915 693924246 912581924 673873347 461276566 623178149 686329014 905623439 105718225 626188663 817463768 414753455 400643378 21915504 675062069 493113500 578417732 217022344 419203203 969479775 446821897 22416495 551492391 153598644 465809959 332121244 264012140 610976718 219489160 409927419 859650231 639695636 396863078 982710320 389643905 642678946 227145458 2876606 574484525 4913378 402942171 743040216 848544128 789622705 338826767 289993042 608052693 310227604 164142774 517299638 710628257 192971195 361417378 131015592 392406610 794811602 733526661 302029996 417612862 819385093 808885859 449614014 653627186 226564329 754077507 965462379 15885374 727858138 568109535 759456551 338148334 878527398 673566965 736007208 181986348 655604176 761884561 131106406 483888110 407069834 54137430 164388656 684689119 642261335 532115626 380738501 346247672 639265869 891655467 96280149 693603080 906154086 581083917 896802636 859264492 938533779 770559210 51269836 510142358 247038394 415957605 32549674 57615762 499330314 636802114 510376415 382291212 633028011 552139429 751283333 730171866 446082601 204830222 432675318 750899353 225031927 697253461 199333690 148673145 42350786 93537799 441421464 203868676 204444294 274190368 167883685 274562105 432921482 447694698 825585341 84006873 132374821 67164490 383489850 391765935 247438415 511676783 844465801 608994592 68916126 792860942 935682207 480188885 537500312 686398670 426971112 557815315 612771252 323923527 495858053 629521132 528861327 27846594 100843718 86715632 426308487 472004198 550649449 146524869 132479480 952992788 297148766 171300407 847792577 800352088 257800926 883440949 798630053 769075183 588811225 403969063 469467361 917230844 983536008 119106349 472101678 349255852 487207689 197847138 478195259 363963280 858596091 958602000 406714126 965821854 456166670 817496792 686543264 458280316 732721280 284774177 280993861 497952723 966751171 240359657 441183812 744682901 879657591 535189320 216550689 432343097 773320257 886758006 169167802 676668916 167277044 882506050 451032300 182755170 201680658 48355789 508445801 189374486 856806195 333881707 603258663 906168255 846894392 944554914 653311201 693945616 970914885 96387049 895604318 809487042 374292537 83124390 125139036 856578656 831761912 487509235 64830460 314669448 678998690 989122643 46831154 495270468 298532818 131334385 659391959 618504752 811027435 897407900 484399486 735557132 935149117 597665659 391984585 256124965 873513449 43647815 159902982 370281435 815682386 326701190 842554545 274703514 419362109 674698251 87391635 513757007 390686162 891797942 207839097 133373383 447060829 364275717 665503271 349798835 34981015 549566577 679018577 43449906 137936078 715594162 273941783 281493726 680263777 566026223 715478020 122333544 740181703 618859749 592066702 742369072 246584123 591918345 262073549 825639414 812139602 311165597 375468333 884246832 915448503 482865571 585150041 257530974 982779763 571926399 588021074 29961875 985745900 916201929 210598595 700682314 296843719 554303150 53597865 633021655 454440159 169953397 496690835 479964021 369846183 673971452 528753897 359789206 765086562 194183124 201772953 290836716 520319090 294984046 564119383 644033751 741172198 170264394 8261490 768229375 700797223 881560876 482547344 283046737 41505231 47608338 954203104 145368250 516856009 168880299 223220766 330628674 819226862 735112430 78153189 245462497 666147232 995807725 89818255 646201162 535710737 603387872 253699706 684544611 108104016 313206442 196076425 758631879 571564750 700338351 680973537 62569248 802505855 814358168 543169382 103113126 667090548 895055657 745401662 949739622 419994632 908356508 675523461 205489158 442994975 287807123 601375219 112574071 15048503 114632495 949878121 359273308 563025090 231664229 254322435 213180359 239970979 199622585 140472510 94972101 601406093 7382587 20077638 703867209 362439609 761177173 427991859 211161366 582081844 682700519 935226970 591594729 376206050 554616928 304545406 955745035 341339465 998612275 77408816 23033426 914663016 296848486 363569458 591793900 755237632 157167465 980206026 944954126 313363403 843770669 154018573 546840297 53046448 793868090 762513221 309747785 53280413 23086810 76643680 939761571 581974682 75990160 172867687 91401036 478035626 32959403 918185011 342179437 296184331 838622902 576147397 889732183 516994155 721595987 376029471 713673332 30640705 670173887 280387529 26352721 884501493 852037502 551668463 49336533 842106126 6381093 57895606 406350793 268132134 806591843 191482767 857012844 549818147 962710069 775587012 67303705 606479346 953570584 663140330 719063717 770875852 183254483 832081878 694294437 107187381 71423326 46809173 312656758 360098864 676849461 293226746 810670436 239778382 119540292 81304609 358983649 483945240 108086120 756505920 767925132 249131076 535221673 869200851 657243559 684026246 576582086 545865744 980327947 963317046 330546048 885871457 403420284 874364722 404071366 643798006 191176139 313302488 446354353 884783288 221839904 223579141 567283560 753864026 534588750 284943704 611475190 11120403 205436076 968892578 814564954 879038877 242774940 989798537 90689667 967560928 338803303 400705872 620032913 668851 980183004 281274154 412840402 522783721 653318997 86102472 28133073 601619407 606291168 374899325 818685796 36993543 59097338 54077976 350148729 371938543 23385170 784998761 793457181 415852011 876313230 23716818 22063617 629445817 22785791 668659155 675748558 634765871 113385203 444248542 41271210 839917966 847367819 902268631 907717580 116151868 102970219 729344708 185551823 351823064 4586614 463877547 527541244 154285998 910851183 779785381 562754177 73744710 307687872 954068771 196265865 24504804 81649013 825635175 326146020 230714097 673591245 537501382 120269581 852288042 322469789 306543307 792531608 535957621 587204027 952899953 447903348 597665138 516616035 398260976 623347818 943038041 219789897 485781836 988227969 610462618 474487240 520748423 182769893 280171194 868163553 41000683 494358567 237285582 547530037 332383550 444672141 487377101 813963127 253412479 653967170 935289245 677409385 101151091 826945664 972339992 921287243 851311306 771023013 513090347 451653955 841021241 103389171 441338355 843441307 110036492 990600035 456366683 479457821 182731901 16624963 326470249 396632299 392505515 222342953 216757487 499674962 118265856 134138920 563690623 399194775 926202946 450370711 927071902 122292768 7848852 231183280 858257046 566674415 24703904 496435690 47025616 351241928 488428015 200673815 970948632 535841540 876877125 819947221 342810506 444917209 47105426 833390856 147571044 352756359 604502755 287306148 691000800 855286304 826436994 553028152 560568135 903882539 631636392 674205757 119708275 90645292 670534573 317797508 78354675 625693580 345200667 976471992 461424557 441289170 807802772 665324246 948290490 797671682 709306105 321851900 684699417 528422382 170324075 368154245 680585842 536573640 883303181 171690845 62468411 373215932 125550282 62525254 40931855 246090672 965205691 588831491 22161396 990529508 498259439 47431524 2960975 463528814 568764452 709499246 291663109 533955710 316283566 446388003 793568591 691390251 688093231 361721172 644329317 342879370 106690207 42966878 214959006 467250738 62036560 380075837 671585053 719080788 910070633 563981598 941922426 87427671 147137417 499181503 154569990 338012562 894167356 469058361 622266365 981580022 520778793 601069287 595283732 355097217 240987162 759815252 259053124 25517010 825009725 871188104 264643960 35824128 934342726 82964479 425311910 446626605 236989870 246547313 707647117 297569926 871933052 668356196 419540362 986882363 932956091 299135127 193013922 459957857 345611665 928305666 846199765 851940299 446477669 808526053 565741178 394120639 269742494 830275739 2690501 195258911 810243415 504166019 132042730 234102442 75424159 422255741 305388106 392509197 813306014 300899592 208275309 250025646 236952910 216029277 196599765 442455729 548173462 102037178 418729375 637966531 927952514 607753243 182299628 63794410 379913823 387880976 477348026 718774390 768582771 513610000 875165883 424457589 537708026 932200084 482219254 704360207 680280622 498837166 495830917 243489999 309279143 965752489 472418306 965483985 972082152 602114847 251129518 303051755 368485591 164301077 728688142 844934564 161876217 651286782 418008363 665082465 310077911 225691013 614449663 966748032 403311303 860114945 496539381 262324336 209463716 137468495 505045568 563268105 252366661 932084652 114073551 602700596 206827397 182272057 462603876 559537322 668675360 753594102 211256801 193553231 248539954 460229259 3596065 875903697 895470679 350273692 763736187 220983991 503428018 326655673 604136800 337645531 303821044 809927933 967500695 495124959 604718022 813392613 108142317 595079066 114766839 908054812 540619183 23523850 793064139 118550514 240638707 89787750 803119149 390030392 137337920 178294799 240749872 670980660 218466684 564524689 519938517 719554994 835553467 784622346 813581841 430587500 541669209 864490619 954454435 449085693 645000621 114439568 800562155 217905238 125695178 310925764 718226463 362663865 296377199 729794625 47125802 863164260 28459329 797959990 141151913 548688717 140016093 763270505 457870635 99046808 373239942 903683610 828869758 782018419 935289958 866524597 726903186 792121977 277041672 479010035 807662211 595038798 291149427 172207680 915748868 762770519 606270367 812535023 125840905 382157142 760141153 593578061 704144081 296981037 809203309 787444330 396891596 5999033 930004861 305680344 313068372 254934443 818935054 787220294 853317549 750191166 586068573 111061228 49216322 837965678 896690342 317719008 980798330 267830247 924755869 204967895 857643592 713099079 227987801 756660925 936022551 177771042 142091338 698577346 553340033 968072158 323661476 947260398 121622007 595839799 443550946 434730991 901972072 47125555 238872735 83897795 5416511 988623980 766433215 286901070 971988358 333773369 868406949 203833559 853619547 652392986 314446407 300903111 714204217 140554273 252750645 913956183 914565732 970406932 74494790 694998799 176629492 115196111 946223467 775313029 947357844 227314754 538922010 493183013 781081820 197034907 908902343 326057264 242242451 805690127 329583696 265554322 419161830 437117114 815533883 854146147 457134780 671176306 605408644 515260264 28835360 392671138 10340453 808088722 234929085 497226033 421995929 661597900 374033741 305000527 434404185 217611685 568373574 159758314 8729455 27356586 367250558 478040563 901116730 820744621 307282188 394657252 546159163 110801602 513113463 727079302 323541337 588594977 215068574 479658942 612078820 726043660 253376847 960436834 350908218 714781814 948862638 643162622 865631765 504901825 622207796 639661720 788530590 214858608 453956888 995225460 853657226 206035761 720960636 629038295 82556577 449510998 311537492 963090477 137200574 371953716 641440602 215171114 275233469 37265534 885958060 329111940 181497249 805905150 754527956 586170423 623355809 777072724 454245756 753167574 307786821 286138744 377004467 451109614 343003567 44685526 777948327 667510606 756362897 950426538 900366892 845050680 646046512 220445369 295694474 569317966 140596262 306402440 100768401 128502421 235133058 141449363 505191510 500108434 962051112 24969420 438808879 411777678 717480012 475553479 18972768 330505207 178660070 718200385 734610189 18600749 900539678 810083942 105316004 965236400 42312987 689445635 774292618 236198332 316765748 36258387 810313264 108329016 889798065 362749536 202624350 761675262 432329217 97425032 3540461 591642540 856305856 205775856 177290319 585522401 756360591 43461698 204121495 398487362 766707307 817948699 760402373 143299365 490913704 629196772 568334092 46509914 229546259 157788441 604424394 759269072 834114313 482331320 410064458 619360149 866824419 714250661 441300363 521522858 374740705 750174978 301400722 196585625 133493708 345653636 159629948 237959527 359463266 39849538 679788557 46742093 789139277 554482249 896687066 711216077 271123918 971878792 784127279 818619883 987778557 577150935 480275932 530097752 476769925 124864682 178333897 526156425 944422100 930290075 750166630 190911233 834866644 990403585 521284041 954807856 663948306 394437799 641334570 634097529 914035384 141934520 537740051 590990505 55357217 39108374 470119972 361147653 765635416 70249415 602277086 764299883 744089883 372312132 685599925 112909165 908365746 148569869 199523503 131853424 38085944 176041404 855220334 151233294 733585131 728594583 213023078 191757080 346087401 505776475 339609010 826871263 785515910 845761553 532942578 938099785 497287388 716901113 850184457 316367020 211622801 613189487 979129925 332566681 758067444 576847077 91845731 487692575 83558919 772431881 459721137 303906918 912447589 475135209 49209 505345079 540459538 455831130 200581392 393810422 69307093 918353051 18336280 402552258 367399275 815462360 329482359 647998385 99871510 545860536 44187226 751020761 475813447 941194477 534702834 780482368 472214406 996253886 581804749 37606905 184172653 498310952 475693031 48424875 318794319 528543678 477573371 949138775 270513572 175801809 389239467 942369273 756491170 656925309 441911960 342949100 277466648 177314015 645062791 463826233 26676174 753561345 345063422 659988885 40600922 718407870 705306755 38281832 677566505 632430609 207721462 367229024 855709961 351035989 178194505 623503479 231672862 65168821 138064116 597561349 23730153 887929113 538643904 267081522 608931115 948541105 45058766 715585143 158754978 380797286 790138757 176132727 962307724 735316080 938252766 401908753 242454882 99073121 168321376 901789388 80714852 242276125 694714092 289097380 861226020 831916966 991288667 155494421 438542948 371722606 798428473 848857308 105124207 521401699 858427135 769524114 598983449 55271305 647520016 292851461 620273428 503520071 130645295 939501938 657359184 62236339 927775096 656263048 273271268 744156523 69730376 600909374 905286237 329649891 772130612 983737098 578607428 457203346 945398505 433154329 627245248 886879577 338196055 289388913 617476144 688445595 427738995 641433807 465207362 480618733 124515771 66947400 576988391 104894356 231660144 493372943 437086300 708334265 466327928 462091045 183684545 289423198 58453143 867987449 508668023 815827092 591673559 164694000 222417511 607001883 770264210 251623343 167237973 745654000 114658742 519591933 547388318 270833039 759887703 294149222 441059746 249351106 560109310 176008768 559306376 386686408 464169030 27647693 151579132 947572247 345994377 154534549 997200000 411220145 758676869 66302437 5056432 81566759 827539900 556320514 406926259 983936425 620829247 927970637 110278483 41028365 894411427 239978130 921011380 961747747 845325425 231574380 730389373 905167010 879563929 680992182 799880840 357200592 706922601 938262097 524566962 86299388 681667188 620396735 222419977 747517248 679354210 554171502 628503337 872545582 962736915 626726919 257999724 155639362 736490786 580137377 108950336 99528088 48726163 931978331 977993470 131732700 307857601 960416734 211686832 76888133 273726544 661706079 35983393 282075343 80384038 956914356 128778231 912587373 834377476 102062041 767667942 16718044 887312311 65535272 228355140 163656030 306447016 101573215 758471646 119939042 672953021 66220723 81759059 821608535 593480844 690442252 458156636 488592660 991578190 987645033 852650415 913195138 139530970 869224270 188773971 893353074 450869066 439467336 643625801 152773294 51861232 505612388 946420206 307592532 223373990 591592067 303038209 134653936 989279177 344787717 831557327 459115780 808953679 940070958 643771130 445276777 956793128 590520555 816827058 548980771 950108832 874999977 575797821 722913659 282006402 12069910 907220496 352282052 264030961 808886704 731306632 935280773 671033368 249874683 910911178 684942300 526844813 893040813 194915146 69227677 980394596 304750572 164580550 121972014 710370969 288059895 471384442 700539070 62081802 153704598 552233720 529885261 137563983 642577094 65598392 900390648 792212737 287921931 338405840 451056370 790978190 267879840 549679864 212526045 876445631 17545942 419466332 819578678 732710444 505757069 303201472 358776301 107287648 144387269 810039419 187630715 288501157 889316632 37035688 520874839 912599231 111213396 850178279 921071277 771059493 81134235 402425180 646271685 567840399 847130605 959500198 93708618 436648809 258521375 101152082 380043907 964195879 613557974 785982139 531466021 690137987 610259707 315709298 409046828 707368878 681427120 111632185 648565209 415209771 718394727 893022782 56597671 334672333 69128211 640187587 520424845 454865341 306060027 759188462 822260681 892088914 553646619 533003475 517974653 246284719 745038790 336126117 660397513 233492631 829816805 357383672 834482036 139822377 462521772 896193002 726242299 324021676 303124563 241076959 455691075 479671605 50229269 599801794 944493419 884403064 404987309 224627448 528017508 6611090 921475446 617515337 435158221 488856298 428759691 626078376 933037925 18262212 857776474 921411358 106434168 686164353 190373341 499448349 505684193 125565560 859695050 938260771 903860536 77768372 653414813 90706152 379071186 20557656 339673066 323624426 884106097 115045741 20257917 841304384 913170131 966227494 986221782 923083219 742443728 758205868 273287972 442337164 110068836 581020199 86787949 695572862 463902887 56636228 480011534 66355886 941767821 844126409 838044377 335203607 60707364 230880492 826931069 543710438 786850345 605085963 974345972 937185702 899370297 435010767 205561897 826290153 88566711 857253489 394952097 488841829 398218409 459302938 167503605 746182497 698994426 915432095 54755175 94057546 957239816 676224974 818707763 163305660 332167971 305895234 586780821 927283456 85066431 288397969 761673634 622986061 13424888 242154382 952442056 412521453 281462459 551348064 333874380 109128251 470856499 727713734 266067013 553468915 915202472 687086094 371495293 995020090 981780912 375820528 924432634 796471071 609795425 869476302 561725824 94472826 348469312 932823728 849280039 935295574 184394317 701445725 797756828 565019801 633473534 441147114 659255702 813409334 449685952 432301313 846673505 326311163 551496969 340324138 557191614 556298551 83085784 173999415 601589440 67387899 471457192 54331828 960001775 135507103 190133814 786793010 703277220 774109322 800324385 422326728 70877998 332383084 775392419 993059327 323341058 787174292 608660609 552191099 424348184 236243831 440056003 225180504 485860804 73489394 424081589 900586311 708670406 521472054 468887898 82282458 592737291 656924111 620785138 462833029 462222337 322400713 713939844 701059532 740958989 982604529 863001928 716370719 148599981 254299805 526069861 571957924 45571863 745490405 261928022 452625205 262001885 151554854 920715502 1317998 322262272 653422737 361668830 448674104 157788732 907196548 98603577 567743347 346020300 409289410 936103502 113218713 629330330 866685682 405232348 723311053 365324595 769662994 249667722 694532350 191965491 96712896 816066625 156964083 777791780 97667633 273161825 784877983 720822132 251676306 799080331 47282990 941041823 663874388 524578876 704421176 422242717 467490781 9430732 20071632 390117939 405866568 368331668 913571922 659366750 770499610 488302165 380033961 284423359 670150404 842168596 562078139 758630281 821626609 74363689 126216860 696182204 378641228 52946252 460423477 520577161 993969967 748983390 666971942 43977473 175253251 394388895 262988334 368966893 809725988 718293494 214723147 147828257 263848585 686409067 240173856 741804345 186540032 164234045 382640270 250227654 402460912 480565171 591131252 482734643 295722800 994183081 755352970 663143452 768867933 963584737 132179088 253762601 103016713 861074815 561055269 965905132 447700690 330449171 101038418 668200687 993054507 168690863 115772202 311102015 477639001 611001811 859419241 798120144 631884845 250601569 203555462 651776636 726788502 995485880 514216764 417317326 765701216 423181133 687415371 159299547 851920094 900150627 93081984 394263781 724456867 595942792 476238856 861182021 194759829 416948700 362775242 862196551 150822236 608283399 625223165 321168030 139746034 247610172 879739230 794665235 435188813 380538544 466756006 356510643 482420125 583315580 496356006 59596440 776021619 714273750 231346385 603004544 174019873 421167281 185682629 803592389 124350016 515595664 728651956 867928189 45152236 796770208 764758179 416635379 330467064 150287213 922576711 166009860 58821199 228803238 384197492 306703048 407538233 966284874 797161124 865141178 273984498 588974155 792209344 80437774 868201515 143601601 408420140 369761214 367071067 114658303 745084175 521554402 278549459 829579017 651383819 432757212 977424694 362116076 467040241 32147576 610147530 266772242 612529678 18360661 151490891 772052704 796117910 126423106 141577991 928905904 194082996 42296476 990818758 64658240 867423399 206103275 375688162 862187815 828479880 935572864 55626909 852275807 823733660 714427176 554814515 203649649 756587172 992266420 301056806 99703104 585630582 970509411 671431610 8991899 941687437 303059758 675013689 947707382 527117180 138754886 492208354 173220753 504253875 475555837 407081869 372778759 579397409 966301764 347510674 813032247 293016120 242990442 878575075 477136183 833797863 460290320 313098304 823722497 408961016 493052568 298759651 15654848 649691835 192067704 525526272 863313385 129910899 396609616 357047469 638567729 600309553 333512651 538736905 116156451 300079113 901472203 310112217 565087733 658565358 711826962 30910910 741625393 808692564 729578856 602676814 337748518 105639410 648397 698415451 32035078 414970267 633215338 683916550 301193849 248229319 90082582 973546958 923797582 449876530 967628858 267499285 236857118 110607198 380823099 217477188 627383762 852283418 394401389 666836852 824490557 827534808 911044576 695527030 906482630 712337858 774819623 409916557 424638524 679552306 199492796 353581665 642047009 851915098 942449801 220951192 556868772 534279627 748030914 487278885 626418209 984340228 494187201 833594897 981762139 161093853 961102976 592419420 308233252 942102344 4314334 206595278 915354765 539816651 953985137 922218875 843641405 511574167 234745687 919013488 176441577 39427129 352238008 499732083 772753243 100023936 588227100 590688405 617914904 611172260 520334195 401288726 709757535 907722209 805229148 622413257 120813016 720278628 283504492 511133841 133611969 133593680 292650246 683992859 179670890 56965716 126315948 769253085 191321465 234985267 635903513 255789265 969172894 315744779 491876839 456876510 528323477 362035586 251166740 622343671 88296626 143834168 341288517 173090105 934215329 136276533 99891816 142393732 849750749 268378022 764763171 738284543 622499016 121382401 612390409 224762605 139281960 317892907 132522590 650785792 806010460 411686878 662251117 371844043 762346310 121337694 635046246 971238364 393801554 328368936 947687073 668361588 491152300 967292601 530664697 526723425 558256011 330441208 958806828 548373946 733881596 139143535 107809500 723330340 72427978 753015793 259813744 680634776 458918770 414735608 491104366 544743268 342205002 729456589 521394421 836093670 359226466 607852038 476386444 814534185 374294219 602211174 137729861 917742939 811129472 332248484 115205128 722956498 218150165 30915263 674526703 955228343 967436565 3520286 325266899 24410079 650134528 806958920 840900392 546292154 541699321 740560537 10824518 548025005 818980255 785969451 821137475 187723426 154410715 608248422 342399524 330490558 978117982 822882300 186637456 101987771 502911674 111004236 109540923 564884771 811738414 936486 690478392 242231 929017346 416180003 174689846 708699300 497470315 393085067 727121943 706735906 589713672 783617794 718030005 769538978 394389311 302228854 513990457 679720853 492543707 605997578 647739834 115353419 652063478 326400369 598578525 589856405 744199789 470047917 388503208 5833780 662513244 840082254 384067922 200987959 652960004 576097100 756085142 459234653 538526331 775320155 49302874 115859341 819608670 894449909 877056445 400195536 858513296 964425004 481944696 996631682 982228941 522189595 183395707 394810556 697496368 36666791 639118552 313097428 925438230 91055981 89321647 548453202 246778496 442080939 369593887 784645252 78504580 866667243 213764400 401656568 164973295 692020768 495347575 802103326 853371948 458459490 735332379 748421155 371639217 732894265 333077504 461887761 619088284 747274886 716145168 706789562 754246878 174305331 503688590 139397767 405726985 969390200 42987088 234975023 821977280 207036895 152733391 492802436 526610511 285945597 516058507 469774076 969618814 381956604 576517140 355598456 237920970 750093071 252427210 970904289 594055936 925352644 94832786 245023475 87158620 790192239 699934411 361425319 104064844 831616091 893636924 783082258 308374043 913892190 110249989 72505313 630358080 811236690 507453871 648917195 997249962 708023526 500950738 311398014 769855704 739107164 953112503 431875964 906533881 523501095 909987498 597885180 853423745 447302983 542775315 420477153 146357127 408108443 115038929 312806835 845867706 938562193 583114096 6166009 804206817 181212763 252605979 150786951 350067287 801450321 563705170 622765264 286368079 63141868 635371456 683454958 96191436 870138533 106001426 114283570 470838539 164274938 303962475 686894230 456872836 942525836 202905154 217585850 156900273 776069356 217474365 725146188 981236706 656851446 550665755 963959343 808415780 928141521 369103441 128802142 684859731 508026248 598110694 804122877 186556989 91650358 727788400 182148989 209310007 318777053 199171877 581767432 735083931 112100575 1536923 83999001 273943177 639289468 553773273 430319772 1876037 443663319 474682005 99148505 120737169 20005960 456562624 323885722 691727846 716500562 702998329 880756828 403928115 513915056 929091899 708969362 178313491 729834869 684274465 540487029 424511469 528738709 992570565 809013791 958108489 489935397 652537773 497977197 388397021 120709660 724907834 474019621 957885650 897144875 951417608 422293206 966712199 733081107 90055978 878055652 387259371 515798884 687837965 864340232 971966950 913768258 227731927 13706160 807102600 526676040 490383236 20687450 746470707 642829961 603640602 712441396 621894154 712789757 427917858 679384205 168089436 41293903 629288747 149009391 405396317 12257232 539038389 153836918 927918684 747136983 799937386 366256836 894442510 182962588 275345513 979640062 506167765 170521411 558788529 927598476 290241158 713011038 697931831 481429149 10487882 24363541 133005391 481434418 505271780 371235628 888860367 757944275 467758579 314427594 851172330 659199927 239420884 233979774 774719118 774639420 759264384 254561085 349536559 287374524 955744868 931442334 646695742 52631403 525640072 412996722 979503384 797572633 514795296 986997352 724508183 779626288 153302039 481356025 725856768 103657553 921290700 419436990 36129048 750751225 221566784 574780761 6349332 960100795 15842064 114972806 562003619 149095923 684117520 768743823 777345370 102256675 673314715 573418805 235366598 590749469 96080443 776802241 128845888 188214601 38726802 766615140 790651735 52967498 818916809 227627361 832956832 53265840 723080886 557192575 545994724 683064807 365360094 378257179 268631375 955814864 128382143 290776635 21908730 912368158 96724893 306544814 746341087 783021250 703844293 141507536 540918583 105387655 954323977 14624926 810809842 979104475 818868265 502529791 838928710 534091249 262713055 864983008 133977124 760338470 208742328 752615765 519508289 192859192 836434780 896646324 207382096 518841829 479015707 979991261 490806393 395361614 680697298 464775872 870314770 440477354 926721453 661403961 370253489 489614611 585607444 7001147 963480728 836217727 127507427 463452346 471951100 83057069 860284504 206571916 100461986 731147817 218574664 392008258 510244144 743306358 197482134 945118642 962686171 418463662 465890479 305905866 466213760 875256492 361932074 91440097 286478135 276894952 74287547 493165318 92836677 440044408 404514033 899948118 342057562 480441001 456362326 320307731 896664269 781256735 181332810 826147779 908150750 603857445 240644009 882268428 368785597 632510229 347709009 484254842 141578172 468536695 233080334 808539154 43154807 115978731 220491605 366698605 981804278 938244277 247724647 247555201 844476256 235204303 290403829 578939888 404234240 357721988 526485379 916522680 838817112 648733084 453995306 768600764 278405039 217830856 351391682 291601691 2052803 88288329 144635390 577870493 430151990 692105277 576580356 357770512 881168494 59125378 306538231 580534082 99435590 291677252 706335493 414437539 958009340 647728820 294610239 721450977 82460770 864214676 304486292 125576784 538973761 906857600 443283635 21512243 47805062 905667267 66544934 257030436 723414403 81962256 740581841 158723575 805119818 907522196 453933993 802414698 678046938 643323348 861131397 507969579 525184268 626826515 538103229 674635996 131068956 503606524 749614778 278910028 69402170 726586103 948379896 779221745 243199631 26602031 144890378 362517290 418441266 309834629 310496138 399705694 602993183 25021441 146137356 257765899 686875810 479830214 759884154 31255623 187496529 36722421 629644072 505427045 252216760 87086048 478735308 5098607 204776594 402691651 359938249 106195455 769816343 871047689 115814129 849087957 35585213 355573480 15600328 751192704 866998105 20968606 820921560 195819162 776618965 584248712 905028622 437558702 646480022 848906818 949275117 857041564 657153547 946670810 513519434 527975284 278323029 859332275 966931061 553426825 189021231 235918375 746548703 993277383 889102739 567420820 998020873 497070119 939837360 853806060 902953203 917213021 751697820 180189998 983339979 476928762 366978937 485525757 811115049 16699814 518907543 921317601 975063763 96441987 612847611 305030596 485197795 773754575 433507286 453324845 36602866 504747345 852273839 684229441 424246260 231178016 608010396 869900826 407878798 484688319 151299828 515904571 676345622 157917925 302033453 524941991 452477767 673130820 308631960 749985982 810821727 217654230 440864972 605099772 515781583 963303191 389712521 176758588 888115676 412292752 713800507 202758809 778744057 620597650 326161380 379703181 423598757 394955866 599431993 667581097 830940485 715793019 946605088 488760751 448647180 385108233 314644150 423634634 578716786 178760181 569774074 44224900 161188891 227250736 202359576 765591760 245650042 237011738 951216780 901162245 122714427 537871303 585336312 342227968 694443 513488047 261909907 829101344 261216165 98879258 625407527 973342609 782473191 989668577 916041672 66600989 188909320 769390818 106184624 477430242 14006404 647508236 320960747 789641887 958436462 438015050 228896951 722555458 152164692 879084755 474704683 535865405 255600174 921877839 12037229 497048320 885230350 140560375 840288872 512926276 169865681 261465636 272106237 751717563 196844324 514019691 651576579 260686748 178674547 535396123 387839733 42691904 885239239 190476724 428151660 768388138 91528951 222871519 942735274 617201173 810771693 265991454 536352360 966287250 459363847 766463817 76012551 815921720 144909015 977357123 582472343 817809894 926489970 933350483 564596826 322742303 993390230 603611544 764191303 175260677 447368490 230134508 764172509 992417542 996758526 240274324 224625881 308395745 901316925 488817707 112356858 72868288 390813197 395869610 62859563 625576512 305175205 187990583 824324836 98034165 662295732 266747901 24109434 963899402 670683027 321102146 268366297 59018957 242242022 651125081 944203757 653962293 872909926 754825559 87154416 366631340 434745808 640991141 224005785 668759749 72114655 10667844 383377144 376289167 208428448 871524858 727388992 416110964 13437373 853677092 27605521 539447990 134792742 604515532 892282187 12286565 142400502 496245345 157139618 328723763 201236524 990195672 803737202 898152018 743256504 103440887 197249767 57669081 766984848 22811730 127353651 575312038 191601230 189443363 478886038 645963579 569280306 569527190 283697495 443560506 402933724 820022750 87737966 578293129 431986258 439669793 827833786 464668798 812289949 242049719 857455470 912826772 317167553 943638893 816845333 38555396 405746697 678996306 135085018 157065255 242228036 760551591 380692882 998763603 918553828 280496895 795067428 581028050 615725708 532612350 5138415 622842323 794803076 275289634 469698180 753939018 934741789 556628944 857795493 308533216 859630586 762469402 564572461 556824973 975556986 830909788 549788453 64142112 946466749 392624954 995902751 397051112 371644580 142199898 976119707 885035993 780325307 164977602 780169699 552584651 314879845 103136151 147583281 501277782 747942109 167493028 565688214 585351376 46306206 263228345 175573739 25969338 802366963 293668450 225126685 652398691 16017857 507549131 757734597 399362647 213203893 78355080 355926195 436754461 695838010 835366712 147129606 788425977 854042366 517762898 614719811 383643218 553273294 510810123 622464516 181026771 129014110 313142696 801453670 294165071 643637469 524876376 861329658 753153801 109050828 695169948 34004942 383258573 845798454 885762723 256209301 907153131 22526893 282644808 853501447 594306543 725283816 364009677 490156092 231176299 622843055 263207074 900308595 235289405 437528674 369944039 20313515 890768473 757276169 647893977 26941265 928260718 386676631 355161623 207313581 448966189 645867176 368032888 627512714 633390158 772173979 840333621 36300333 478763103 105081072 327197151 765109478 105740545 681098318 474651348 603254231 365845814 473160635 330805503 69015215 349906323 982446112 856891375 32353942 601705364 386501963 795449944 321121639 576288849 641028459 793186051 532278941 20593758 477121843 902920034 66376766 235860085 26566086 845768930 743470644 494464700 602579578 692627362 673485326 980039935 392609109 951755289 577957883 499369532 677950715 363645407 791562171 379458741 62733350 578667018 193181330 417494237 131289847 275334075 523400915 95473349 439450918 806637200 521758861 433503163 137570651 768191037 580419805 500431588 474679081 474648691 764654647 199707769 77375458 350026049 612346522 632089195 753797644 782161600 123742512 160187556 525249794 866760838 462639394 986991553 738135693 687326224 987121287 125488720 192281566 307863068 167582876 188125326 212261578 469964362 354196368 735353953 434488359 705284491 269815321 221831416 695316521 998620240 95732935 418416803 712376331 476804034 840167451 143199204 786762944 36316508 395306572 724081746 548698090 587599492 58794838 776054064 619426722 991606824 835916572 961591962 535941607 434928806 371200981 212401356 301734952 181667742 376813639 40655230 650817792 677351076 41633880 435320289 757119062 848460386 629188954 280157648 713900109 199510140 806192150 560693523 125668124 319247661 715696344 91438820 250534884 514613915 659229474 89136348 760453654 654036915 290012659 750738597 548689217 111466144 373489038 698315936 672899266 134810362 291811414 338506268 920768163 869958730 84572376 580819951 953195676 867099832 150342135 684243961 680046665 32129336 107856375 21434773 506586356 710320833 182606229 921124750 24873870 17599749 395777325 480149023 586392131 878968807 983474182 676401501 753463779 284761389 662778551 786985170 85678105 133484599 364246833 899093971 645457883 247146208 883216036 954504765 922929507 879697678 661174572 381961149 411099051 353687169 934753708 334517747 234804400 483848422 991885330 193215121 895411420 626689008 437730561 21286321 944870576 79428377 184249872 178197207 205435381 907731666 295539118 70225551 241141419 8414461 135222599 668658570 232860261 151880226 506333682 451625940 650072735 500786515 862064634 988489371 399784843 153604293 81461392 284032670 64402083 167794217 626154701 312466628 666158072 494822162 41010897 722188097 665370909 753727364 434404229 60151104 743807585 591237755 410861156 766991320 704164302 5297929 492120252 831787815 198419094 77040468 152298309 763516851 66517501 941813044 429612851 345577757 311874224 450557294 306003595 385531199 443346381 617439961 839253440 786842956 627703221 612703621 847933111 734004270 183101892 983542300 683756412 752004377 408782534 404136414 830901034 782474231 76392330 385085559 828903054 444216416 699130037 691229919 981133412 608447605 544509860 326220319 13122201 229356680 713476150 229054690 119511765 41179242 636021082 359811900 320109567 691525173 881951226 403600750 235768551 789092521 416631013 963597463 280450206 835041122 280725562 478562256 972832161 733019476 856146894 55018178 14534501 65258345 302064707 185091951 859886242 842037900 814180163 348924569 529348020 177703808 816701409 916368289 458371507 523443590 121966167 967029402 207915326 808168330 920872899 767129169 589685057 223051360 575974104 996147865 418867661 195418637 299813108 24306330 84658245 431271618 199668352 304036195 324565307 960940649 771494037 310165663 312728355 769044103 729732385 305794427 286798047 216498315 203168297 248108897 364887480 223121555 277100669 972069552 159496974 132190855 748086117 164368030 690025296 239285824 717620310 415255983 849188374 676180992 731118219 814036550 427332469 45539610 409499988 855308084 495560708 424348908 534255229 674848340 206895583 2462260 652592450 276476692 358060539 12388004 128280880 481688603 787027238 687458380 528403492 994518249 627490499 546716638 509125278 727715669 925379023 155184240 580541079 515537928 3290211 631691432 848716169 249425604 232774834 827772672 938978235 416995719 575925276 321425026 37187663 854950417 715214992 23495005 896532049 960938120 81209681 3940474 922753237 714256839 529949157 809781629 837014174 884461821 120456925 399110590 127771434 137429907 92278394 609063444 858690724 250233752 228029292 864728299 934043350 633379668 953232162 471642565 925046276 351858677 628328042 393995984 914649293 40479700 926013128 871671989 475374618 78159162 571512051 374024016 349551821 943097226 560710781 666127759 844326946 538425270 988973822 802112201 424347530 184528456 460239909 672921230 947401668 31494033 738095863 986876681 397435007 249943991 733420728 187396349 651601736 17458760 460667995 836916394 17858990 33342979 212965060 973558468 24830684 187665157 354709624 783959641 131063893 829476070 725558032 987869953 167115311 925446291 521370711 967413684 188017506 733142246 406671364 101434404 472306570 111857096 276424909 911591578 651037272 755942616 134567983 535997011 296007771 442420845 582666226 520983886 679135821 480535625 570898574 368389801 2542397 250051352 626261580 980804760 84858607 855786096 315601154 124580186 239160283 657647412 244217177 631518992 707735637 748881129 522567844 120490948 248771269 551491915 768571154 909343473 962782716 140129074 342786066 827337555 908903144 621381828 755234310 371513680 305298943 170278336 350004126 219048525 826936781 279412373 630347899 123644281 738773870 966068789 692362977 959097220 149627819 432863506 513091228 851047982 786703622 4303130 565199420 680386901 216970742 890311656 358805639 767503468 875095994 990656708 815442790 229085002 925175097 545808266 852453070 562517531 721140543 867775706 505010257 111262725 714339174 772148067 965376104 408361959 354109082 431949634 42750004 38586109 514875049 859515477 26882961 751456398 242759820 154593560 550570567 675186475 188605577 250249613 531458885 739776474 478231268 65261212 417331821 605444126 638398539 660689098 311446681 1713225 791625386 812966883 965072231 876526610 570404407 613881577 919218847 759349632 154841171 721117538 752226581 986961332 132559876 328221277 705430741 890127247 339506635 979363862 934118698 981852301 85737458 848169712 79023120 783268299 347195252 131534659 598628064 34995580 523224897 636646440 522024570 973770620 765929984 429454879 36220949 338972974 932807497 976815248 567205744 236889358 273551466 640774079 29181576 352090288 287515552 109072987 736857489 573821563 256303019 906106932 297534920 583786572 34832143 452562957 422703631 564155684 376878749 56971302 848006675 153930066 46186300 998977982 802916032 372914672 485227728 228084244 809362497 38865456 284314138 894204497 168196524 38151488 561212921 394969646 892219411 534467786 518394098 297792398 276318089 581536622 809083816 778400171 665957531 953857968 787423788 224149752 829245539 413022893 576630022 385903608 269567100 422262533 776375439 982034424 397492420 709396950 986450062 688726239 985688461 968905716 165938084 468315794 774974578 792978053 874918940 712814687 494378471 823381555 535270875 53044463 187500637 452182863 368609387 189787449 125129257 570452420 332817275 802167769 897060444 126119502 133908514 32058404 674944522 65037056 882263262 18646962 442651977 89481103 235094123 328227705 144249404 603717189 614504774 719782700 708518280 229869199 577041810 496389466 4254032 70924268 724110927 768561582 83386229 483945559 907609637 474819876 647087673 561723110 717693531 728420822 947965226 730008141 687846802 517879756 536128 834428651 134581020 80095509 805537449 32695955 7149797 941954309 325841044 875301701 835372138 217693935 434240071 747739647 556226563 98047293 743605007 843355603 726845920 123713625 272817735 783401509 332451085 28135413 849886470 922539546 883917408 300618791 500337288 432089583 140778376 474969776 915999526 258220834 772108750 752255318 827035370 113418103 417297826 446603967 220082527 527015241 908239352 380692962 220309336 339064488 231279447 420937844 30614686 932212740 722763026 997301264 673967255 952335050 762239772 142534378 153588850 534381182 391527676 908234985 547217895 56143176 56647346 372696412 558047610 977156678 972501388 190305206 526008752 737556673 248782259 420045845 414455400 742380751 118515489 791389034 776072120 377653187 94271309 901135681 90862286 243849446 135106383 943443677 362127436 355309209 61033953 516702637 410309691 190991131 171488867 70992583 837094592 641264022 468139841 666796122 378419229 308107651 496502010 583952997 702065014 349021330 695213600 700198812 837400589 676694200 526941068 349095076 783528685 638398739 450098793 966742101 775774115 28816771 826050925 272338109 215098063 813029907 355858988 429798676 469934352 769014744 46605147 820638833 309382594 632353847 545618024 255573017 129878684 346357087 785184422 303951806 930210652 847056110 602728976 48018754 571308553 117747589 964577583 178893125 949434171 414819692 483343264 721835026 703895049 550214359 640649729 540912712 831380390 833914525 533713459 142385433 952843698 634481839 749310784 653035904 351068488 788529255 490954126 702056773 868795787 269724063 848109277 705365036 456840563 47007750 657224402 575823773 546808233 814930232 80692305 221780526 544428707 996573787 318648946 323676600 168012155 164747593 486686828 528210179 619445299 538198652 514288496 455533965 20721761 494524267 536413390 306740905 758777213 285322716 588077112 759613101 231697597 551203383 233878633 813848626 307406826 550457018 516220525 153023030 571323644 587076029 425283798 482075031 980979700 595993493 233205864 215895524 912620303 748442206 227776720 575349327 321800446 349303523 961957211 43344803 957812060 21484408 634246993 994389306 959777595 302639461 474321053 491473380 791311023 768686633 983657780 828080414 105695513 704510040 22194405 821130922 796885800 400275002 720503939 322444366 815827369 111153099 468518446 446656504 959968208 91965513 44251572 802032856 105078767 235629790 780889647 874039169 714909438 361042436 624033005 930604799 310964837 60640366 358713257 806282155 566535239 2467579 378301723 859675634 2377186 979622370 619141841 529133190 632664656 666594188 994984008 596565648 938869732 886440705 306234400 150016939 606349305 265766391 220729428 808734434 411382970 498549013 456421723 156528437 811407522 430648420 89041422 555979057 491226988 530810549 478253640 435374132 462406555 401864641 34268367 991072127 26287448 424846534 151525586 761255245 100790850 773205145 551763229 780125267 884787151 474476956 375489047 377156404 789979738 600362730 525068472 545027969 248319651 601386716 452413296 420890075 846703715 231275253 46652537 33929883 37200296 512790285 493559304 122314452 213013415 263285016 646446504 70099724 404756842 487259172 198511076 195819127 896006485 325068891 612369479 346468682 38714216 922379308 846142194 430383847 438631442 374085612 947406754 73543429 85909162 598532625 773702479 650788253 492789318 708568856 78725957 362796448 656120900 523773930 969975885 203034081 243888898 271262154 137110503 428135246 535976248 407930790 604724006 709618322 417172969 292016517 32911791 550130315 665509222 253953930 933988065 3600960 515600796 185551407 243641882 894664398 16211882 882840195 802846598 2938363 144010612 840729902 961898029 523614043 424834289 651745981 53406801 449479591 938620415 618700532 201805604 615951961 820205591 342769813 176817205 82427777 103509310 648463579 293540103 966940552 566490930 761283366 549172085 707582897 519645199 998175666 826836098 116433101 854421340 666355221 200592841 391794044 602721129 738212638 532516125 225954339 8474019 25844531 602502793 613317315 149712752 841409545 367030107 232410470 309372821 946734172 815668130 435214688 540674457 284047837 826007941 186398728 163942634 25034499 207194654 999242982 870143267 766595464 745433995 856487168 36343626 74733684 85636867 758524974 657760510 700915524 867589756 358868474 514649048 792840002 788260990 866200571 477894135 396989911 871044618 229354996 245822751 749318867 969081126 250156897 940580654 395959608 281271793 174053497 130855492 151152000 357666825 43817615 626266425 491625141 767193096 793752216 409002119 267044838 668797501 79004414 159158048 377408513 630613292 46247598 776399299 991459617 35033869 347118917 654299771 875071297 274784155 622279490 105856047 542522438 730719985 912157808 500258104 408140872 211905736 71442489 690095522 775334146 108621716 944226258 534463696 643143807 445016925 734670460 983950835 553058901 827459645 778986931 132576409 544735777 976216244 75834705 590217285 165665765 259549569 960639240 909489798 771030827 973197418 315366846 572819579 558459265 200750419 963207146 200385763 321647676 386307737 605654559 564710532 865509724 503612302 109591985 760665378 565648457 944986628 392455413 579890719 633197236 645172508 236925728 572340482 313513323 544197511 85537545 274770133 887285075 627311679 567753650 40715866 839650560 957045446 714716510 896447695 585537008 23319644 388264521 714878685 930533784 891272644 365469200 31552703 699756552 972718544 716912423 923551846 182015078 362502894 997891391 363446243 305126911 350939496 217529993 532253245 632780261 529349433 928457293 73122849 544837260 894747449 895071859 714683017 932147631 475623996 213492273 922939410 50877967 254984492 787054291 197664550 18019560 533968443 763591149 570265513 948725569 107368070 722153983 214617164 747725313 646071021 16884355 68582262 248354492 588418586 500298878 66269285 469721879 85196564 705383894 149661243 103152276 844660063 448925118 478977965 235931763 680280489 333718026 466182892 252935832 309579676 55644601 492967804 465128421 724302491 406143200 694094929 43318982 66703005 671741952 654678261 913797740 400272019 465289358 330042875 250805379 702018309 366547351 157570404 719411340 810966375 779060117 362184686 130769725 444736850 343206024 293763172 57622945 87375553 236998184 198850198 545753061 150116086 872574435 689255192 450520174 729255338 656979429 477000190 132005739 233349294 500108983 332981063 406619467 685879705 813378628 325958295 907421645 948820390 511664931 201235417 431851096 60914170 542715790 335322057 153188402 981658967 285882735 198427207 550863474 722821997 663439980 854206095 285866090 415195658 815867648 253679103 147767714 138061760 650460307 94886449 933715121 103652340 563324200 129883339 553248722 174900787 150771911 423546128 473858927 277665457 90865784 436491377 31762040 105735207 521464576 349216480 875337148 245461611 819203596 685232433 298811179 499839664 236058648 37846609 22313383 72198775 497465098 181232499 155220993 842049595 531152698 516008944 466146520 990053394 651903683 636606954 228660097 488388951 990381064 194295059 408862861 229773508 219812579 149127509 141072042 402432711 304252795 720376322 516395980 778733434 600979120 895939179 830087538 616748357 754993821 72147295 211135310 464036859 811465260 831920217 285671342 84694351 435668852 246191708 494931563 959377996 740034296 259049199 213745583 849567801 833316597 746056330 489433091 86302652 303067934 558248520 700071270 829032721 921228536 25894292 764464769 251460674 554645468 819609465 672533978 936760205 278591371 521220971 387299801 376686310 891562369 643179425 742838583 335591039 473896982 65070519 501273348 547793478 650120197 646716511 704563104 925940161 57985772 181714353 622840029 263094979 785850879 249288367 998673242 944121894 347786746 878329717 182640361 661306227 866090807 800956350 561640564 354914783 22502597 453039891 15313636 377593713 939540633 21451564 897459495 295231453 287181362 398387538 812773252 774910164 75151178 663771007 308225955 517250813 997466805 215856807 396754895 683168468 412493978 70373814 112878006 932378027 333808696 373935386 59289696 563767880 449739101 614041210 971909457 411954074 801572103 723403669 90281182 272182665 184147238 836829712 182906047 495541597 820712592 729968049 718855223 512562526 743865197 950691812 777211003 309388466 119657815 230923399 77497300 345142270 266608895 121813567 537205635 642349668 309336769 526419767 956783782 457816937 122297291 483778716 657417606 260931500 340607483 665291919 178825799 779330101 654322926 55224567 547569197 774748570 590439935 913860261 165373527 174523359 430563076 638757829 694238071 442696421 79627403 219360485 208173943 629365433 1305286 987190663 517236109 264146965 910388613 799562748 822221949 67060053 118074468 670744162 484817048 409500010 429804457 614853973 380124431 880886182 144072006 630249514 146268119 753039454 616827687 850639092 99540506 3615971 587110286 682008748 791394777 10335840 222260086 83763166 556532717 283270910 570957123 200164336 805740549 841032533 831639752 3273477 669230786 245815297 667545836 367232049 538276909 61675249 505566423 625158185 175419218 10471924 285360701 96822543 892108971 936526161 431398507 81100501 59211636 519072219 688256296 595849345 972800390 30932647 414834057 832889495 147518387 271089180 862384616 344754897 700130685 681226603 517365380 619530550 113753023 71794128 827388932 52438777 443052598 718410894 633956784 833945115 607523183 489721831 85276070 301408510 977619580 675192155 698303017 37023123 301614086 135016568 65607309 740779498 438325469 249318609 883518545 518582814 323965754 838601246 980738684 775865001 867447535 141832277 734765828 636035449 868817294 765157722 614716596 307474287 256495399 707184550 813594987 719772841 419829141 346933691 454874882 681113883 508390015 708503093 742063765 738425930 430910391 977504532 640140665 542601481 567800945 210892141 625297838 586089500 72344270 913456905 345849891 369033110 932905828 406395062 744283922 584505973 938947733 601243469 962229885 14933531 73864491 146288647 899266333 616090948 975537565 352688633 735456725 425652883 787722449 253841039 525225184 233151818 950379240 172707210 171506209 10488067 396585622 896528433 360246998 65679336 789665743 212664766 296423754 340344653 209137020 498531920 963794607 51289551 813622558 35945039 572567687 236670246 593783184 981717283 534896489 70388580 276076945 754280928 521163036 123590370 327416362 42648839 897792484 687654389 752754705 332198472 512309427 77573157 985779587 946027110 91631787 176473635 47849358 838434010 871991246 833543592 995378098 76509186 242894050 631200527 246664893 237887318 420226583 682535367 666240940 821589143 114176680 135716454 820605762 734526326 87270462 748624476 68738180 121886515 710699416 120497689 263889423 874768724 177364488 6047445 143777657 650399074 749846645 767505083 632900845 989306691 186711106 413266274 379681429 81157339 339199639 39560844 680000595 148238350 519744139 863928104 284838488 610085646 518969977 186554963 430737618 119784149 475941476 610107830 59977432 430408206 298391390 382518175 219182118 417162357 720553956 853028833 315059719 802619503 948887549 63769892 402522243 490367654 176486522 995958954 809866669 894808847 421289999 310925579 714923689 688614742 425086659 796727789 987188039 329196353 279386158 663315435 884688281 914968284 595826509 159535496 737245261 823976071 398538943 803641457 157040812 678763018 161145530 978876641 383149279 316836727 39966617 126892732 2365811 240262964 412516983 706754020 95481838 359211014 837489950 492787497 854475064 853603517 628537314 3294962 191226313 974857424 735935021 156544730 590225827 796150651 464770713 540321575 622277693 365382303 806322321 860406965 956245985 871451948 438065087 750602705 864435653 78059501 96884794 157774387 323017428 90487312 89074810 482067717 42823062 436108327 578446637 656486096 282406987 941659666 736709410 904842668 937879075 512430714 112809507 935442824 340846733 336164052 15212412 983804107 668497048 320209357 528679543 397955475 341135058 256366069 989707106 715219832 690850758 478710025 33374746 96978663 737914646 326270637 949330852 532272598 557302164 823236981 252384602 667904555 76118074 205713279 712121091 250662466 194549307 265633341 433090120 757333600 219166564 216304271 407821279 352463795 21053776 389623264 626270341 934874472 194776717 219297040 333028058 444725651 398287634 931933950 772176393 273487239 299763002 506736826 796555339 43844232 136140147 125761090 658908434 309300443 830611703 402002009 947391727 754215135 604664805 991607685 641698744 458689085 233985318 549742473 694936566 307583397 489542446 412988130 547344754 816321378 153008794 643242743 352892461 438582409 844655327 255815152 193263675 547457204 619695537 974973698 469330407 801765072 422875810 211193600 229168924 5951930 924949336 300414550 667108352 219568528 982265568 466066104 565894895 292235986 54941988 125103407 386725256 175477050 89016345 306615989 668934362 650228155 78850500 865373983 737074053 900232631 827850655 64871472 521216376 880933507 79316199 277466221 192586354 47570843 266035319 869827392 918537464 140749880 24427777 778159292 527509776 49589546 471359296 202291994 209686285 948206905 732191430 345784975 406811966 341477439 22554956 156409628 275382132 367811213 320541438 874094907 670356990 448048027 798965881 743494713 108198205 803304996 763562658 629361607 606188147 404615817 397706243 41702567 570983908 389427218 405463904 523546 397612772 632625221 864090441 231394903 101817947 725982039 384822473 515096705 686116639 53996215 546474022 771156033 273144097 938525675 961706875 942904326 958846387 848261444 720852282 161086228 715748548 497025995 107805549 86358438 946762379 248149978 912381805 276465377 102456024 433004300 481407789 357274189 450390075 325405944 604445595 446551826 169682238 261986055 323317017 147817524 325600247 416653840 352173632 34648211 760406463 349118271 320140239 336741083 337858956 659644226 563800403 888457076 213563872 189675222 67569827 161906547 129819086 971367816 779181206 158050458 566078978 315288201 682794095 387487133 500678827 727947166 80201976 534394953 320579686 16702962 88951080 105652956 882594709 32881422 813924526 489368329 539772106 260856198 85752382 130765002 264597893 629209399 129209034 74950669 260277617 552471425 310242884 572198236 459706477 296064239 429794935 589817166 81736396 603851203 136565922 364804956 328110683 194696630 271745048 275732056 676894994 982595964 198267199 225170978 662792460 102045235 574653011 911958024 220486895 224062807 929664558 542313741 441081713 855360824 98346042 764675844 340047465 13189828 982230430 558995487 355765655 116419327 639039559 750028051 727386578 827048103 126645762 34525172 549521711 150479776 698703958 733357740 256286270 665917037 386538239 696793993 981817257 152222 802887751 124051355 801951450 124888752 636743218 199311183 365652382 773572287 895314692 374382067 568114674 244901043 715772688 801459655 798488181 182995026 950682623 339145497 543331821 692846013 987103532 463012875 757351400 740812725 14976825 295248307 773110039 776866256 144430947 50369849 221685864 18871382 495166839 594331743 409715359 221342485 804699534 348002544 79370066 879354386 79966565 20616615 525363237 91526512 857446491 949461217 653127068 728779451 957777862 357903105 19923285 331778857 659250092 175174443 701011540 229182888 306734336 174240792 157516720 126713600 5605844 863909725 919730082 872997562 69807692 558678178 227531696 138955855 712836624 393405495 619627618 484585797 951039058 968086941 421583172 710474168 219298515 353965684 644314822 213953966 10270690 805917787 203015730 232920460 805843466 283221073 441676034 122074826 232453069 393537826 554393535 357919263 698409758 400042805 588215266 485807065 265196564 354830300 544187945 915030429 756733683 969939716 782155856 81676581 208555044 372093143 559193145 735666341 235072432 378731102 422397736 640775455 787258394 430615552 103284512 913380103 595714038 786307937 57184368 112622418 514347461 243079537 844637745 707574013 623850685 670522205 915648795 879284232 180860721 234787576 803408132 70319493 614778203 477143411 156159449 679600672 682409066 753525497 752912987 666695346 216016784 607001561 968780235 358826858 728261344 454243072 159618514 150627013 52456435 423449920 582106289 338171594 694759995 483621388 557956191 257007809 722242459 349445877 779009843 658593156 262920648 829580550 610051653 814995450 279203870 273415705 836362836 552023785 799981300 274217730 340348185 56286643 726124463 28461325 44986935 417896943 205590929 980465366 532510758 140951885 733066129 695152163 760696133 501665897 641966657 33027406 981691750 139019001 543134583 400722984 363510052 231530363 580897738 233821568 898584995 620654433 939400309 597212906 392896461 153145981 890720124 665957280 723911930 519110487 986848321 287911226 187779152 606394600 215762071 533257289 656150233 682028546 878382879 291680120 740649395 914971211 512327975 718125823 557229725 653713329 192134040 567984836 904297856 144893403 647590766 830285958 3915175 355697866 680275729 683023689 272673941 39694466 281627231 179635813 51220801 109164096 702101218 22577329 779037072 652026561 924281004 24658139 518288536 482413953 972917910 790905524 643276516 539260417 909536095 495422594 665981809 961862492 780158390 140671262 633882100 247273764 622550324 457456988 984475017 624152554 739348924 796639827 869722619 486035171 994128963 39542406 980861046 475643569 523377154 244437731 279472952 832995063 956887031 79537646 839189031 819398493 152410687 16571398 283130734 830952255 930178673 905546087 814012506 625020129 547688083 549578479 821422037 583286717 292430847 356695398 767562559 980271556 202733292 640992079 657360840 823606899 786475549 551086473 633221820 66932668 308138034 602033450 246601660 982540494 256910081 215479470 386431086 493137902 10517536 805146040 30721946 433966296 303234855 622239055 880322778 282887512 58744391 666130527 666309516 414533275 918485448 46135823 43149096 161454783 663672662 556824738 550982646 854833545 982956831 79405007 541854802 943732693 674946586 521072028 419210568 54438288 598767775 993308899 643393304 473623842 218618698 144681351 36846725 451518393 667657110 299869863 642844494 895576595 925613276 961462639 410040050 226477568 180830891 983722630 112218965 189118525 265937230 602355758 587089165 390394842 779196575 783828014 831986861 756216267 508553221 548858518 815439951 299346292 741323573 645623708 110839288 192275749 181696230 674332932 547605419 466099944 618304232 495858331 765292239 898421558 164783432 337992083 757095326 294389333 376960749 660940168 254734219 876418825 15473447 740930933 413458730 275186705 966266871 660312282 731023965 507711936 384065770 971454681 747137083 131404305 714189951 398977042 979334460 280366770 443605378 359202651 425890096 458792584 164954342 930365714 35648086 25865507 927738889 724549082 658695513 233475640 111240533 164857196 322510342 888743464 587793600 434825780 59731385 521444614 773452389 418269240 335918378 595730997 975920402 646370562 985054474 183444515 351172386 153448573 759137703 686620834 746104240 271086760 396758023 46599242 694414388 761675171 566162316 9249704 847190979 329318219 66678330 199994485 273731525 965094925 604313786 637893344 247689296 926901225 294828088 86924398 537654647 766595179 190204818 771282894 798815240 402316057 44217314 871293503 112326094 961328196 789678923 369986884 665868836 107216027 209024591 471482172 748781620 885938923 895917970 729024463 661745340 689355095 847470906 909209374 328156967 360546028 301770068 531645243 945442902 69080193 705836355 129034896 838560055 712627480 103114315 731168658 840784178 180904673 662372840 789662158 539826929 992758270 521618099 939642409 158206592 440913890 243614125 495371696 86969749 33053718 506517846 104232292 659224882 406151667 860610256 550582828 950378578 695413021 66507899 53812260 425399778 30686249 958485587 839319258 795192383 553582756 301443934 91228331 202579276 947216678 642462855 122446290 450079198 507199183 665782874 910423832 434385649 953851958 22825014 437418009 636453277 456853122 316026962 167790578 643994623 72213303 49360651 808638336 880685173 942072397 429273546 933004196 614660059 966497960 174758722 882761154 691311116 777531247 552374040 775889392 853524964 951094034 8677962 715342454 681498027 256091576 5679528 963578981 187640813 141313160 898272645 145885041 882020316 511802008 638084587 293760397 298085361 387513448 361250683 793801341 487055535 646047811 958764179 750788092 467158638 594196445 945841341 823405797 632861656 754598803 371019716 753941701 65340769 898640389 953899899 984965221 435063331 997745118 823595332 419630391 863739754 287133813 717102891 293443382 322835207 939220773 47622813 277476512 165771816 598048471 37543487 197160899 331110851 323438651 906118403 320891470 351154 394581634 294662225 152097402 669062363 105157177 95216775 390894788 620758206 270667318 545372463 482743508 562934311 875915225 320807988 144584410 897314092 665202588 303957040 767608146 605656676 744220229 274041423 264507271 104893209 854086329 604677620 385141687 598107324 804243693 558298385 309555868 136564799 321833311 423909332 806689093 66959253 931627422 395840754 511356033 661054078 214537039 46795588 563049818 967404695 101663309 848375313 450985201 461236150 198670874 752290278 269587005 683397355 303170733 981298102 543133706 302623893 332164341 104217168 560434249 534668501 183046598 683284560 918228812 653105131 437412910 636794125 477726219 956161753 119591729 747226024 868345550 499787017 697997392 130188052 558777958 541777698 641879228 187029476 756692992 668664367 278801762 668381414 500427511 824684541 627345075 836554786 385603522 644912558 528885147 681945358 464038365 188682712 436362906 283521420 910357145 317077983 724603299 259279208 100993364 456054618 624640919 523640019 965498806 262961747 164031817 186189444 433340006 85265826 464764687 878635546 168659782 512764230 494833803 30247763 573458853 352793216 511491757 234339612 395442891 832699445 330077764 264747759 388377386 654102787 986350260 1881306 499928512 867291310 259099016 466559442 64147431 648719325 495974838 157687316 979761309 421643195 166121036 202965456 434731322 274054062 59401777 832601462 358026318 347455855 521599587 966689372 346158458 566219692 535226668 115709058 707568106 95264454 318983224 659347134 497641560 447423911 547387619 361478728 675694505 543809738 78984699 561336939 281966885 13167164 908220335 956122710 607115553 261767527 991500065 933001877 718992234 784620293 76941245 681194181 802679787 840714579 93378504 431654618 256188684 635447637 889775321 577466038 222748834 496854590 780381596 432604591 194441860 734025386 627783729 791268944 632616873 856405306 166381430 293900201 569784834 131639786 873434495 988066481 275742467 951680171 158729577 304405650 570205418 915717401 150935053 884772948 78411007 174485242 21814271 955928914 742255559 853715833 900084231 220076183 115246574 636178671 551968342 217133514 513319709 12443366 733395617 276287297 404863465 971051915 748044844 581873919 660365082 31839385 226837046 334121587 172817299 478649953 444984045 987220490 41269024 812389349 707658198 395911371 304606906 682456121 207494914 824884473 537715918 923376511 235993722 890849526 633018437 710171898 102933515 794141315 355427145 570502826 864004162 857949322 388330912 672030500 758721437 643802510 949217632 124680147 957951247 893241935 675097876 119642301 316138367 330473841 185804918 935566463 102276979 853970758 52278424 282539519 195219338 532519817 916945430 264918991 121206335 798587539 464291563 922309413 952971407 963715440 687405684 577018760 593524282 434843985 675608590 785765324 34823221 220597577 411404157 103565499 539600755 31949470 529880541 809714209 85471366 107144562 54844992 376132774 703612049 362945360 537742486 582496762 14924151 955344895 532920180 501596837 978388084 685210201 374808592 817190514 245589403 528486745 346110454 743212544 289528011 378914271 506683538 709861145 15131965 564788492 471016693 863682870 903608664 676878167 792329730 957584535 691665931 563002175 121572133 61413610 783502151 403037087 338990486 800775843 685252886 448623459 869895105 375878072 334619333 182940642 161464965 137270729 74867190 418062578 738187128 720738762 941864831 913978368 355071547 288544852 164104284 323273979 727801366 805714461 384472166 311834529 202597860 742966427 660250786 220568334 843256163 268757001 760864278 735443442 532724500 793169786 103246294 64980183 740846545 122058905 176214310 549010518 844131364 220842657 827694005 851760560 613960080 679696695 439679505 228221777 78918066 720847809 30717279 647763940 375926588 987779909 667353447 586632237 687028559 999258995 445360227 926426926 699187256 863028729 858724909 33724936 134866095 455647216 218556430 744467816 517767892 38211573 446682230 596826910 263804664 536902462 865236671 312282737 6260897 21917136 888801374 461279210 749321748 506662581 312920882 980776766 251970963 723956030 444794194 296747111 732041059 758169413 89212891 726040761 401330634 182253488 38115314 368269076 199068487 456780228 199860629 841996335 243472636 19470857 251689151 974716587 488186585 642125156 102194075 342347180 176224276 914648265 292623412 228333189 452725709 8870351 960362408 977471141 512765562 161996307 398894713 317988313 299918484 347407991 687020043 187036451 620735834 519587766 369536325 409333685 540477024 128291854 225201914 663961409 205683111 78983122 754375745 590568947 263776040 481186901 469116177 184460437 2135686 408737108 722364204 383608546 4535575 26843307 387605885 2441296 574736356 701712443 247237994 757274635 580040866 744987717 278257332 385792664 581939424 889704184 460344822 605420079 195379718 165663389 707198078 17480741 556875286 195479074 486907013 861900541 590984099 304795783 609531585 810609461 237071295 629688969 529665627 796022689 537021915 786478591 364852042 348821039 330533286 984672158 106492984 961741021 321004599 264002165 383615315 362728316 70205038 924936294 113561203 764261188 117703535 746183302 500759976 400486538 382407016 813706045 570954940 935971295 226662697 599393817 472729188 572975161 859416192 784754456 292749687 761617350 331004029 307169017 89441418 670938682 745284785 845905814 71715958 358642097 334192580 954942861 312578935 191282678 602077775 503616862 671984695 161398814 269551049 802572731 447606240 753595432 573012816 6338653 10733801 597134798 775230117 934182228 473249143 809082850 999529544 547543509 942958603 855599880 417057968 797330707 549760513 140358156 925766560 481729848 102897089 143850380 258769928 252701942 73282647 74550642 703664198 514072238 152764129 272607931 503338169 577886307 122812498 903869798 138452304 561772338 21782686 964621027 569627974 111561751 628958441 839295155 303911300 722546652 332442229 114295887 162019919 26354662 868600396 865415336 173686203 541717606 682250814 905136060 758507533 42754704 276909308 742932808 136159349 592629142 797313368 368308394 467461629 34020783 983017930 736447466 134405761 530939148 834682370 366129069 700031287 356526753 423529858 382759507 635976208 566905347 871185786 704044745 621700144 980671120 554114319 459714745 306112061 963328021 466808083 856460338 252707032 603174926 26607735 864828212 632385289 627985005 465144477 690939279 903470510 693163663 480782244 853406083 610338303 434285733 492426073 564907359 480194537 937753454 760367917 283751444 903456979 926594030 825381253 279954036 692652056 21236206 302757416 610334230 351513467 342549549 151529588 940102957 585302131 597331898 993574215 91616544 757159879 288022403 7951125 288799663 934264202 560700540 299837973 74257848 197170972 173177618 905368473 548531331 906284630 719338727 192985857 636522815 378261430 466593750 577298117 706498460 818891160 993186204 993430939 218799140 78771014 77956154 719042906 662269715 59218110 557019709 720088130 899390198 733960151 583493973 413965993 990664058 332616204 340625452 194970284 145804663 727498158 865883289 871264720 389391863 940030928 352377050 370715406 38985460 151735758 510705900 119888719 845022637 668552110 479526290 152742873 446644836 93309050 206279706 678710762 785350301 503945548 889983305 246287882 404792124 841745203 77967568 407508740 23176313 325211420 600191597 280808637 480796942 901958231 50338331 751002912 945085661 912637371 724396023 21395694 775056676 918927464 992914092 763834355 787408689 143007950 82809442 172855510 24301056 706425658 197831497 537478179 903179998 704602304 999892807 683982138 730239444 620837168 951352479 792633625 71841840 27644159 990453545 786136912 70063845 642536926 202183824 79216563 224677722 630981891 803149895 584680052 714551976 169274291 477824620 985215698 335322287 809664954 777793827 974030417 919711548 161896957 720869420 172735029 232901242 822687859 23470320 569492737 496129552 737492574 52639257 909443685 328292064 338012594 328142477 479404469 95689475 956552142 575277160 493380179 601824832 68402297 663699959 23106342 79674322 947661005 347262767 753355002 117712733 624449589 962641461 805011510 185804922 582277659 547345205 473362136 295399190 277848122 904113941 204634274 274663322 379222815 520889731 615377286 297567522 147346799 551078434 253441797 577470277 468249651 683628704 542964102 377515678 362309930 878167403 827230149 410882225 430784061 208231322 504275306 252342465 613084289 530117827 448122874 651713679 327179731 235022920 278188083 397619024 515266163 328581251 942179108 26987469 172589338 400428824 168760915 898755608 376329604 767619841 300784951 784895470 751954268 469985429 844918004 926080148 967237392 95417529 747897484 763831389 986427131 592948876 445539381 661045756 928195617 734245902 410104067 839710014 68520735 787400386 711433990 289896593 949255431 674635921 141821862 953463885 745951225 756747888 518759543 36134632 740616131 481872799 798811931 807536626 176394447 159244931 182781207 448012915 391736466 426530552 790055942 334551151 382842977 837591476 622353517 270592191 438813575 117913975 579218669 760025991 145075642 629045092 55062438 17743733 551453067 989967585 49211383 652465496 169026959 467965089 759863680 626823455 477485780 61249514 482690014 756863310 595848781 123402363 61694630 984455156 27282291 22440602 486307038 970913486 752439720 203580776 301532514 805815872 227723285 447247844 802522538 974733150 107365150 484775712 70277198 947290347 796145925 836023534 342304965 291639866 99805782 594848719 408976909 469563760 446718307 70019037 459194546 657756092 110516078 388724613 64391145 719866018 612495769 786532426 893599245 658880829 816797045 383588570 776936705 827739917 908823546 300239773 513502742 262154537 419334332 4581005 679734351 90112550 337165397 722641312 972705225 713603396 390103699 801724116 911202999 784047804 806667485 997516378 416593594 36431996 735665277 900853811 972265683 33564760 614313928 704553060 229337865 915887655 162222831 843931764 108500334 61711305 921105530 55700340 592606874 830990219 959306257 190401585 184392252 661335446 377594133 163061052 320156206 683342982 783155508 113114772 177338143 805702327 740705650 699571464 896319576 258257693 639599422 401250474 70168080 244021915 771887709 74682968 429918731 659001205 55881483 234929174 82006066 16873668 360222358 533472436 592244439 850878036 778256690 624053788 240760582 69385524 261381708 676985642 643426265 74850867 669488959 183302013 643469449 497882169 565864140 31898708 236346596 323878281 888619598 474034172 510405621 747439787 998124868 222426006 259461284 915556418 200979386 890866837 266688481 650242621 329169261 116336631 936906290 294150607 998707266 398313677 853671355 335321962 356152224 830569570 241294299 494966566 210306261 145351642 690122354 247063735 804432390 129894066 595599073 285995773 735746582 951992620 628839197 830794619 146234616 367820219 400932160 279870243 612333647 134227711 820317177 99140944 833667848 131045412 739516514 664912934 807517689 602168901 401803457 639940855 42061900 194210102 519315466 196144317 607093067 603333241 519305135 221632471 876013107 513695631 260256785 375585523 785979520 280023361 675741682 364477337 549334800 30327978 949809668 961001162 558220099 348333698 276309586 624379258 733667394 83624408 285356688 728422915 568099353 508561613 91858432 388188574 667760642 168530889 685485362 114144368 755408391 803510057 940518344 639369269 631609033 890196740 604582436 180127997 748388035 455388430 379200255 951484636 528132951 966572398 27412383 627416185 180209565 720215740 852071211 167476124 293737686 688622293 541294873 955381930 471396018 691906837 362569512 541161507 610535555 685046741 134441819 431567409 558524464 181221409 850600525 480204905 418660842 646141614 216940427 697058818 933955608 122424176 176164538 92746285 860917242 221154364 663392161 361866365 763181002 666655214 513276654 815032817 120636897 871251492 843856331 628086385 144834489 887793173 508861402 70058082 483592179 913401718 946103804 463352910 375258375 918082609 216764598 136516607 775592577 404374438 834995413 307613978 404098444 192468611 571959311 50586865 264027066 127260603 506050105 64698297 86715821 483535841 436841819 777487628 910109054 200287768 624767496 801412668 257821035 718216676 959666966 575029569 673526213 717930653 155725696 149799146 291406694 501714602 897943107 68881847 359867609 179675175 384756202 942827331 433563888 395262417 841024093 525490880 942686071 175537260 891156232 17223414 776357331 794191739 508960055 197824252 284084464 260532287 607698142 340118015 9458722 875826987 305010459 826870836 788733104 135857158 655968769 605593881 173218235 350020362 891045832 766959263 777180602 234285614 342289879 895238152 879879938 845201920 196220066 890217362 983323782 603121392 775035675 668896554 802473818 617238923 191509374 313564549 352040152 258696061 512367289 486870306 256871214 135516783 558995473 105780753 501836761 950652906 41951929 424569882 581969449 126462151 577076897 66458565 787790799 831517119 550848313 736092977 40257340 123151540 813704623 530659594 72001416 412087108 342595803 301231942 277858699 480290437 239951947 460380061 761372017 545831263 368879611 299569436 610363282 726873062 132870270 938710858 491331220 270363880 936377022 419512452 860520900 943611979 528527417 541521193 550916909 725816089 51825638 467071201 449683590 4013741 354668425 464857740 602082161 519303443 143588527 255187071 688426832 210685214 476748132 817627051 183256992 839114165 867872836 205662406 501290248 422502127 800554372 26088498 651112279 107543842 994787987 895492479 636822209 103301840 894676927 473918147 994653679 16713684 294049579 332969949 567201577 198137925 447480656 562486570 510655232 534709105 300345811 80447933 101961887 188918192 490872703 848704888 978120510 979266153 319939055 686758790 16961538 324001530 601153451 29918905 252117008 874814092 922883767 199571485 967639796 545838566 459512720 133046364 831520910 228523854 254581612 743468020 845223794 594632584 363941561 839590581 513950179 770846164 132956978 173109827 743091845 49892194 488086962 279393423 480220006 588587049 432512091 732974223 233375764 723403861 497517273 676904131 482906664 936722654 881326210 745216362 735189666 797725787 696804379 986710244 633495337 919527194 775297723 904335879 491031643 304194032 519216544 222156542 957253143 398393365 953381289 881079838 474068786 878315519 113663792 332996044 244078017 636782816 906836926 185931568 591998125 397573440 678469342 168462218 230553928 390316990 774798490 470293616 480825500 308968891 71673796 118474091 297991932 939019634 659268019 558223322 60124880 967884076 43230315 679304373 96779183 71642310 78186903 487250536 366286990 808209543 325183382 317752471 466508090 508413893 672005725 174189192 405143102 84326936 40316237 320129757 125150366 175395268 618354685 931608614 695219966 699579005 802193346 195729340 665920894 78353884 852348599 285752220 854366090 444147725 145282212 927914947 218424819 870418685 850717571 415342507 348862643 826525470 484720093 731669592 293341736 804142110 153283869 149565880 960438111 774378844 958428017 803094528 975146146 927579891 993095001 906448295 147812758 340992619 548606997 991380011 679442599 549777818 288970475 552276740 291778306 766502899 617053786 483623157 487597924 644480666 55670428 737599348 823070526 321631342 547887300 762922755 283618900 358090844 533897762 637420735 786195080 885078636 565872780 524572263 425362381 155051865 86355758 421829180 642772895 734830607 779381422 347873363 514177158 638104616 508230822 137739684 145064424 518434933 260360144 918532947 533647812 386114196 746048357 493843661 275749628 15705772 206692906 668958293 375915716 471601830 6699491 737294465 265841428 484144004 995539703 565262886 255149809 156774413 513170388 219782532 660501040 391397234 835650247 297071830 417775520 731198562 532299461 361748822 598714997 545502543 267734601 784261933 122376762 949967145 584490536 850311741 518462117 220616536 530911875 257142473 872746673 883199530 940899880 423743018 779174220 631318230 420310769 247607659 290786855 733013145 588315203 3009549 521707084 377376890 880217187 154257881 98193080 141147447 565111859 938493263 924415373 402049610 628506339 959352541 454344242 676071998 948037358 728706840 907050814 978944478 623447549 624338918 571224366 583156626 775846430 870375115 873986953 852688715 367906558 854124586 59236913 129502326 473693010 166352684 444409902 194762206 79234308 170401063 432585241 578410391 930943889 200849716 998968344 935533249 931217124 192456687 842803328 219128592 30658203 445344003 165692767 250375229 70440626 154122433 721844531 177288419 544623368 258709536 146656847 954915917 716013617 389160610 496004419 214330822 482723069 231165197 170941490 827383896 788515645 458109169 999721304 316050856 409453520 865180825 115924783 542357081 461731680 140198271 465045053 19856332 379508246 277972771 18110794 295167501 140826933 619697021 360325676 610360239 382201814 69647781 82206485 462166082 712501328 919019584 884010075 386381383 560283151 124299831 573366959 473884493 273421815 288814359 355116787 585895543 184195026 354810327 284869784 674642812 500651701 96562449 315655624 918680465 75231270 646367042 14484817 898589420 603684148 9743431 811016418 53190911 351675315 714846657 973649586 186733715 445244607 143660560 698315082 937384400 599812832 3812795 238631454 815537032 344418934 872550944 505197572 988153317 629909590 873963183 743465688 95299190 372602636 188820612 281417647 66700477 494545918 307331247 341073496 529603975 259097143 60005943 933311535 856477644 308709775 195671632 301996046 959559246 554557412 549168901 681022450 302156505 292495433 693956607 227006940 78474919 795001450 648598340 326852004 58185174 608107079 528423441 830096406 650585106 594317415 768104341 297062806 714953543 344783347 853464264 440924028 626711112 288109608 687648884 715101677 126639419 285667204 713135898 825109672 117928373 479991809 617494339 553352361 480846863 452942770 93921577 237823569 294034402 203196305 584220081 727269365 38552838 264389754 220830868 170326683 641968627 162414610 269661405 988212849 40806953 284278662 166195400 940809930 597745524 789813727 406774734 251669592 407729198 97976019 544550370 490544974 743825768 709628772 529725172 461751186 807504289 514300277 274065803 34387196 931787414 274597383 705673590 294095730 83592143 534174125 162566744 413893432 662595471 647975178 426661344 765561736 960763120 978434101 268992602 917635464 721888727 551422161 88625225 778931492 296773689 140793787 922445402 838260011 623307047 137967284 301219559 738912973 955007764 904336719 756145880 616688636 109913139 122171906 239826548 770449027 501234144 962617763 628447364 278921417 592262314 705433646 979176423 963160799 321222960 933492263 991564813 848653882 426255201 230399206 574210418 195757623 956155248 51971028 890853408 547911107 961468499 933960600 593365245 848525705 613334194 768297086 18603411 569707559 329656236 468035296 277427143 105950682 3084784 963248702 633018351 428023529 42086463 265694841 537701966 991954555 314330386 433859801 34841522 983824044 463468707 660781485 59902028 679315409 948296420 114622442 156977987 744644727 944467119 464938257 171542273 924590161 939030280 288843188 915536936 928632751 787594163 683337490 312438802 536888563 215976956 124169589 331898308 768750494 574139189 489148564 106580927 361594914 687838858 955171604 884116397 489979873 651494702 730260083 168018747 695563807 594082021 87327199 914522682 674359100 560146925 601573158 795603798 414051455 888589973 378499123 53612943 325766556 739418533 646856231 433791290 986700757 599246152 317034388 272113853 752124832 301543262 79610911 81664527 516290233 101448156 206300685 394066677 733173241 215685528 339862158 97366868 793935078 208052657 949519135 93147294 423253086 33290840 269114259 939583342 113456415 47653287 70006522 341658312 333215392 197397402 218152828 248595980 701811622 681763067 267552810 651579786 936806526 988348738 840989659 452444424 991093801 294474102 976257779 243435735 273839281 257134835 752863092 123287858 122923897 720245703 179955801 793962855 646229437 672704850 547825170 682039717 194969474 913445576 104885895 456652953 527672676 833742554 971988059 743236350 745831947 866491390 607794961 861811745 744176372 720500900 883332105 791927413 7433945 489069264 857843388 41231922 817382564 259922240 763762189 656327089 821864846 727017848 967525324 412023347 659703370 30096245 690366366 737041178 894501519 951969471 873039962 989330439 105282823 220671693 833284750 343568469 521747933 98352160 657530908 602047200 972000394 480479817 481590330 639071189 10761786 748691487 163236680 989263859 840452369 450356684 968600668 601582742 659903244 871784102 193258192 64029367 370423534 541271757 209371329 280250735 768722137 909645765 836119695 521609477 986831307 647376477 830065145 830507732 33317570 455140939 562242428 203399348 333078802 810154963 467702900 949938709 810510549 477102931 785748310 495756647 998777209 93262527 558033747 967098874 465461895 374221738 533198362 679135576 171680266 404910517 62610470 496981291 440174922 330268766 624443083 942354965 52425517 553154266 844743692 955908613 713126530 928776006 159256777 591006620 903639393 477676365 361173211 111597685 935296720 312021368 923850877 790284519 495571094 654350927 544262698 697092915 933961820 188895741 132235840 730475452 258674929 174402156 610696748 338530280 685097885 319499074 681694099 568789120 631064979 639180869 1026552 592343189 114378236 275148757 40883028 852788793 143780049 583758468 308532558 995104191 899918823 473454554 97273081 609969715 875647724 630997883 234186965 712837234 906165952 754955011 884151513 67885473 628606577 638749807 402820035 146203658 534815726 2310735 973449961 959170146 83422437 54735481 346670657 940845624 998457811 439445932 440787698 203896168 906706917 567103703 743583554 538709469 702106698 740060487 466990612 207860972 67221774 379408809 715570558 221433279 361932950 403613384 94564732 55103 249926053 612174737 681949468 96067439 838729528 156327706 794234399 593504427 486505434 931663018 305111567 930521581 491025408 209277027 274256132 715925936 685321556 421707563 120793623 219842433 854065793 701165138 674201237 157943992 863922587 259510446 932619266 508331933 269079870 763614701 567987197 227501783 297034273 319490173 653778315 244754417 211406303 507154887 460111516 602727797 897799289 961752315 927615181 437096599 494107583 547878148 783694610 854560245 936673674 595323011 12197248 130901435 518764880 966944560 209974482 213031433 627384975 802135451 247993785 561734458 704236096 38452727 187770662 950817114 588561974 952863552 396737606 703524590 823702005 168145276 932559166 612521822 998761958 338043755 669096125 230306999 770870815 474038177 377176438 514748906 194604438 409374331 500669490 356363669 728233452 690723493 931745538 581842190 155337743 249997726 674126257 720621380 263022912 571079742 626761424 520041202 742149729 962316964 415740846 554209355 814426266 430753256 836610371 306259676 904161172 970123820 722628573 178795310 378071350 119590920 24022878 345907387 50520510 82848291 128429750 14709358 649903454 594161165 625350850 745354222 949734626 547135620 940697509 456847095 697004315 152288424 592722407 445126942 671639023 671426711 632036581 647625920 750532546 201271086 729906123 341988839 608183419 569815900 671579063 963547608 362897676 776385077 441962638 242450506 331622004 336562224 769696963 180405829 461209539 421770192 196229727 258960165 145679445 405076464 691506465 123635640 382620472 308860861 816143441 80223836 639715483 325301435 747852423 861392665 893670477 813074725 900397006 155922278 555593943 458731197 306377948 182628092 202673552 847863318 197528522 648836703 463491953 578776321 580713031 685336446 518140815 593690007 181608684 565379739 47824836 432540248 12025345 153827140 981710817 610787701 644204065 295405417 611820641 337891069 243422111 604164681 6652791 299813825 935644405 547885793 79593178 587131698 392770109 847224813 626902325 364131063 851147294 431522963 992393439 289166278 245983733 87525375 213000778 448082442 294900724 773103836 217929720 327062533 690153843 544149612 735668814 107540203 810610084 882847233 561406610 474186789 189591030 566464626 396516301 98177914 168498141 216253540 521607665 799407620 111049922 166547713 645024545 847948457 712436644 631324165 17102140 729797858 360106315 335438706 521457206 309950733 872849059 203084728 54509587 890573078 486476254 310863774 290222808 119888312 401465918 197202929 16774852 625446617 29581594 462529624 816905280 862669289 150010560 813963845 258847352 78317727 91518935 243389915 109801920 704428242 362343674 241205749 103247326 662069937 782888948 294185659 109605542 192740296 800798651 127006430 223977164 208788794 829566020 333245748 567491624 933390030 91019455 2104944 617403140 82043963 800922521 338337365 928083877 692433432 377656080 358031542 436790452 691609125 882520156 786365228 862200204 818843111 153756512 629472848 318561570 817105851 695071160 159535271 864926070 316336221 952168366 596545765 64343401 759052414 467884394 274594616 565444457 349424724 204565711 252186945 200755826 25757291 137872227 62692460 687587970 305583144 703618326 565770558 409521497 556873427 572829820 463995588 699287160 397567704 944341506 815217590 481291582 456897817 988659438 597790380 896636184 699871014 132235793 92477308 480601108 521785808 575826405 346286508 272850625 446312383 570643264 333258169 995914032 354332637 748861280 354441773 478056886 908553686 851023517 125979752 920911383 513347870 413986549 401241911 6276928 958380606 434258505 2188893 136715267 872589155 187677119 919352700 521587502 597868915 966492565 714184076 600311731 955757537 375316946 183727465 940603003 372469244 964803746 830284375 799547666 761480819 195910087 660561578 110283295 150294508 994986476 642962361 769937669 320063151 984350162 678395463 346076117 346193715 404367053 495357941 971083875 900100651 943909274 441912611 292705006 981940353 920449328 948347863 621087570 900914686 494476041 755419896 269877081 817598939 366564864 588161509 738484914 38929850 735207260 379023586 137339417 948441064 814093859 313575726 690925401 727999083 192139085 111787843 430699350 771835176 487472024 565905039 737085584 490883662 738067797 544214595 68178704 612344244 123187071 550785896 587307769 437826842 234567230 93527518 630332095 288100665 448036836 788177486 268865827 101958453 815983069 307012537 395042629 621440976 444109644 459617008 654482050 262999776 247870501 66086193 211092338 687727786 558689256 95022587 749771103 771363539 792398409 60306870 804512704 979048162 558247832 197943938 555720246 20492147 568249649 393220515 76870338 911819633 753721828 916300391 656384491 767155179 373940197 538447395 287179339 955801838 268446025 515760 853448714 113715467 975595946 935663881 449320333 749988864 307374359 35133695 621255916 366985978 553063677 396376265 668212242 152650864 261401669 172279593 586555682 62839514 520521086 849365428 871929672 755712176 365491616 174952332 828466469 568394255 763034125 143011053 398480376 543770382 984893331 317675974 88230447 582405408 484561160 871102707 327271121 81576713 24108795 612983535 823902979 444635994 213353397 340835861 108952869 872954380 679671735 318511590 419303514 496524943 911866216 905270579 986671571 219028131 606520927 913546991 171195277 226873632 777953796 377264497 589512879 975204475 544260569 79436709 328348629 462051356 769378127 47603618 249390466 170136393 517895821 407235868 244792942 137664215 526428135 219833433 119462586 571517019 416356173 907243583 496922206 237054561 803258413 232093823 453523347 835856241 400642496 806581666 549553316 909110079 22750164 342603002 498496295 614516383 357781550 739772492 819870045 430988832 119794188 842381422 119902403 822983481 432189911 797010476 489938567 843580388 752658069 183996399 485122318 938337582 518386253 47119442 267221927 366329997 798975268 860329767 917236387 813111660 945970623 361485913 768763316 362707846 948384604 137001142 35203036 619775118 815225006 553491675 360736884 339617286 894724349 343723525 287299119 488806739 263107000 57775205 567194025 478595039 642444358 460172678 189999092 814241002 674521628 778375488 961227682 597725481 432301730 597067233 729146901 107423877 251788631 169334604 115914811 174135507 319999557 639149425 585861418 628565360 464499371 484590557 768659657 401613825 269649570 233439816 319091087 996794204 788809732 255305582 497843781 90651847 96317611 536238213 509404834 403279948 819811783 857848222 158327475 211797214 945787077 731787396 76613901 423387958 234912895 911326024 777532876 59636626 17451508 208867070 280456423 641257367 662686907 728504332 218365410 841950170 394382798 775160291 290595180 864381751 664091957 763087806 117271561 519905985 110347115 388096208 190279273 498465847 731195732 719819586 99779120 980907872 127624916 983168562 569096959 608084451 31385513 289470489 561592489 94235985 511139577 777362846 977975070 908752979 948280175 528466148 828081181 596832133 420198594 618418237 950460736 430522991 436017387 493421815 666348794 86444760 25513735 22927738 263395317 915232140 546109403 508821267 138593552 119944970 800338737 990989451 151440044 930716539 550745634 459377199 143614389 916990304 356514051 13248976 113860324 747149611 378834720 87650856 807934335 207638184 501145794 688845511 846031591 214815369 612566337 87306034 778853912 56479212 749598437 982670196 698876633 9907613 983300906 312597104 61771391 481126374 163976675 243840185 842859867 174837389 928226629 598706504 970568883 950329468 101275935 401980100 766133601 134884090 934486768 786449608 777852555 172148739 459456267 421339224 173918227 178175190 703269696 64385874 885866903 391637833 171689781 758111945 254494297 947363347 276750308 52194242 41498876 165608776 592592796 119377618 443012946 339740579 83757128 454978830 986545285 740892303 994898506 358035206 253968932 540793592 714455871 698800516 228375544 113431913 452904522 327073602 781527088 450124413 503257074 316326759 514566863 532211931 593666977 957281315 390632525 845840688 573546992 676628643 969513195 703743488 922190288 590279386 516811510 60876536 774381559 791214603 4122045 758138579 371022366 197774290 91084289 834957309 252786699 462411489 191052676 459430005 542896399 55371159 512031970 574863743 619264003 712094779 194207997 518021590 758927231 460249241 50453315 352539251 932072938 173821929 176087905 834029207 429680433 934082714 424448668 348541837 331179366 74562242 683726868 997652346 367563062 415116743 310489305 337405226 394050479 383807806 235054768 72052716 676042929 545335024 353010366 47867684 389752798 42376223 712850465 433847289 493511932 702715829 738242910 141050570 320792459 937786430 686074019 602384148 371030671 796175392 263386118 61425676 75008846 157646246 195091769 38807309 752084755 784264705 263385892 870511591 307823437 271433399 35622415 475554199 943728316 875991415 867842808 859137084 351840629 565886212 396896370 379327504 788823217 402932941 137750279 801752191 199795541 214942796 624174611 613193271 469470507 558566554 134264147 581166114 781446974 312081948 200886975 957390049 701775094 183011251 140835274 687983927 313140344 702249225 762897555 303302169 323253017 546421639 712670839 805733411 782617732 151895379 876065692 449610675 453095501 748135328 86000988 327801519 970449191 241785969 402106789 681478977 380625987 327114179 199396867 826292204 399793885 235298406 513377565 148869776 633091049 636333727 42013607 427771099 777793768 836428520 214427498 638548238 481799294 435106774 545470603 224955731 390183936 157585456 726014683 623390692 769215762 58864177 853215660 270261817 992426723 25670451 475032385 187518122 168821733 481766567 336259109 491278831 255639228 857271712 282991692 760131893 437471588 902305316 356401251 579754898 467466690 165630369 835262247 468210375 151534144 26981940 656373799 824805742 384305605 623862235 16053446 304220572 891578338 209913740 101008479 919775370 610924051 289172533 197371370 391190649 195119668 86902065 90289111 731946109 170841493 616899714 607154005 946690023 559303702 577124704 89481439 291577622 289762263 762002445 756882347 169559068 527911815 594304966 407759913 934836728 592456464 225492624 681540834 786291586 732314412 40052773 646855970 305396135 823982567 19224328 615159490 626126528 698247864 428213571 562575993 158564964 940224275 198402684 891073496 445392706 881869737 331311438 302920519 638246676 718747931 881371619 959744497 9026453 661267405 820921292 752919103 440151342 657133169 729069996 875792875 641200892 754230603 769410117 358005421 37921508 588336112 768842520 629669324 104380665 892865636 536907834 179111348 25291038 556438536 957550515 366675888 344527022 623377035 333420572 683281419 437654700 483694717 448493967 230410789 72703545 254481974 100615949 872240203 772411027 590491764 301133572 728055249 802709455 796461911 506899385 868135034 264013249 933123247 755504586 769453905 721250958 334298283 45114625 762049672 68582764 492477213 726065356 753199543 396544328 405213839 724119123 347581493 526098349 180650647 826634538 927297870 348623711 80807194 318270516 152403795 919298580 911229408 870077780 935088544 68168299 309088406 182713881 885431496 703269523 913057870 207801321 130116958 918988049 693043935 760967402 73025193 975672325 747536542 786896487 540317954 870891848 519717071 282251061 360900721 588208718 375306277 466785293 854268171 241507929 41955857 642809944 966578337 221225786 744282032 644981303 333708163 60724374 634507271 345866755 639082037 573117445 51279728 778811135 576116830 972920115 367492382 722979385 411949846 285988976 840907994 685294666 540844877 847557622 905278737 761320886 419843706 827404115 478398688 830373423 28836440 850857511 922605766 894409456 198044127 843806311 534237950 604897097 960899539 196905275 287866772 123369172 592510818 198966727 506250409 422826340 715186012 595166248 74281720 384527517 673329706 639746797 808400095 788118091 933363340 374891459 577703991 845273790 563124317 123870531 439195779 710008791 272397251 423014844 370202153 379425920 10229421 136452607 966863987 426415598 13916553 799124399 844893153 815108461 113762739 524989870 773030821 646316165 6960048 640388664 795347983 10992710 890420807 78495545 604122806 452172051 754233820 656438244 809536834 876905448 406500524 221998115 835647462 231470660 934761094 388732364 394540619 803873177 214108464 665756819 514106872 615683166 152597921 769471727 777117147 662379682 707642508 817666208 149699468 267512546 540383965 844354811 215719627 775782289 272150488 564336639 930905620 798626788 217349199 60847226 115254296 749138042 780552164 25133648 130733908 665383989 976528033 648422426 194934031 816562770 188683436 183305305 889042034 735778539 555509253 212579622 640502794 879295297 473108981 991653247 441932005 302853201 141858513 511768695 694594515 980938205 419726521 327347706 163376357 885111172 441642604 944685706 895257437 172894749 942750513 8210746 792570864 402285477 191590681 610664324 619537385 848778605 962876502 479317400 837202409 523378470 733777431 309233233 89791004 874364091 770705755 656277723 677363224 238300873 528677477 286991343 226936926 395209523 29848158 594190446 552018535 357250741 137983447 897590897 86568274 236341954 924506885 925187581 537719996 327019615 517564906 228915076 782646457 432586967 319464599 212215374 97905101 32406648 268473241 784741024 261453158 916596074 938859149 604257637 591749210 219099179 791731143 288301821 346059719 869510363 561466481 886552577 207431490 124516289 50680203 523511132 217272892 795588953 168483915 817969188 421993827 79164725 781119142 691528114 289387461 184491801 119952787 39500177 178753762 656502221 441344217 295646349 96602622 578049347 601096002 164223365 525520517 746681473 127593626 891738212 50636085 623631303 584757138 610050039 917624475 291993829 562843924 758914150 357426027 960576710 257010002 759787761 979948739 823847897 183645512 342957900 573291677 156364499 791952445 118477294 79516558 630409711 825580744 184859133 162982225 992443054 666833012 682599941 59103444 162664488 512768444 329187081 54714605 809016486 304100372 2628071 310034904 804910517 344128064 697633147 955045956 841036712 406713008 921583953 347758974 678837410 284913749 488070034 739314419 753986881 77779363 151533914 856604090 699618818 18082424 20543498 864148898 128268039 982125105 892967552 237256667 957208635 67767261 887600283 350214639 759364908 158065874 712492273 214171627 851541277 795596744 664527058 596989922 840279450 280855205 55809730 631613561 922598498 613955749 458145425 251777226 712901537 599554607 408698567 625432484 175070681 816737625 468442252 484656160 334973666 551224982 769110943 937088284 337098106 414257148 695134179 117172867 398674243 249674119 104249938 969679278 433320282 601092420 773727378 451973446 298967535 31595333 892104116 783863502 30785582 387687328 600746808 885727363 603503104 186386673 978812207 637649635 517550568 307212705 481417705 815635290 62722880 228152787 287295174 30258883 745174227 609476807 743934329 420308274 956130693 983040280 40993090 104504086 42490992 865645916 135848432 749044075 908228258 344550370 350310817 153283554 397600391 182514780 557031018 609051739 646844510 832635 351137503 555062671 39245387 37960550 898733506 754154353 865084282 459957831 443425340 926738160 947815794 752619571 234810911 334006240 75686370 240687905 748233171 354661840 299815629 57824358 540154642 752128429 801902528 667578595 725668303 997548978 500742064 635936997 149835893 395411103 714826607 664029167 746925937 380060653 217612908 356888322 607061856 615284235 417880106 468652477 691953578 359957615 793190871 67819104 393223088 900231391 538982423 353141891 637723361 562694396 432033999 796550362 403603586 880903210 269929539 453382534 41230044 577187309 474544229 388228346 998590589 120939225 705564500 655120874 896189862 35405366 484869963 328297688 374855431 180164397 601744716 172135665 946862967 211900074 522012688 918886258 792538049 987121082 837941297 598348974 428091591 769113480 25185382 612968699 958252279 680686259 368859357 503306283 868928290 286658139 78248315 509645853 565152396 116737048 172444868 277542643 672054183 425660212 174367395 911418058 445904649 170538381 357329075 622043879 692579972 867659599 327795144 939887862 59716759 410502726 657815645 432748709 826742787 915925099 424924601 64485046 25696337 39039517 793858951 563574711 908540001 959858344 702586666 72202899 200959188 351876872 22850765 720580798 413239616 442972131 451421269 28876453 638636645 417004607 996153759 114816851 454854933 2193092 243595415 754662717 927874474 761075320 638693504 893960489 530750749 381787500 302602019 474300057 258808963 486467693 160112505 3917754 836216768 344780463 930150845 944439526 762435069 790311560 662002674 781995998 230086812 467373118 869416815 959160444 842392174 283628208 760289079 404473915 9962167 524817362 721749886 961644189 522831414 600197395 717194525 708687911 966452120 46646632 678058811 562634537 797857996 478834102 214582604 952671223 444145445 222983433 417144611 626356639 407219981 70493040 47757553 908784056 746978541 269227699 516397321 383483671 200480736 990373156 919236914 252664976 262284006 897925582 982528683 672403637 32947187 622470849 987136577 705892892 378897961 486911213 704168460 101548862 94863665 728408740 131365085 761022722 820549773 945269658 547573546 920502729 796056426 648215334 678580347 719421639 143742954 583217784 218606986 509835614 493826301 722915767 370338092 42755876 870397190 513064283 391292678 6735949 2368022 602725196 132317976 519372589 749213409 598179241 684562269 219616382 608533808 610664254 442535559 870987682 116252496 228902345 939708418 412320432 401087726 828102321 417455378 227995082 46784254 8863604 619446335 664343446 541288730 437325202 561086393 375208764 809506854 419822161 27165558 173927381 135016433 498650607 966817581 933458643 932335713 5502450 269089073 435176958 410083390 467205810 924814037 561055262 894417441 423620571 389342080 103268741 487692952 416653091 786487417 331553986 729024948 902468188 112049045 661874736 888223910 6332947 241951171 76414874 583664273 941960865 644462762 635498396 630538018 44246219 772070886 159873581 386664252 357900920 573594275 717729499 623445641 712812843 211434131 996587050 966523759 101009902 105609516 172520792 2885365 79732488 168209078 35748323 242407271 684018789 889530942 746798841 556286594 683667012 311394831 95054002 104280267 591195489 788448260 4214477 492399437 174507238 139801559 42294197 743462704 176008028 484336651 800377205 583492074 466956613 544884685 78376096 398747393 854542205 800488167 403627146 364301176 506937292 851756051 634649827 242635224 123654745 406262908 316973232 463063417 566103816 553413051 461093384 290936248 667417384 279776646 47213505 955894633 937044429 975557355 299928394 736432794 241266086 158976757 822366508 192136738 265424378 813237083 435849910 676460915 377762037 490685427 734942386 339729243 741889763 155383368 719188355 111062745 257180195 117353443 313608249 623178992 227776774 846600627 576319549 863388293 919124616 928475016 652310455 633816582 164293668 811051081 975502469 644751007 242567938 794095062 674289547 154265825 408267021 427281700 267616481 659961273 810585874 929420939 844256586 680410154 675129626 435398892 725417151 129028477 452857879 484737430 471555174 796088833 594764033 227655121 433424547 525505754 724521403 956001584 284392556 864333510 680534095 540419084 49917621 2936880 619509111 63799963 234356784 713338954 136643999 823648948 871411542 707961760 137791154 554787662 976428362 967215345 254896969 569263959 272737959 650372854 524128350 822293132 478205602 27862362 208112404 301461570 47909490 406972806 814614861 646393318 416999307 67230602 256117549 512669166 457495959 350921874 511617259 173233294 82102689 651523180 542625112 625278820 210167958 166848795 396826357 256944818 769047944 445093400 51355326 384087190 991728812 151204052 661219818 634864968 632343196 696614444 675227602 934166579 963106735 303599034 600750657 240874209 767678664 940672996 18089668 903318046 719313208 82620655 586936199 32190436 207126126 957423300 158528683 750287014 916113025 317834194 36652659 612864685 939215428 213259337 212320345 378565666 93614428 971086990 38879057 828617762 218573578 272328234 84328399 234381699 480636410 142591888 130754059 549506422 518049669 699894962 749997742 918729378 76153915 916609149 148326231 481145109 952839132 184567715 982384691 88669917 104121702 660478840 61898747 245649937 506946909 970542982 727513366 593694724 380163048 338138509 79793673 585793518 947178929 303912725 327506571 20945346 212417083 797632316 936382053 781331624 495948838 947882559 970418650 35725751 25353417 987380621 833859436 257675064 205947188 712831250 267099000 552401613 472045871 596440025 938168388 845142167 216200731 242266063 312806422 464959205 670845978 975548938 75466214 279518797 619354083 520640660 481102621 45407782 164048261 864866864 261514532 689770820 567675551 745030309 775481040 496845409 86745141 35639182 3264552 191289059 201908200 291348800 525988320 973349715 13858340 708989408 367486441 402967182 854605862 170916364 149303040 751135296 923147604 899672118 934932962 396238388 23332547 836915864 510532316 426687312 789400375 80347458 493045362 677605114 153870729 800655013 492768898 936828129 834846911 380796881 627177930 388361423 520515269 325494575 185206332 791874283 17017768 110248164 323194894 715541483 251798183 346081272 968616697 19027541 686177516 146871723 526035037 174692917 944612749 69647997 868803749 564236433 765612283 977807378 168308891 505486040 900435693 154731816 836624078 207147542 292388570 974837142 332120086 120841611 118894658 793442022 180035742 985227681 885325733 793857609 959137100 275992020 944913564 857533366 753286191 828537339 253080191 409104591 840868282 287422583 878334385 71137171 273969656 649896953 224094853 470176274 139303489 731406052 81226854 910657600 947192674 313487104 178600356 607227464 909641612 439978544 729392197 156543025 159772232 358528659 180489446 312624634 657904593 800736509 285414681 570269457 663648398 362579931 91346721 418230918 992118470 861251056 715034674 597700606 47122309 239662458 158905027 360591499 408771643 656682236 281802548 474805356 307745946 942299602 942588610 462714848 337077594 529341456 960882856 371732490 301767039 14573084 27126947 324922078 809384665 527207759 509575078 246829176 873655208 505320439 577554393 945207746 171132576 846258929 886194672 594296422 611049750 93676314 372280337 690353376 3741260 517023480 72638977 967944742 620226931 118362855 917124632 585628109 552376851 352960601 623803226 780668523 416502628 804522633 846836276 145865398 973528181 421572190 22203084 689203806 548693468 393732122 998392575 896923734 570854476 807321784 604825386 479256012 418242830 331713065 723437181 988516663 387984436 10440409 507881677 11705672 75626034 513488626 447808888 355852510 838676459 984450872 162301023 900606742 748572299 724342228 412796358 273339190 835364911 774477237 74384293 906162427 22888551 533979918 28325723 960802750 925341557 814927194 925441958 511735566 145129795 48659376 426421039 231087428 538642718 893435552 17189275 1404919 847907890 914656731 632249071 552817506 490559214 552796475 86394258 897256976 372951338 707495472 786375370 865324539 706221695 829069309 621942757 605592995 744416701 627862853 541520861 712954056 7166156 321414302 760241303 965069760 611903627 830255849 707982707 369560618 539834553 705400014 707302754 641630943 533700950 548493230 105182918 695229957 364584516 162806943 617448814 811000314 822219845 846309392 745532750 269639964 623491763 723706309 613353691 542391466 670345526 751236035 801277982 270780083 159596521 311749628 521146222 919810763 968128100 264628323 682041974 694346849 310498324 215627892 948173389 662304611 657360831 531824697 311018661 157583086 334325920 535948283 781511975 246825905 966083187 714527777 67919103 282188169 601066866 148946021 831710924 28070903 592806055 106109925 106997439 789451669 599823442 174007640 705116908 245737701 548772162 829826391 400745013 430448925 661584521 880852064 32115418 489143070 613692314 994688114 259718236 318019366 285393128 181147261 590634983 939159727 768248873 816835832 92113148 483191831 586402313 193811475 686269023 392745526 590104750 749792808 209497921 685323763 241108465 722846305 205149954 906810776 364180444 605237266 669035296 747888107 898606428 215209059 369028418 616884914 697340267 663870977 590047211 756307823 759957264 24742772 509501047 57867458 277857557 784891861 566310901 379862069 630152681 159155397 69845480 572220954 384293176 119473703 414956218 315771485 533238116 308030724 20550619 356185104 983961537 536185044 442122451 200301034 503343066 844563036 133497121 235705554 245981126 78898600 186239018 817496584 901565620 829748562 377061511 744402240 935391810 741364232 272452955 978673710 349638915 824122982 450443683 206950878 872707106 204031191 279412365 197615661 7223050 890763376 791601560 720204904 189112435 718065547 496198453 980241606 893044114 553393699 920788312 248838713 975615024 961671838 316733230 813265454 9689720 113604702 125825304 44795807 109265803 244907813 157408718 959394537 970907089 724550696 238117784 643480956 893505003 491209551 839040917 120366214 359860405 643510169 538114379 115191865 813662752 44418378 66597496 363163557 18155227 408067059 448295223 992364049 332699200 833580879 847564047 692430552 314787647 821167633 295150504 76951751 476034238 831709301 530209063 821811362 36497121 280790475 76201652 331713802 615411581 167585429 382448241 352493143 372011660 423862063 797865944 215977877 522455574 64753490 390855281 67922387 66679558 825282475 996398152 410124317 240917878 256824803 923161246 254297572 245484545 956967339 928430931 607456426 856898746 711475708 734449588 316831181 716632836 807089501 455482801 611612977 481890939 250457268 74984906 110406133 932091790 863669760 283648306 752999801 970725067 8589851 722462944 976741199 42498907 863592296 617945946 617828844 286160066 273588150 451221100 705379639 73413925 930259367 137402905 367285492 899328161 262166080 839589203 918119650 847570144 77781510 852547406 26560952 465522565 852643066 58745930 774134954 363984027 23202229 794518688 934323207 826767705 498822140 914898773 322799036 725632052 216976202 963366919 48427195 414398948 46263035 263517298 757973921 356804609 418941454 682767959 449095909 419730849 133975455 521243398 814219724 871711968 330817555 268912976 680088944 288648258 321010021 866590795 615508164 340232989 499411397 49449376 925655652 739820102 482383874 132246192 879104702 486198617 6955868 145014122 787241562 810144629 294148575 523009994 317467462 406332910 782101929 937977864 26236154 50253027 959447316 563965004 567525052 390113210 271003847 344976815 481749968 74103625 389639561 922521663 371069980 87085989 728181174 970907084 558550774 765721738 494046162 116194189 66395565 90973810 742799865 563979333 300827742 992790784 703675858 785304012 821641963 802731819 525121496 471750093 359362960 3646134 825004770 162352145 396539811 602255146 320217285 180577435 161098410 380989982 989102693 656586577 693969765 485685763 753204454 981740391 569217730 290232562 388647140 807625133 94099609 61949356 38856949 204721507 595577970 209306398 231980511 800100311 24506882 509517297 172092302 485037695 747422994 56441930 984411367 917019637 573757611 96066420 686133908 518977905 213811512 839782550 463779877 204766161 40945633 522570816 721109738 961005495 183082640 859275142 26715925 163836349 823050011 400253582 368113800 191646241 661204456 992780533 140897238 466566623 724414327 564667209 62797722 245216291 745067948 77199225 676824544 352267543 936638754 323205491 268751861 928311025 659791230 845949815 150300119 689164214 169756245 723069668 873872941 921246261 704681772 163791883 502832761 352949061 845545750 870400210 91952741 403480342 771441279 37963170 629907242 543543230 160745600 604642930 614528283 714587321 695166025 980209746 222122419 249475394 345798181 944803967 357086564 938684308 375313791 784906727 174986685 592861023 388546550 836459965 471548725 491680441 881687134 654766021 608197331 779650792 762294301 709713126 890335129 141654923 219965282 659563860 627301843 98202927 347998780 863130852 896269801 182750819 857517048 178839549 767145497 345838001 551795292 961037050 136019510 795443593 168582949 634629043 904321413 961725573 234052254 618330189 774432953 378236216 954471935 696175796 961005794 138084981 260178714 442213960 3791791 42585313 42945341 543395074 441261848 883583982 692982183 593832509 448574165 348150228 941338190 395544415 152231622 555740193 957123897 757120954 862980774 301041366 112822652 338224834 895469855 239922819 574979642 157217935 611715014 772659586 713512175 902603552 832141408 93171577 16461712 306050258 464030150 975358094 996717052 536976006 452669336 10708577 386312261 956639305 950492343 763470220 14202236 619713091 541594379 2743724 490839213 887626277 742072120 952035583 946763176 945162986 675524210 420785179 86304707 495095564 973993322 436312168 132616962 108131596 607164459 373271953 619469211 960485057 978081517 38070846 950264151 90646616 576486216 10904612 812424383 997657312 495588747 989893694 556938163 147004072 451264314 148847339 147507508 862310071 537830324 951867050 483608108 387546976 260562771 485932414 514250294 588647179 225400268 345643375 630286284 979905293 233367251 728316959 584617346 471536472 617792196 202995039 914725171 533378222 369077722 387259419 764181644 143155516 222729233 289886583 623220252 119356844 567977380 64788212 568184921 836598997 554227531 551488790 665960557 190813752 359763790 391039203 17363845 272559538 558002913 276549074 64437383 480588097 613666173 389335394 370955633 645209099 56792683 928138110 787642259 892749005 279225939 102868919 602909511 959226837 138863538 50981649 520361109 538843427 751581448 224373523 963058993 303618807 327111125 57193042 73224906 382804014 385766411 792620535 809876535 249022270 67101609 400645676 794761305 14285059 309055900 189272220 70081767 461018905 985475263 426599620 281069923 693801629 881156980 207304658 833538564 647343602 393078898 504005428 71338272 565037990 299377673 368891906 894983607 537919606 742875910 711696447 117795941 506471174 978529877 464452486 919755571 190135833 683195075 454951013 549504038 39857035 286395435 770873731 294155055 310942628 408142688 733112557 960859397 672759392 273413309 271874384 238435755 102267743 866162419 71182604 661452403 744699137 345943164 6181524 395422314 208249702 214629253 668374175 362735137 471728947 876565696 236789165 740609281 346281030 904912209 759916735 356374405 321873715 378026943 400525088 66765055 366043250 663244295 784775446 692780415 344914811 877376223 73497076 290748005 451552725 906901680 391750490 57885880 984169091 959542981 639644656 189103044 645175211 139379396 683127818 567579770 961528756 495724056 294495300 572669554 107993486 462617619 717429662 702217754 457138903 507338028 400488778 991919159 96878530 347285101 485954300 880471670 869267101 265707771 523057755 2175015 802494301 6145758 351493828 796959589 20048900 587961181 73020817 389176073 701028542 280668807 524048543 130732012 240418145 280749568 698804499 284939400 17590542 136180727 255331361 548410471 688819199 839744024 341179087 957780845 876907667 830121630 99564938 130168985 799434521 510102216 471741713 485132230 618333120 868897265 479513936 589996829 976718654 737715982 781633257 466300762 235386493 180143756 842457767 191570809 934795419 95987188 729290320 935239984 337594146 20257772 815156872 112304075 827792435 2939658 423133933 713835800 728296360 992200055 644811492 7924864 917491748 524437650 24821299 974614390 234516306 285437517 428819775 881857691 605255276 631030568 895423095 480633414 177134564 116399946 46666021 256997823 988658262 197596071 457270226 154216187 492247900 397048867 242307773 705470975 960409470 325255506 828516158 437691111 965725436 370184932 830826175 557077226 210686585 418855971 486597872 378097267 127498424 247658453 347493907 619489034 558693942 75440575 105022141 800803872 133760471 409388760 928870992 374877397 616627926 194863101 890114719 559077645 42480290 490501887 870491655 548745951 729189334 390805291 923205366 33982994 580839011 724223513 551314682 685283079 338205412 206622676 563663838 793662021 605804535 80933860 803693165 323597815 524742207 591133394 849936334 811616230 469890845 394561036 20423265 922160460 65327154 749533278 425808399 703779358 437540761 596017293 690954883 758722642 548330856 285931853 345702689 501686198 274587557 589613007 18269201 89680279 393124227 43460545 990244263 685720117 131405132 775266199 140448977 593247782 589862274 75335746 982518701 817913672 600034713 827742194 889800128 119625949 904261746 403704041 755253946 227522464 169778970 92435480 970312207 158327050 885251607 697648291 850501615 901130212 3860853 901624054 281703631 611540386 599048831 610826079 265957370 511483835 236705648 518362192 725826247 331770391 642396602 413726086 311475122 707183230 290008217 294513460 135408778 579010034 20113444 341119352 689404483 584262840 80418832 349255284 2184925 979415798 675107669 615729407 202222297 227977459 785033377 182746561 207255716 819023940 919872897 147776224 901897578 372537520 738020244 77429528 457578714 34731301 292802638 859344184 362750852 712619690 262607612 915152699 751570525 681547953 317526865 223680335 705987578 230266313 263091174 776799733 517440601 797633689 93257856 115788129 910022254 603934402 972199936 394909442 544258260 693584433 696587124 318929733 269179472 346939769 776457476 479986739 956880957 256638590 284065822 982555002 365808503 668418044 781485460 805186172 864600343 292964648 159761452 32631947 999321414 530286407 958909904 82154526 181418858 772641176 778405747 569833446 106810611 815561992 361299524 415536006 259249139 30034339 105732728 213016659 96850878 468347550 374802958 922332291 956146232 229249781 254657494 643322278 481921504 318777545 561798065 648154754 204577883 914533217 104104974 943864575 822302859 613805001 12366272 609904345 983525052 100785072 678286589 823969293 36512875 690522607 232608537 254497252 829878824 61768947 220427935 371672061 196574874 137232852 891700362 216025986 86116081 835424036 975641616 630939664 89844630 683797420 547846161 412278422 504667928 856274504 306821345 908193690 774905588 726194590 929746908 227031211 254566545 837245819 531179648 667753504 243806311 395702909 759439827 572478592 772509422 658446413 30631155 668964320 200304784 52185201 329913192 750532040 323870714 368366853 917076308 384412777 959248362 159277678 99138566 629774629 626395727 316294368 442114081 229840982 315480548 51509343 117696534 28115062 111941741 887709282 314656808 773329694 321722534 599670184 9467559 163352563 734681640 886800698 352448545 804901087 809502369 307274588 681024541 564658056 733978734 335254571 632277353 387388218 470288888 332584378 734410823 50750366 44928378 420192920 554910185 819099479 351342076 859187959 281629563 948608185 514585088 495111190 781376398 670279850 769047498 943496208 229166371 403537893 144589792 879676646 736175719 862852188 35492784 840827208 875193321 613008203 191425018 702878474 708925273 959902128 399186392 82611936 563449659 501146172 90086691 894995419 78151247 668249771 480144093 870159840 241222003 862903108 618299353 781208809 206871013 872842808 939654917 308467021 997152403 584307565 695598941 837151601 610261354 83550177 143478108 82957830 362748347 858828056 290543387 22679791 657601225 264038317 664507670 339380397 260037863 184008706 145884837 560382840 624198011 710738746 216774486 885574171 619835253 31179556 113913451 936502534 518239911 852667283 355749790 655673184 849595207 122521248 530942597 801699516 983745118 6692409 162828319 709613271 446455311 636879718 260478969 740661638 662465868 615386187 608080161 419455059 565218976 345515213 571721642 225212170 807999315 949882981 76472380 996450424 909632352 342101965 919596865 353038110 496847403 427614782 469204366 748044210 302061724 864698050 144340027 34983768 660153463 280208803 791281834 274210942 901813560 574571368 802344235 575926517 281223082 808854434 456931212 171525791 896130153 46035734 885845516 574577437 221285104 53332228 67741401 21872652 808907637 65288986 71998917 551715213 28000207 567687148 653795978 563371448 704818737 576710871 887947506 975512380 448155141 471833563 195699086 661607536 139506763 271593950 701437045 328470597 863109177 898456790 566061287 242061342 817211429 408749787 428050651 41086813 495750728 349198911 155803706 785680971 728877480 323998565 493459865 128700813 755440261 117746786 961566508 926604503 235762503 352574866 503140044 297247229 338989089 506494074 410074551 580139165 868436787 844528522 307190255 314589191 532001648 802822013 487070107 980293894 462298949 550361400 871576343 381436901 688520882 828708585 972084956 769260671 297717162 824981585 539744556 866843198 541553833 192395655 986401746 543970689 814201015 164281179 40750859 694802705 489947212 921864093 497503216 637237937 223422818 740676272 830825045 508599870 489855908 971149758 668399097 561841886 352751401 794310136 612367909 923440478 860052373 131657844 99170270 672313078 213106400 197812735 980481238 412420020 153427048 198932102 933906810 926574038 354685889 711433729 177820071 397174725 661898287 476754242 20509652 14706083 215725949 312793311 603102739 508950791 682964296 892897769 484927414 220401924 477767711 251670232 78765316 181293857 447485720 29450942 632741613 50194637 828425503 853358959 497820827 253355584 749896495 306606749 664853029 583045046 649163230 60639829 826608479 789561826 746752166 511741672 786936169 932829712 112485534 224113187 94531551 565544609 118253209 698787187 788636471 740100268 757489879 846510196 823740873 403194427 872478946 477387405 810945068 638646439 205797490 80348133 852854587 849952341 28727810 54666470 339591680 496341416 118989418 553629868 697613539 752817826 416485425 912393419 434180086 39498203 930824371 334101917 504972513 442888672 602109972 518133415 643871613 91398377 553902166 969217483 859828931 638928043 191198278 783154934 33031056 817519155 439301515 12616084 120028599 131909683 425432908 192142804 16007892 973650911 699084569 904371601 495093504 769726021 3721877 13407590 980103466 475506466 332944966 742445090 440113037 605394114 607110790 594565118 16683896 588165787 910074448 824729064 388566757 105840319 178529432 972407853 844543365 887862382 838656813 914147155 354504350 189443763 727059803 14783852 51690197 810046475 242157998 890196198 864334205 597539403 170178697 257184997 170501251 160945772 600377947 712462433 727041378 939410711 81390632 50053161 985514759 548017160 283099424 668068525 961954618 433807164 864737817 162560162 291682795 478939859 536726584 249483923 98416945 956087092 745702253 903630058 877362013 79258210 726480109 752601465 604104167 741992390 154425437 80489361 955580327 112965572 717301296 41185699 236744147 612398434 764796862 470649688 771345013 256440141 918657139 334022112 87445192 521784396 471747798 457531672 41615434 139436092 897254724 791402039 905305782 510657265 595332061 16344321 757018137 818673820 452083441 561305330 13849938 93308420 621032617 823242115 152231409 34973441 860849816 595250922 260615615 334492649 962486455 575124575 476563351 23179448 250887697 937188530 784275292 402151489 666480788 338660000 542403411 153167662 287394667 926408970 752541419 655567598 10072445 576327758 31949069 440449710 836037040 667018188 382622873 391221170 509548825 754052170 263645552 595675369 660918899 961780072 930574813 945197690 219037595 220352973 327127638 423702790 645605181 719662340 179649019 106284440 300939815 780793812 379559657 354048591 133860759 512645290 145186912 22870974 74615986 207847313 955509518 69932905 184901168 735346500 176962028 701051059 314037036 909005870 733264473 974800560 274497294 897984631 527097951 443353317 435443649 812758298 125331298 291715101 275870350 166648848 231037150 333754035 848911806 559656785 197277449 837742519 414906632 190512410 672329071 99591851 737845336 958502504 525894944 528179919 547023400 39934367 620962853 230424455 772934949 388365705 814164886 75907359 628397186 858672880 516617886 568715281 535120533 977740283 171092126 170217144 369347113 211732941 606314531 484912341 496380608 22707857 122148652 923500083 815740778 913310517 565078424 759755398 592113090 659499188 630102936 108396543 819239599 938017969 127257572 445832916 147414401 906982148 962828756 729377814 192081562 438700355 380185568 62633985 713866929 172779709 758277184 797100647 27624529 148470587 726443834 297397981 406654575 644543603 354242989 65037906 946181120 565499609 400993213 367841817 337124945 535144289 147136335 113204051 375771111 372339293 25968831 297266317 945806261 721707209 372641935 57839021 347017622 716096629 277155522 351975216 447114348 755457129 423503846 78672275 679000616 545864249 966164501 159567607 506712074 337416767 313980797 579411713 44207076 896303631 214518448 431256209 287549877 642668729 359813905 685067542 639122158 150191949 944439328 427398096 954646201 996225677 770008121 794114027 947070462 656153286 860963332 628750965 430027087 782342248 26480928 997112685 356063690 727430682 184550595 713969480 569763591 346019397 682711274 220441528 612046228 495800129 796743059 216624878 144944226 245476242 965147687 460255256 707561245 670619187 545596526 436533191 213975530 229459409 501388907 818509896 297268453 945617316 737833720 966433051 365929654 998349772 416973855 839212167 369850032 994434068 142557415 507339264 399335814 270866447 778892907 373898690 594997956 265156637 920076168 728968353 814178652 876634481 678892881 178281669 569454068 629142621 136885933 283111819 381859283 348310746 391768845 326056631 655986965 785755611 171913095 680040459 914035972 357917165 499153229 929963471 146127417 259548542 7191429 553544414 609028197 911231105 308732686 864608334 855864017 562531311 720021550 394302278 986580785 997473916 380750932 354612673 815540612 917259072 701529252 321855996 848530094 739348253 854897328 113260001 337789184 109920955 271869580 202910569 376419163 51931796 632447272 233854462 219628176 676803345 866460043 546755339 707523695 35361145 595942018 788404610 87782666 205949394 213634625 554014391 141664715 875802103 105094957 293541393 814525073 520039110 578484301 178335995 507723939 124923676 421934225 899962266 432486355 658944784 51280203 251259501 119764418 337649635 531389553 665140232 84616782 432085656 463130146 353119646 448541381 760337311 586904096 614822520 148120855 773436817 773883462 730465671 330768078 505288705 526668368 111153104 673501169 395458878 213247436 929026750 438942374 98467053 952133816 687256614 356694429 86560658 609859195 594584898 675726841 222155734 307257539 428591303 572320026 307738427 640174105 334391892 168763833 730055742 608977508 544004660 367917857 136852090 936246537 373505166 765738315 980721128 784648263 317806971 806732005 90636352 605669198 260581230 990633957 586546519 715869197 794471517 243432097 438309928 927123713 699620335 746235510 432812423 56515351 656287634 933368403 562061483 219729188 24512229 113409964 357579658 702071111 109612559 859531422 329759064 702071733 291974932 558753390 479625298 516644704 115507028 169366934 623990995 618123896 76770660 794124737 218321928 337416641 436043930 677394297 620122415 155050378 968661600 431049595 736331118 951973854 540424937 806241091 981593351 743806216 656526455 191415837 321062185 681849581 897087960 355384413 581388513 803957472 756530100 489724079 477165678 972236971 756126393 88599422 717795131 191002632 177738254 893775723 447067454 130549137 906150067 456032274 167875386 349435421 835522051 383883858 81094254 428566422 721883216 798266917 289671429 12988516 189781745 509732856 190321065 746879480 525749943 104363602 245331874 108159546 886994036 771933334 275927096 931596296 426920373 548727661 8597223 300044455 372326478 661307881 51525487 855294311 191681402 310263560 100455309 618476105 166661195 4840398 17182992 505274471 954347426 646181027 493056447 310938677 669931907 895447108 670616346 871245422 998370903 453434381 548027712 168109844 33086416 543971418 381650655 162379510 560596501 163415067 282904608 381415150 640906257 540275517 439675814 956347398 584041792 538677487 116125692 624447800 563213908 192762378 614925525 125671636 513613533 513005174 43943194 417142552 877145155 142824125 519996239 597055309 636276329 760619796 801052517 536406791 38963808 27251930 297500162 50111768 762232679 466941937 523057600 676439043 163232841 795879653 916883670 799720084 106138817 202792533 253091134 967032455 275223771 103806973 94895286 199500925 696218754 435010082 581754026 394238718 251408377 968267249 2159782 832435249 244122905 662745303 839688851 688418757 437006728 668666435 331322504 424561575 504664339 808223283 185595048 539635087 554216938 503077683 503150519 446597892 987120372 77216352 705051675 314304208 431104515 80072955 753120437 507409795 983312297 588853237 724938145 782283229 41407546 145509403 410596863 700888773 507571609 518348081 741568914 306115296 538470628 371499422 810105884 96950747 820414140 926019664 468796931 493564014 160394677 503951407 546969608 835651465 239682726 42923001 725734959 134472889 799631012 966633666 749579839 554647854 222072134 395843904 715821810 109089653 707269347 212192036 848170367 7349690 25415702 197884948 497385872 100386667 734246589 559939818 765544059 70019786 857754805 141203083 491777256 880145753 136263593 714604178 650676660 907983557 919842670 260729176 663055365 412735814 276285019 633187880 139800868 355117308 915918255 889650082 392760706 639995481 610382289 463218845 232183399 655891733 306653338 315274741 347982799 309963201 650785868 417907079 949678382 741246937 154637380 626661432 150525875 791506769 947050969 789587492 222346944 642545568 467733709 882803809 50553089 702756593 779864841 678902546 12755545 40161011 108875672 966927584 638734975 565664237 997635777 39078554 531376939 676826881 660339104 279272579 709295159 502642520 319376598 736792025 57032869 625052420 766895073 313191876 56126315 908279733 566159787 681549062 735856579 593727876 686202050 570092483 349651639 397417844 596513667 643217308 293600771 475653579 496575595 841922977 62293461 444029560 734217064 725692096 319589783 28080330 443405624 612465009 58220600 2274725 92273804 203454641 334178753 33314764 13278606 667974320 926581479 461623133 170721204 737347576 254934021 745027862 690982720 323457889 945455528 738181085 781765390 104314306 484037203 238360707 637941075 270370406 703300864 226559564 944414895 8158473 870346066 203407186 834990592 408741119 461243573 169035021 653858175 849023634 734017039 363477445 133468842 262484734 977220051 95078203 969247955 343866587 215890750 460401365 47426809 879422966 991264434 994180591 878425260 631496123 669944083 683933098 761958700 300892291 314319042 206498372 14240400 753575137 102734647 650389127 99735750 484100251 826059995 206605889 555974712 104786319 353219848 168706690 299592787 183483748 96529072 946342565 623842160 729363546 75905538 706042062 692199342 750948018 554549705 394108985 602754610 52115458 102263958 95502845 81944499 439533032 573544671 686034268 962370922 676641685 629173900 765826026 671251544 489188572 738571032 106255812 514240361 353481012 827436648 134035092 640015370 711173302 985739909 725575661 568316839 76819017 809091239 273945778 905386734 771677500 712095431 295183011 831315073 363164651 833892086 346285123 12449277 718325909 277647799 63264971 564971250 579920172 647168701 751203510 82379751 942189636 430164843 624909609 41502772 527428952 166382638 544295853 789078305 610856798 235385219 288848498 585150108 471199732 912234077 228872930 950011438 59109269 61146216 615365547 307624096 924974252 266641271 835631968 509773513 129262040 294415477 782670830 565022042 191602224 146599597 459631134 2612749 301307855 102432084 964266396 10404947 655093559 520985570 386159585 109316308 583321168 405738695 611039019 217872258 778343962 932082471 561307060 407874483 815365325 312548697 980712939 715465212 766861291 734347795 782641130 616239204 867091813 260131058 313846782 395987052 487695890 460387008 931726707 321029443 417724251 161812456 159052780 286530539 83084697 772357623 45780405 514093187 847881711 673969553 528898077 9862470 407172667 59045570 948539086 793298420 305787529 263505070 64286657 260126943 273474370 367309266 698961425 272932132 192385943 881826211 214156995 506840614 95794293 351641154 234831802 972859262 20092555 665692886 666326767 565000525 365316070 818944790 913406480 952074291 428755838 344808413 667690685 538888921 849445492 611966775 283326976 412169723 112382785 959910665 413462546 115289522 609167347 903295932 15813232 365131504 161914480 17050125 654285473 852907814 784571432 623154769 6527554 653966040 87206775 939597166 732753213 489444156 674283378 931070204 119109599 562889876 549087978 162020669 675069278 673764835 770740927 733850048 835154597 793004031 715618621 514221048 212369385 781987943 755800107 621465083 459193388 271244364 205517177 610474162 176681059 548058113 972746486 651019275 543479568 987061568 57437940 219791809 129089044 332232687 317579787 753774723 541932567 440173355 145415257 299912503 331567681 287810987 785915976 289778697 476027430 138368897 462715692 974864496 168527114 133909540 34002264 560948506 515730658 731570193 790548439 110867790 332061772 406527024 466362797 512304368 417360724 937580468 456539366 542170294 917504121 204914120 546455928 13623637 112083471 533567811 390473543 313710990 262498391 354124867 75452080 882856284 263296215 631638217 481926979 825035315 993538443 692854902 779081336 493441328 365900503 797296945 108454065 955452208 894755665 117221278 60519538 170500380 423136244 788566572 408812081 784010103 241043445 724883754 170089942 810282830 53960879 900261288 536998027 746782997 851431658 629375493 33771257 777709361 810274375 561893436 902893703 2831803 650579566 809672878 389739902 445944644 143198707 826153859 371003988 358797547 16616796 351185516 353651049 288690512 733213315 588268436 372799096 390859892 877843682 43927260 579894393 696106609 82163363 846629598 209545768 746841895 782298103 962244212 443962639 808094159 187273851 773092922 491599827 309916739 743643953 430278400 925236919 50484582 661800250 432677493 756356713 292432582 389754333 822806817 738610576 138149140 599199089 150042718 257890278 444369268 123813640 122843498 950463029 591887958 475473881 496994450 736343275 69965555 646038824 457582024 367551442 980728297 767825530 270857058 822371497 528825696 880923304 300153666 610157966 547410177 974692830 74872541 183669083 529358858 236846837 666807124 17060188 593481963 821355166 992971605 826811206 269878682 211115250 621355527 82086579 731286384 841215274 121695249 136842064 676926210 742479014 978288861 145472926 105873075 909793366 15705865 878674922 270969821 638436638 187486948 8902167 653768453 876948885 496919057 397369169 991442908 183773900 451593046 462828355 782667435 540951491 275501091 988327228 638922276 697167602 754959672 259394326 291458488 136911220 5992530 51461321 374890279 761067624 546098791 488800658 351768019 436976900 988079610 370405727 191552775 388377395 463675322 718873635 345012164 990311603 234640780 293306195 737477088 614212024 315253734 716385265 707006286 85577738 316568149 46007529 867832251 615926460 543806067 54406156 664683726 315330344 202480827 830000201 171602371 825315400 712707942 489025618 456288299 508812866 894018810 994032688 727391926 874436745 46304432 902629543 925469532 611066112 906552053 240964889 118422656 883135376 36639299 743950552 132736938 929613247 930959145 874792052 869116981 656865728 533583793 305371616 392176982 296059914 333453883 893766830 762706201 263360732 653961199 168668695 800082509 932489817 298315206 136392653 177500343 227341011 633724041 879534159 406841513 470759661 796797605 402913387 813690246 305096924 913346863 971476519 698469169 109192703 711944415 293287814 318937724 834266155 299047986 333611037 130411946 338592985 96547293 383084347 208647123 659803012 530885022 285845637 803195168 586726591 847301872 63787057 954372656 892094912 586928074 963936813 271281592 181591609 282842283 826990078 502452500 365377474 444811362 174758064 276787542 14136495 961935944 695367881 739143410 422201290 571163831 626859327 992510743 460771976 675676087 718070272 49622088 733157383 769204679 751131757 802539480 769422308 338506810 116864696 107035216 726007336 757468305 870493389 141306154 122884670 586405956 952317373 501632557 630815856 540909340 803211220 162224984 101388575 854146266 854333386 510358884 19564072 734679615 820339026 15923676 951235174 232740949 560499770 214133655 178163170 688009377 816685041 638586389 527014604 892094074 888805688 644604323 387928442 337235264 902072521 906034578 279915772 53266462 653056416 29461517 416913357 533717489 825830456 491872540 137343883 206614066 440733708 974278060 993258919 524473542 657794004 529500188 66761037 107566203 603438373 331212273 398016985 112484242 437153965 742186083 537423201 280029898 271967487 375335067 975744988 535847517 51123920 262946291 730711964 115125217 116337708 391227515 483482656 836390793 912881763 369778019 429903438 378937904 979362567 345676795 692271006 371552372 586700657 242495458 497573580 93784677 991651141 128317375 519994782 672948057 358215280 391299077 649949119 289835329 796194795 22866451 743995701 838720326 561794398 12936341 904075434 910803919 142878580 353413570 555997759 335919999 434533240 196374834 261301738 941552217 528611198 336628546 349538192 472094209 248000901 494867583 91289491 144267612 873862243 482722583 676196638 307187840 792002813 747578326 467817123 39383713 919571131 724574371 796010757 82609051 636672118 395945915 686663127 465182596 18057261 496312919 814250004 665280125 494120213 117509185 210749488 893494467 372503903 949870225 73931254 1583172 643303112 223216788 697466187 512584642 256782006 432175619 927490394 456362550 445508937 291070374 848582224 448956135 375784200 348793392 552856355 701562641 170887865 577011150 502132185 148376051 364232823 751584969 344335855 154505233 316823339 682119988 185646081 324561149 601117081 416679591 178076518 595722027 277359667 503967056 353289176 96880332 852312957 549679523 208854977 267727117 533224589 896067088 532226351 729657410 629417939 293118084 429350196 926122065 25431598 972779543 797639500 363544602 877661913 51448872 585377785 714326235 411487257 997077725 273825239 401387472 6800912 614505836 669167902 639911740 988242169 721403863 788616749 949130974 984944494 672738510 332026272 590617977 659396488 970516373 998185916 242710652 61912734 963546118 767579667 293506390 247611309 405513162 735950618 508551905 665074723 349149696 775740532 720321411 606748738 958214835 610780418 988482065 687694588 436925317 680064819 757002296 86761691 895612784 828462027 262539036 203004416 65929667 123388039 436953572 187544575 458569593 404801960 879408179 348519877 626917543 39042929 457389237 794917143 499673843 125973660 890061823 83178347 639632191 270231192 799942890 815620040 697960778 789461183 965305525 634349883 186453004 446740367 370704616 608893806 333734828 742531082 625472285 171957828 867221712 989483277 944262068 231428062 519870258 108661947 344823902 78253231 429068183 706612765 83117967 508981165 835057619 253700840 431237429 567051871 995163846 508721938 307790233 596685524 937791183 18796790 485465576 379000016 687066743 68267229 415585228 897019333 139726051 587907663 600367194 523258808 355669680 428521596 510559990 729365988 10736953 476147776 434756412 309148666 784995162 114786792 708701111 265176515 683561786 224383628 800896140 282944212 395607604 358890815 626188802 520480759 938966696 458441973 372142335 734296488 987677972 734413444 106268031 788752991 805764981 546321712 301570838 784043827 453976135 916965043 306857113 734002423 950421671 926339147 229277170 273803559 377933295 4207387 20605994 594521280 607583243 202383322 139762398 71810723 583677595 323379557 225397874 475812741 350345596 942675346 410514408 957712607 736955400 738440580 944028152 133159192 844016196 659463042 395681212 171238079 200435513 166735815 545228071 859603978 879494114 263663903 190759874 562367252 776542930 924081154 778870192 774802039 168802805 8630588 975318315 246702193 638696987 33971085 512066573 989617548 399257481 794340575 821214805 69989849 258658223 152485800 97052826 573760555 624408910 46358265 426832355 690673675 292460621 238281852 172970452 713293633 155034991 117371535 434099854 603902900 494885641 38351787 213533297 368631616 616064721 423020202 166572402 165271333 408845516 789811475 736069967 567685113 727650860 171338704 693642142 622746549 583323546 559112964 564964050 754871181 708782391 958029988 864255421 130491076 716144413 564897793 450153305 443245009 346996053 974801088 824250492 575080443 995527696 10917013 505037707 278461728 467374878 956568117 869129004 411693208 912409506 410889280 307737236 61343889 225218878 153012664 496100851 519283424 741579058 237664143 316974506 367648136 802497409 696989603 311354609 936377139 236699688 121189881 372188565 537122660 118836848 688196487 69067007 861720384 197739557 829543441 886524303 217671150 349891729 501736561 392310941 859793078 436317589 529091741 183242903 699772460 470820953 282087173 707931043 944778067 933697004 718495106 892651696 633261996 693602093 868600586 66600453 462132897 536891968 42095858 356602052 831804537 622766282 819502825 400468299 148497206 397057969 48549351 960124107 356298740 659773573 691483371 399600883 185004108 894750112 756646369 784093752 843295153 902473018 237477643 114554407 838710444 704593808 688028013 45660806 839348536 521607235 954674080 394038939 445936838 537212059 451057581 885019333 900648752 551596047 626019896 697000446 242819309 977044148 950926874 230675193 173659918 411508563 188096069 254993785 305407421 292971521 128816327 329020772 145477646 107522881 315647486 573426137 542335413 143703592 842915922 203868553 120539584 961903076 479342531 115982020 266508802 801385209 331205828 333314916 365072535 96718836 487797087 524429598 635883418 666181538 695965754 971366911 966679786 264755228 808952910 990669942 643324795 208571715 679883869 393009615 354732920 497224102 35946546 696652993 924306623 810362285 142151713 991920528 713142994 816435348 753156834 573983883 570567898 149578443 301614005 587224649 976482290 626649399 174749147 501349264 258743965 124924331 527788912 737380637 815538195 476112359 122082108 19628689 593949324 338322059 489473821 722004770 139611739 380775176 629466321 453010322 712129362 858186878 44282592 333243419 39322888 814443146 639658827 166066640 247775756 331366258 423646616 457376172 219915041 590752788 109690028 631340194 4056977 992492578 882329351 690080520 656041647 851670668 655660978 253257371 790543385 96908929 708121168 921546571 249123193 854294981 588717990 385564896 360287313 410258532 980052432 79354807 100910267 52175547 56210673 606247071 742840379 962499765 586426588 775535796 164084599 831769884 673604464 536791707 817101821 77294250 557426664 349409155 113515316 751390375 103029873 798933868 146301478 686656877 158932553 80509258 597200097 49324227 206952558 73689754 910768560 12208488 27009883 547556625 756173488 512958921 685530922 858624472 704017631 906720138 929558234 318427222 496548965 80039167 449602083 813805000 82464727 112844889 594135092 880825082 855499188 297007080 480576398 85093808 924573036 800655585 75221181 53673151 122523288 415720641 407718109 851971580 123852340 491345413 959783339 731933193 338465276 720748324 736388210 277186756 882336917 385993381 127972720 181979897 592592555 413167786 598367152 241159103 787298830 314187873 163315237 516090984 247252504 795243116 992801120 591679846 598822312 592851154 803803206 498207868 981931519 100755333 433603557 442250279 488567901 899978534 266770821 138450248 384823754 581373478 220133928 929614644 262817965 280048525 513790786 924998706 132646353 172711400 324474977 636979842 120458581 967519802 440435862 293481821 923362903 496982135 789674291 849222380 260564212 305517115 641745165 991917181 308788069 30337922 274681485 506490481 353711782 485286240 189914916 821521680 989952959 263542501 777411479 947312262 178613052 641856789 130546076 601446828 128014573 199337252 174364228 612195195 100940885 475288317 578068125 492961727 3404517 129527840 29223333 488851193 183575026 720076085 742514228 664680590 320643562 881833 253329763 179162437 14458097 568936965 58237932 51568664 895264878 852556262 329047770 615206283 288412891 911943936 188317788 310501344 530695817 960607767 195536527 298617187 390123324 576379393 722936155 555052673 435880310 973540951 926891302 935468103 762821521 168916598 932553268 61790762 449829131 782904590 412582420 738103958 360499008 252084964 179343534 516631196 304459832 218967370 903138335 11973289 875984209 798573982 889570064 780491435 351212027 453397238 140553634 683921657 497928424 133233655 957633763 943860923 341206503 929673537 368789475 407608137 73110366 955631060 504235257 757933956 102631178 231855960 172792445 846376457 581012025 544187585 424460908 500469261 56482701 783184514 692369113 465810141 246876291 794173508 70957838 252690530 503389855 651042402 23870699 283089301 79218305 96785843 891641690 525807839 626905114 819949330 26846938 751879227 669952477 891287817 963119986 622700124 470988840 461314281 335052897 653154314 71557623 704270771 629728041 6142205 180359638 282943124 327898398 941909136 176134487 422772065 887531805 788012042 399624862 187960855 564165963 735592838 157439906 241143648 633538627 280923216 309589280 359415332 747317653 458353352 722443584 503554372 113887733 831460658 252815765 408480505 75653352 157825318 482980490 580299451 520965330 248314941 434860367 989129934 590455252 565292357 164709979 349572891 621447089 854280574 236507658 128918229 182605243 393387300 405477246 819702342 134000777 877817574 48649442 327374529 847273514 287802812 833654710 878133352 840653684 170014650 981075357 813968640 34250403 666901226 679855805 18551238 573054139 905007683 272810812 820035203 68107327 274647810 401365741 244547343 112758075 622548934 452183308 227523976 579414544 879018381 526882170 146511888 487324296 573054092 303842411 564149177 783452726 701769855 728701086 458285563 163184205 119702209 340981925 707118045 472134536 691159123 151184700 176810083 432762082 107277088 477555603 32785676 119220937 929127821 256845762 879435606 654074009 97009763 854815661 350217425 851234112 300498518 243704908 696666128 633194571 609275544 343372112 864982542 109405292 90976251 321170923 655676811 111936541 308296168 386868884 117674900 6459595 759044048 446284822 225554007 135235809 707168510 948627163 75106105 482760359 408438963 350079131 439877524 305954571 479757335 998353537 170661268 969257788 901371965 764378515 508921944 540245528 639571708 554832904 395148510 673557524 233564161 194950827 258986784 827149374 700572075 643644902 187623365 29788369 111114470 909237656 148832101 114000042 405712123 265601326 312371897 715947251 507385322 297571106 436670082 475484198 361501980 565459537 15727148 502040263 983895200 957851415 626104179 876026990 184075317 965621161 427089464 698739140 963184135 146258259 463482824 324425144 625491167 98860242 565029348 75408351 275099153 273136855 599061266 501384760 224077852 948180395 693708763 519425527 239316189 842283983 857934532 867565007 269940257 928578434 60984162 502188807 888060310 634207556 629148029 714947968 164408634 752335860 781274920 275382493 337213553 239203041 769584997 80245050 253805053 971799558 513320919 629517218 310598459 970023061 887408661 345705826 601137367 126720247 295894437 585184792 719788992 246825838 406574551 317935570 254284886 594409042 373144743 686004363 618221547 196975076 905361011 253556586 935325010 812378820 936975678 344043932 173014513 735351497 572986883 410356909 406206455 253111200 790686536 116752921 598914366 826578671 825352764 926164926 309010592 816832281 924382604 916696024 584854686 730787585 357732826 154527782 652838707 899484717 578773130 917100878 346350917 430607816 664426115 995296203 696522499 711344276 924528704 168342559 679475589 298673376 68592850 420939768 795015167 730222271 984234524 113826844 848198178 67910844 212212010 723568634 490762133 870117158 305488647 523904857 342113054 112722903 33336583 112640858 490641850 528395382 717974055 257374959 528418151 814308293 460700912 262762642 806119246 359902698 679682508 71652487 227786085 465579543 867581343 935992876 384087637 945312634 426410250 589674227 113506436 204522860 487491697 367281571 237068912 453005934 566819310 834387871 119017048 780192436 561346099 245011424 28450113 796381595 828985692 671967889 796632164 399292243 258808235 612469766 312901876 785579766 119475419 706777135 401144728 775690988 374786240 305348086 691866262 60560503 742557258 124543427 528104440 575417151 797948601 89420849 475424125 851505598 554753590 461560684 951443731 632204035 455445749 352108139 215844017 153017327 648096499 94925618 945682109 821821186 549494778 447109486 838578444 350618909 605819172 685397854 466127724 418209938 308467755 435920482 674939554 856611944 927380829 544600043 18481399 405552837 478735805 25769184 732768479 350434202 111636047 825701729 403914443 392777510 826909315 872235970 270370757 219692640 184652835 317008421 639209788 75891628 604651905 628277880 18107820 26479845 14622800 675140561 907180843 561636382 767552515 20200533 396987179 633703408 465101720 733660394 877610501 86547926 906043406 612495826 422245961 304036705 543890619 603621219 391736933 993873147 544538976 250399746 667761515 804236458 61748185 421541984 953795303 418935964 721827722 894676797 474503721 515047287 699889364 915935706 976884490 118779068 276348756 160250472 919563578 825303484 280984223 850950041 419349906 262724362 334596746 684838165 177682029 77905947 15699913 77471043 123313304 226830666 770270265 825804704 307372734 18248935 892147326 710251192 147074886 857395899 441734179 690551128 44172659 878800601 965628460 638954172 536198429 659908356 189812214 382963825 502973604 521649422 128637802 909495612 819416095 948644578 373717244 477973732 227670241 478850638 236243312 662491910 601971570 593955874 380485845 160292138 172752645 866742496 718316063 286747587 246783363 25214254 250414955 244870614 196212567 878214644 84015855 273278251 928542974 884603836 827819762 470933666 48750904 185756452 344290584 206130813 627395895 769683428 170572557 340103540 382561688 794239538 647802558 877747846 537113245 128242334 982199562 150961639 770461766 792381074 127223936 936312139 584320268 140345224 394194272 411646906 827145984 945499392 391561208 879327278 812699559 877222493 272200499 105859570 47806997 195945863 539694359 737160208 940192577 237070762 395282092 277934234 870343292 46894080 717947359 125957985 117218460 289306577 713925205 451736995 190952227 2924734 65254328 262839321 63830334 685899408 819958617 856761016 556771930 131245800 189443742 437846812 112522124 925969977 406732119 93796252 48064146 390562879 441617526 75531756 887559036 330293421 728293901 887879424 827765511 589175568 721629989 857985120 999863847 948544201 277844353 233337954 889706459 92800722 732451471 660127003 243374740 133360555 595695371 61535256 79267363 36346573 631850917 396549942 819278761 442397256 460919735 334732071 605992698 92117355 2782602 755273384 475815863 820319261 281411830 13492495 41648094 102478747 528339288 339328367 200447925 461073397 474062985 609855606 569770450 521225037 8264924 156076555 770413054 514251996 263055014 213711394 832167754 947765930 983662131 234883587 456651342 254616149 965763513 928517463 494737285 55035157 699977144 906368843 196968081 369861288 4352960 52871818 36779863 205409070 703431647 234618992 585829770 721874627 642941025 38396812 645018030 15130334 605062662 651109737 584226640 476005165 448106052 57111777 986940103 956074364 976160291 558194897 297480462 309728924 375378145 280135248 537064782 310212495 236226083 92066119 377609558 425952822 761815667 804703568 459151818 264225896 990335111 271803301 60047554 12669042 434058346 513081871 186816711 447153514 325680720 85456096 90366233 555424121 989442636 693546814 126467082 892241509 587482570 153012266 129371369 544401965 936044971 681520532 464166755 408803165 297464370 646419898 108178016 962047176 901690822 136052636 687299362 506787169 732057493 551191818 899296859 928249705 676355512 801817468 737491350 907545109 381344637 73708203 754470535 681314270 689452923 120800501 799657296 967320410 395000564 182898090 820972445 216310610 555762392 82644258 245116871 196490367 583012420 443259508 941618209 97395121 992428710 714351573 659815908 242862196 629687506 896849230 718064736 650754981 135010351 355235169 782112767 7534959 606376217 120521740 339037711 443464021 462622436 65882371 257758298 823776303 582070627 875225629 505712799 206513074 528642954 652167735 49110444 744012102 325637375 957523718 121801637 188459325 90341427 925289966 185404729 557662929 108416564 972016292 233687432 374873042 872044764 251996533 496144793 973469550 913219368 37457194 756608151 111988329 196544061 515783139 797177474 525979247 156055456 636352878 973696395 372057137 704734494 750717865 199926866 19763428 959148171 568017074 549662849 965697779 759697051 475284270 662108039 477134148 701673120 943459752 646043682 359084517 395289565 300305854 250235344 376882692 933119991 458308651 423606928 97546447 354832745 786668261 956664620 434968369 408866459 775384731 895528383 48474116 339842217 88704144 505644450 80767467 416776502 231233552 175741118 344686921 784583763 556032750 597566593 362721050 716492444 497223583 94227933 115678530 736690956 785490431 767617895 274557067 493928859 791497915 916454670 620044785 590935642 28085361 209101704 670239519 840978948 607364561 996465494 962289688 599564679 599515044 424497943 349262773 750404753 218946901 964377998 829835375 719003812 998309746 694327901 99536417 221769484 435909793 799420588 147079823 436885327 155725498 917604221 774721971 106405461 593796505 10396596 271372209 716315156 516513434 20668392 165131942 998240020 221560538 778685195 561355658 620306864 54053021 287380140 177585994 957405496 888079328 734793303 962369975 875028456 75747257 978761018 319397416 41211425 133453196 563566367 349293392 848395331 353452132 609448961 717566239 626128423 824616710 683601839 916906757 64823567 81059252 29091154 578516728 769508356 302999556 883343621 733913919 269701380 218187743 703014335 158176125 827826218 187681957 714049602 596035834 519618197 989473710 221655482 430118952 31967322 959481328 15108648 373922894 914900270 809316835 400105314 350473629 16335569 338013725 507412577 261557510 330892271 546713854 782007147 117088239 969003814 897040191 133787735 416443787 947272979 163677789 921908452 415342028 906507552 355926554 134419368 527662705 532871483 164922374 876152616 105483520 258640660 765979013 62587898 721617344 315494998 48834785 939304450 105878691 85923879 899503268 93956558 509948636 672631417 588928284 609918912 864041978 132181688 791506294 52029037 564992664 972641165 536982427 991562405 973791607 410666880 491913485 859427118 964324526 618989965 325920775 553968720 961472377 766383660 529209281 207995367 151293983 792471052 860162504 386046036 833205706 237819178 774933397 839082445 807328875 783726075 45436641 221097599 930629089 359091647 851675356 886412943 567346191 254708913 400017897 248932468 446503399 113080240 733535986 990648448 844846094 607489033 426079584 683131978 32157138 241914587 963897268 722532678 549508037 289108952 915601622 381355978 595274558 513937994 71468166 747120554 635872524 602349479 226961990 567536514 733656859 184042919 415225571 873812172 637112336 99967105 102624896 390270703 993527605 948015533 348461237 657873214 524642217 597238188 242115992 246694226 456950395 814147068 865751988 462798359 259961300 770126057 684969903 971707437 990337323 907403035 393216648 697658236 384276072 838311585 529739485 203824169 403437163 950470917 19235040 230136013 893050957 287832346 621113289 403185063 94295038 473337009 67538497 294076930 710862933 896112924 723737548 77658527 255649816 69212833 701162531 119018380 921933414 720827701 412343496 31148616 861190598 510441700 151553986 649174020 157920486 850367878 261900951 739373998 67892149 424875838 782169614 198310350 87302400 220486842 577384514 806573353 606030263 492906387 74670608 728264207 388186268 999397620 530211873 378661939 95343946 84997465 28140708 737794207 387261088 633249095 425674005 567647974 335538395 288662344 469624983 123578806 190754823 532984249 866402626 242638928 758116053 804030879 768149008 46054237 740736146 38056778 571444863 583008762 396465100 342828537 88532122 803562087 793303917 610308630 107007418 221713566 74851539 916616093 471283551 386487096 491061427 184367512 621137194 496935494 361944612 403469109 814307365 631856547 51810117 66398905 335746269 220266320 994215205 611715145 605442238 240658362 743128939 228147385 759769769 357787219 735803382 481452380 218509586 24798729 176532890 690511888 430201708 876611871 641534171 323529056 156989475 545358972 134015483 43453791 467421128 650695520 277085672 845812784 301397843 784992562 246910203 150581859 46282029 361413402 200976353 923348489 103858251 580636956 584414369 755739006 159976338 199332265 550704201 913128083 190180822 517110017 243928413 240996695 940065469 662378563 844192795 2971884 614601250 962403325 642288387 370224286 100956977 678867492 979264361 697587498 365137843 497986876 328359299 272194158 204000927 680431622 559025055 271475062 967597754 730486309 663983668 992570722 888579581 104421633 290775733 935614616 834501558 323410681 935663430 201487912 154300964 915481286 633448015 733980429 351253647 848899127 156584902 851641879 259034144 38369543 548898454 665470214 20932124 712686686 723328035 356542480 771921407 367994803 28993975 965220812 363062174 622605398 518485075 289825758 787655427 450571908 20983884 346153358 191598473 744630247 243122264 28700761 80357912 378553188 608408785 381066245 474657665 283056482 140642948 769624916 56088219 28636243 27565968 734847803 146810270 500645025 318213343 583277150 731400906 597385288 605030449 477020333 144901615 288777763 536019200 971020754 524262755 632763366 332690619 742423768 80669986 475421807 417929062 389240719 826466633 856064417 521966417 895946228 829086630 563940451 701819187 262645141 626612481 193919556 570912482 755064161 689817708 145280378 153412167 613213722 169176641 202819595 922299979 293829209 294548918 92393628 521115499 385733624 386602387 916733660 349924925 702987401 725242104 535213883 502694243 270914518 11823800 626651131 131376143 7763372 988191695 677582443 583407484 428166251 813700597 275005670 342656468 590366058 744446098 669236290 893651843 465183873 219338837 66180023 500907812 9968315 904840231 954636184 983825246 90460223 285146402 905259906 276285608 318113431 792740970 824004373 21429077 355219435 809097443 745348231 770695476 787726602 86334672 640115005 236628434 804205880 64138349 661392463 925907894 678417319 678903882 886920666 728141444 900404231 576039735 361162817 690542776 396302843 247440668 817170490 740153877 57774884 169766202 590404925 229876980 778192621 894703087 956587408 914430132 970441450 717066976 688671970 654504327 141028785 47041407 9470160 614340861 186065191 399509816 171175478 292154525 322282290 715099328 357958948 875964265 111668330 835477121 542117609 273628082 957241429 413549868 200003090 138327498 206567794 353753487 613246038 854320637 147121368 197729832 755002250 791434165 525874487 334204800 40828109 433668631 436041582 572028160 982143122 771425031 4378567 426381578 818521299 784373545 757307485 296204176 522781001 162978146 757546931 4208780 515603552 415888800 265388270 221401244 952157848 315061999 908082024 76525625 607943635 884574117 384706095 580552165 407106128 478478034 9244161 12093375 984951739 351963491 939266933 28709258 208816560 954738712 832347847 971706841 442738810 370222260 963285523 337877632 74671575 440741599 195354124 662784400 647861447 294225428 978564174 225766313 339784439 209779237 609063289 771610573 845738451 781706708 674837518 145498037 37404527 679257509 138291340 825395993 923621395 333261400 105814334 663621769 314635377 820494358 12106268 200450396 193892923 449213640 432354359 740552359 978082931 272437892 568735744 364657327 940045194 438475633 875861356 790343045 69165848 962600865 156602945 76335067 682663952 799919653 699837890 940584688 565987948 63768462 709410545 87434382 114786739 849377953 200012399 441334058 639735613 467135613 22005306 778454944 483519220 658641089 699666696 79459082 42862253 760347992 244145080 566613213 144015290 894008102 54751548 405652667 306364707 879784892 672242446 383832948 911528307 456133815 150423876 969860846 92091429 541771720 958071478 344868225 739771375 235830226 380663158 850829964 972676943 231199185 15418883 941287143 605585772 995152419 108670460 934743063 334313103 441645505 881884974 881738078 159362297 427582338 844458931 700334050 527488417 85769664 179077142 489894524 95769049 270661229 673753058 465122071 202327586 93537599 550485008 577470086 667569994 882886687 689305164 26544354 267831724 173406138 977689027 498950014 290658596 982653589 539890000 372793839 615747280 821239709 546205418 207754179 273306710 528875255 663171306 762610095 681347547 872237932 971650657 483351706 324938835 968029790 141334225 881622373 697242829 113834216 98661778 851841547 951576768 617710298 609145109 50129324 770070121 506650748 660012536 775273611 212395926 445287761 236601975 62147761 533906179 657257931 323787675 453541872 152121668 67290687 292309584 560076482 513632266 734283889 250508841 775345100 343474598 636816603 629070679 387493099 734274625 830181565 579881184 349697576 534257521 15370826 129402838 129674758 812789348 898577977 461308200 844028894 738458017 259682810 865494208 478487140 542092039 260400450 36915419 913002844 80938006 488415367 100880877 102522887 83831771 273605452 761145923 843272385 353639701 556434637 416667085 28049536 966094251 917073693 118300154 287370419 697253629 563290068 199440937 451748084 196673681 950169232 395394593 526683088 269391364 156197733 347617428 297037887 714718396 702415824 561003704 352413527 480565163 112346462 428735455 367880784 318902867 835758779 489497874 357896224 211126996 803651110 748702810 158638911 220439490 245881415 583268941 321708105 695333351 206890711 204413356 337854943 734885738 453403289 940756549 110703290 30851120 203779322 174333991 997173157 389789304 775098187 81069366 774597557 128950470 394604891 12839032 89062020 294221851 329895857 941463569 184818334 779308120 185126713 581086819 232203356 709567889 940496045 20270822 61950952 953980344 581111069 410936323 912889443 267247677 627760705 571880309 613062482 248666066 872132505 971825336 607887189 512858143 922460726 461394087 456676655 539517911 560619819 50003935 673576942 315787926 259051536 515324142 957442668 943878841 210919026 77426927 285922082 163660140 72026694 510064746 259937886 774138941 989882507 436374050 473427969 971059559 979521015 480309020 32006813 985461133 120063599 60582506 246021302 181537031 738418826 306439748 909813499 236751472 758236026 604033734 209135074 680079398 726133498 120587831 778732503 224262358 686894553 310838773 290084152 567729756 262552372 451906714 447117014 443283483 959846179 898948047 191062119 791322876 658169956 356049398 442705948 689597872 795448822 74817619 123008645 385797144 951814462 819774882 654427255 703849302 680432897 483803130 538767489 645072484 287293635 165780772 245098777 401368932 37426044 590000322 867963547 502731017 274339042 879254914 286322702 916449673 669009859 613041037 959450799 519070207 167739929 330883480 158681541 848681326 75323188 126941678 287396300 271643116 594158459 550813618 703017928 56933609 290465604 811571198 163981176 118697721 296007684 71854488 302230058 250341934 853534369 725154013 740160617 919299890 15475255 686862142 290078778 300491599 461917844 959802599 511722029 947073936 616536779 918441031 50078950 525804284 48924952 219696609 984827651 290143001 882192245 170942581 541734167 904723660 469128455 718829836 541790724 160384930 140909821 275529808 185486488 616004562 471390150 264370840 55378432 95340410 815486447 288263389 761792327 192708048 975185210 276728874 35355478 911288729 196107396 647300289 455245273 238769024 692539299 426366559 5078059 99957157 777281898 531654185 917750290 295353222 300270369 140307642 353277528 73270779 391120300 738916644 244605557 342505331 223861013 643254662 972955895 615805063 311858826 229860909 801976229 753018277 180979287 85041259 644150422 363930810 295387965 960009898 296031243 256845606 87960522 869408795 183919549 287060838 76238667 280569547 69605599 511189775 449182035 897252578 998092921 367150856 495372697 101836498 602126528 992169697 36893255 226831809 702387471 510712018 209530832 842927428 516638302 277141720 888419514 270671808 433140734 59063499 451580172 930564501 258306267 522653006 956703317 630841878 187930170 325589410 81965600 143438290 972937463 798889532 619784093 625127516 846383683 217493386 124469199 537197394 158966998 609412293 29668325 375461732 77190759 193778614 250075815 978483969 108440263 730541104 749193747 116984581 638168022 642835397 2184204 494520146 681500746 643368885 94797485 935148060 506747620 673302612 439338618 192744419 197655275 624547214 470750568 701956058 521461537 167833282 627650259 134096824 65866270 117727098 143699224 781727933 892815198 217792327 314414448 109091969 946529851 230681981 658518104 862377067 61017241 830216364 175895875 622740607 614013124 721333150 947261111 795392850 232748013 508748487 113855238 295969436 800076853 814331383 803541898 535590323 864884238 887511902 334142752 168620931 111613929 206923876 180661983 677454287 94787553 852506297 625359066 585505107 534941165 123079189 830871306 972055442 308131086 552290840 3329637 10933012 748932808 892025811 45058360 558399385 773473879 810109180 72423997 994352494 876019741 993112831 465784791 370767839 543047893 93571445 710489211 682830975 613318790 440251081 22773078 667390573 303303138 851298403 887442335 656957409 453730963 469142825 256544481 950727398 295232153 949731851 526469739 179372999 678916655 531233423 419121288 981785159 406025297 669867652 523701591 119927679 954096089 11249329 722514267 281264017 851528135 404023546 317254783 641777793 742581299 572584553 41867267 851532486 1771909 242863545 650953956 689582992 752887455 788250082 900297432 87423685 512312689 580414365 755899712 699568683 559847433 968568626 604386657 855992241 963679103 762030183 298796428 238537071 699265075 902621646 790330390 151214978 306457718 300673369 872825715 802993669 426404670 481433611 566571909 789820622 670132906 740568999 448024120 874770591 136884766 994792172 714470370 78934508 490977951 74571451 784673549 379911143 365019241 956286104 591892868 30201605 219630986 803667629 8046601 627817664 454440818 489676622 30768043 892092040 951937329 267239665 863108502 876403163 334328879 597667618 941239275 773367413 645605714 645219816 761759029 296882785 483088364 59533881 958593505 566200328 452482178 577945598 204101459 12114997 224909725 71597159 685542899 258963650 571686054 112236639 590326346 713375918 978437553 790051066 113587088 594527975 166716455 944396712 848647212 157369807 332810887 397085542 971447087 697393017 111303037 165139499 309213596 972596861 660240453 613825246 533121303 929000933 383847167 480550741 174634192 9136183 109545450 546210113 966182478 304864076 214075275 562380057 201075662 788030717 994330619 441620092 925105112 40455445 596590482 399415645 202501658 746710038 465936235 829548622 748567685 146309878 433327776 668002854 661002716 573013755 934458029 882857429 870576910 272963992 812493140 545015121 430271391 37741519 103500722 495861835 995854430 485902185 177220550 51900923 165399566 444939251 690563174 112387598 758841454 495566504 938269088 811807475 969753648 343016816 882807503 799042981 63975438 221588284 470523424 985196009 690717570 284124585 871676956 20029129 950689690 102002515 13134628 569186342 74560486 256318127 557962058 252719208 918410376 142620246 41108537 832614544 200830465 978492580 847429928 819209015 104656152 18488141 612131894 160661816 483172504 871290133 290507730 698499586 217088122 990650204 845025833 302472036 923306285 650028363 185108304 784281140 21160353 53489673 15325306 117120618 159194588 392669548 358462075 731230594 515684091 371126698 829580357 429493221 286949998 821024409 850400767 122316337 617971555 87727259 858090944 52787468 89711572 233388131 129221844 962773548 865023066 447694231 926403907 617274444 61276615 942073204 575261759 169534503 770624455 892416802 784148197 417993472 825528437 264473981 491028643 46319785 922448711 699410424 391835897 511022689 180895717 945852992 921827310 712767996 222045291 704399742 584946222 561223571 602983174 618151692 525389320 687879925 718167796 232604353 143057700 550901920 788331075 219930942 997990344 339180314 941007039 52000610 734471774 932972401 277242317 476904135 440561630 571511103 589676752 138528704 832004570 725521827 663783939 547455198 713963857 237547650 677272705 639549278 968736108 611306875 519313521 507281348 153024361 271393851 190326516 918928078 771785175 738016039 298572166 666328991 635815850 13390318 862016774 664999174 24612942 232568933 944737699 882601542 889948973 849516903 967468959 676812684 784561300 420695453 104013920 375228000 10285505 57305767 660814990 673279078 527200075 264217869 895943074 894370534 589081420 290681025 331196327 89246595 748009122 212726713 630217782 942178231 196406923 409336300 336002463 897620804 829443583 86938019 939832771 45918185 563065084 555410044 152864253 696446402 722822887 908867364 577116367 791978968 440965806 357593514 979644638 877660776 116111574 360363966 428366304 106486901 808289237 31285050 852493428 380553839 979341310 960234840 913192180 873728712 883161823 774096403 848367975 490227621 625033528 254702630 38052484 752048660 795797515 534233957 128738849 242492521 958831611 470880399 651183777 967857360 906929326 201326901 729836284 20302871 453203618 826386849 177338204 184901080 687024870 280041688 562919872 985885624 665246935 863384919 589684721 124143804 315316282 39559638 459170278 569892735 383626599 831489214 386055863 960470004 35649310 801044826 978454324 205281242 275633628 263027664 952748894 439274551 125848786 46288925 435953414 513397246 647616356 508723700 758787916 744336233 516921783 389756377 928550537 748330359 91290020 256351212 305244760 978343324 743711578 932449506 492655247 435996445 615982719 417346872 122258698 770300184 424456294 909581200 268439196 733117753 788511202 809606470 425418068 419011910 62103955 958503711 435128916 509160447 161898072 502928137 386055913 224711262 199148612 130619208 651592324 921901523 521181575 565544938 469412460 839721751 288315592 421359595 826602948 986368520 519072514 341962221 822962690 577103395 458835533 396664843 439715239 823062827 667256174 406420758 724473312 93364671 464261945 851739249 561675133 149919716 673830187 81388721 419239156 210493754 307602657 806768273 852601818 277700816 40392429 214751456 914591362 713822429 632134445 718008436 839035893 773876141 828896078 29535312 909737538 101398318 428464538 344809656 237076508 829794675 766811846 953488671 729585457 202923100 970752971 808705839 749366766 565316871 968414724 730723480 583236382 988580081 268049744 72237144 772669843 518515961 73524381 245329766 158565088 138676345 844107749 680658360 130724000 48794237 455377479 802172261 417494920 533205915 263829158 205616362 97937047 213348365 633858743 670260165 534440682 716946391 839899002 883363588 693050755 771546926 636821739 228389034 670064816 589994398 117586361 429495457 832966021 1135021 263180250 572516452 84989556 196258123 53149856 29825652 513401333 15790587 780912937 50229934 857181009 284980517 174959400 622363934 328041027 861662848 932526988 665707609 201624051 808199128 551300334 422138121 979486611 168909705 513817828 879049167 566760216 622446493 699042022 182261966 203533101 208824109 342255799 851238213 897698199 433583245 631027711 400441797 955114671 662039045 411191049 900359910 871840030 623065994 429172977 678944667 987817475 259871487 686533838 308775592 102536716 349553784 71917526 160908744 945811542 945197528 799671690 991593753 356017351 753127407 243697317 836866526 868384885 269562794 751099680 78523495 277512202 865889214 426453640 442139539 648159258 950588479 11504455 231291333 544999482 757901451 691449648 528202722 939259583 653231857 469370707 238456229 512575869 202510209 851587738 264898436 207926438 704286809 768249714 736159004 805421424 508666163 584769056 519224992 49288132 662153117 551502558 217003495 107154455 562913573 800379385 8335942 855565211 62924165 608722350 499576746 498377435 748991688 560566277 138854393 733169960 217138753 687351613 508183248 356861900 240593495 947726999 831320871 807080375 996394931 450647571 4964506 362521889 654414073 647685343 52656751 425517856 970492982 572401154 134961327 744788026 996829149 714224672 376452751 129940958 380868828 425190390 839628203 717039219 609676788 510043251 2766855 533510653 443903540 348883590 481108807 934080931 747477260 461691279 428086628 384011880 243237746 42925285 326874593 746972762 237151705 788099446 868997259 856706351 41909132 134346076 999515954 546141414 885525591 858691370 551553679 160984726 89048438 40037998 576665335 380773748 857106373 263196071 287550831 836648938 236666969 894658457 563746312 651664802 363267663 808686610 749025927 699693582 9061067 123983364 928884698 877267993 496556750 638259062 161229950 803664688 165046679 772983455 926630800 33629153 193331954 339053094 946892970 859725679 516531080 523039898 304235891 660688196 635939497 318138118 52774467 64755606 536069613 938126218 908161938 206306572 712415948 735560805 335128749 810144273 793474713 189074631 895637495 346416217 80140349 875678595 355538821 619262628 75750418 914837317 239252795 706483414 635799799 679564252 289133190 634127323 798568648 535897233 71166680 893714275 194257468 148982000 476499526 478397814 208227887 564435559 450646403 72293976 489225229 865549061 999165097 457067681 919009499 997464482 589001949 247088771 25444952 822391163 203927201 30438293 666112925 502103489 48979692 112945904 998317571 172460209 64088155 274203827 690427908 987310990 155571696 731241036 891250977 628227980 753165944 255246050 672304763 42666175 648078104 970194892 982872435 431063834 102345692 700572525 608147900 215137567 855257221 440523904 771986322 519060452 465456359 277113261 547452835 904895610 954086645 472663301 832526358 655450277 69035643 376141407 409521093 463416196 345649724 473459740 649179587 369185571 93119728 833515513 809576839 99385162 497601548 702947278 156228648 611431930 221306863 789696474 540010287 410872791 167480880 806274088 806941237 646666580 807091760 942552423 559581117 57918660 552370749 326110462 110905050 743945823 63739308 106621064 212600538 354865982 458328953 426660505 752939639 933229954 172357095 827433016 887766911 666617583 143829368 241687217 437597607 581415290 616922356 848891835 249322160 251164006 220681680 218582049 959981652 322823708 647969247 130507171 102869283 610767651 127153104 614030404 643682813 766169939 483347116 788260315 411079963 131123163 108706023 656337418 345385192 693703197 140331940 373789623 93141906 591980348 471254584 665994974 61728500 867715209 190145930 927911438 538046572 981516060 429060488 130889858 783116494 192949208 466390316 416809247 209494403 953304538 134858233 226789317 690925434 508005730 373134325 740497560 127906310 378174012 319640929 391341751 551079859 807174814 386851253 237528505 989880254 516602556 487045465 722130338 88041288 793515018 884379803 564869919 822656863 841272918 482449050 176813798 58148745 397035385 859667274 667710089 288883333 489885881 371987524 261225263 382840244 167257333 904138667 605526378 315227960 532695354 1766912 977286105 753994475 403360966 726439788 82352939 858831588 538834497 996186897 597641327 166017596 909123568 380347124 232794550 446984066 875342899 380639718 749071657 977957504 602963186 349637627 222103315 235391724 998173566 394334645 496881979 323395456 192693106 87833541 175983974 602319425 308382382 49573161 510343184 709430368 825400982 156197318 483425875 620150283 667807318 927323583 255069402 466722001 206147761 120681079 149894413 835429688 404031126 585812505 797772146 531292298 665082238 562783133 53446921 710443182 414429582 909492562 711883899 82270322 771525267 699098548 228690558 436937367 206208335 631913167 673482484 493876412 775057220 386549332 414601156 380325978 981494344 794149769 361509856 120593007 317092363 92966825 692105665 143079505 944814132 550627926 490175389 524656775 937528783 893837111 948164943 657035137 612922313 280072574 763482202 934748361 232480377 232682186 397155690 18229555 432873941 606277725 685849289 351432988 401427598 359761840 212752968 479834814 299560275 914248154 350551678 483975141 987383591 712208361 656987372 735814137 58071514 94140174 215327103 739793605 316096890 409306420 714476547 672003375 984294971 248853337 577570526 506269723 326701252 534100104 887578513 523228027 243248293 489379822 366131321 645541925 727878169 786424186 233743638 603741995 47489373 500908032 715352255 932445167 285112077 488579479 714899133 727218667 94107641 989407404 424649395 114742954 407061842 758152122 30456017 437395706 563173515 169434140 282089833 362905548 334178918 714060996 555796530 864505679 287342521 705130330 227819035 738047178 260140218 506032090 299945391 138883500 823198289 430925265 741630768 183254157 217426486 692833422 187355427 26878001 72007788 533267033 34815380 980526301 304161626 603894246 644111535 692015532 128140521 959874679 584830637 67526429 499727088 126761571 941041410 174207705 732464416 891673906 175265785 818351777 861092625 5359683 684015592 49125649 875900266 14066413 902970771 24857736 489408065 820870411 8098031 427343478 84425962 998905302 895962578 80884365 975441393 590930742 784902059 393061036 32243323 346522188 624273635 789307350 562386302 483447728 367528964 285705806 81277372 685689862 536646262 942141442 516051918 793176020 616712645 10487774 207999479 591311430 517147764 232557334 733453401 256132977 841800459 389934959 180584709 699755480 646917243 226122410 730151949 887627058 601636643 678385971 613910906 765771350 244888171 49557879 681797241 587604689 78206472 522526470 200804748 447868746 265798535 538800867 588600483 726444380 66307667 429988765 102709650 295082647 916857069 232063719 918845476 192229757 282219250 115755609 920166906 184960162 29796398 686726040 178093225 724742856 365630354 486509191 57359450 198337028 897545695 535286265 871266533 611329062 249032462 449543335 495025425 830586312 479381980 643440141 13755141 790233023 67464333 239910700 393089958 473328122 511631866 48799010 99064385 339633756 311165763 473528805 677845485 507987543 570995677 102677030 254871960 28409028 774565398 133391067 648049015 791477990 401817680 626287064 249914994 892378290 814401247 899624557 695439603 703560077 272065923 201942715 809870404 845813711 168296505 459034723 421139547 41220938 641259611 967019533 656962837 877786099 273170346 77877279 692498896 425922437 576134814 112211466 10348501 819377916 871270135 387971950 221596606 226156153 282361031 507497562 720757175 596042123 526638756 442758833 527118669 816279034 9241428 867388984 182064666 351960586 748571143 300781240 108964463 936405568 319692855 793477474 200964605 580628258 240306868 790012706 597179036 85031662 289823816 707000235 557034214 378763966 564774193 213796895 792413501 114978964 47890683 416887943 694289758 650864571 543756236 921345937 124803004 802424056 699678991 999080765 445590877 307446059 860385674 917958572 145249229 626876501 420024588 382396131 347487661 758494770 636480639 908096872 404797257 47143297 298517059 871755880 405226365 657905984 96920547 951993117 450749021 226018874 922705797 117755637 963266678 511726608 426284135 258474735 749564404 572077026 690439662 882733166 367884579 723144233 533042446 471219224 425956177 39323234 371922127 599474966 151718142 213189598 662263236 404827488 573881547 950004529 528110258 654705675 151021164 327640185 209880677 222264617 957106936 428427174 965582104 4038403 859863476 874601083 627329382 136270561 287974152 117824050 497813804 234531362 394620159 599283340 703293609 756397658 309019620 341566190 184950316 958862527 190003878 241324470 310869330 624601589 854362541 134538741 767590299 304444569 952850428 781870709 535567775 730539300 636727816 676865199 799831841 826708539 146428376 225813071 66845066 341583127 252810470 688385615 52398955 244414830 898831445 684191896 184678624 712410180 238977555 82209535 164598161 430462919 404205316 936607010 436131746 337659659 798733203 982816945 610147384 190100000 412442006 175683651 669279684 609651524 5689416 196700379 248368149 98736738 118307036 607710344 615404810 674795728 936661572 725704074 182454040 220188744 996504272 510154110 68196393 258509414 321394841 191381131 693838098 251969477 392022680 148430445 665863466 912729707 740385593 676877188 53115218 4328433 328676906 308356154 439537328 614911321 641037396 309402138 486768088 801553860 107581113 631495402 262692531 495878326 466242293 708963036 972661281 562731008 576220152 802589087 500469286 810054629 931283840 494019087 4848634 909769635 92064717 191409090 582039789 998197938 664170528 663002391 412315903 772704574 2189685 372686717 578116079 757863300 362700801 305177626 398024205 769272387 874040098 319343829 573870150 640946163 866005659 721020854 634032411 336406873 56253769 724607367 430566758 548703700 135783886 327391453 442758287 817830598 633820589 579449285 45349191 964534966 644345358 155818927 159319373 600584582 325485033 74073137 850935593 649824075 165666608 847314059 79787064 709293113 6010495 656036715 317388993 754085856 725655077 292455896 21687048 467462261 892618166 338334999 54778282 909331339 490201878 836361455 142756656 875551855 308906456 562735753 256181025 101818222 605166717 308979044 15414551 469144749 423440649 762800787 33691950 169591591 702193513 89935539 76595262 478334061 882568859 431784107 402320171 618965640 760410375 376285538 391397090 307509633 229049346 916278347 582867803 591268435 734136522 764088632 235711349 815154223 924975291 67464787 218135345 893037269 988582524 221815116 839141047 366647609 372697719 64379801 473335523 900981306 455286305 88633 528082568 121378616 211596010 476391972 593045004 791680316 501181972 920103091 459982808 709230567 957144587 928088568 799696564 509092267 139934998 855081721 264373496 265699698 576888615 984664288 56503066 15423432 992635479 114859528 277045268 211241755 974733330 285849336 365652976 237665506 929886931 201159199 264759400 447098396 275941089 692245834 944270477 780007636 633287947 747781000 801113945 282674982 813681718 915312503 515167443 814689596 762075850 814049762 655459311 912093545 960959240 636380821 319541231 360317996 582853064 558316525 455709113 479859461 383840462 857509927 705002947 196173685 693042795 452393286 529452919 84859571 899636052 444050261 873343005 629781325 139246857 988816377 993458603 733709221 232867649 337649945 342603631 454721709 194001488 917224532 182239939 127551949 469293979 26718628 764823397 852707329 625254370 61076634 347305150 372183528 760482537 703560498 340523361 974274953 890935948 724915481 99898798 73155052 366100622 151826557 71028561 115911409 865565388 233943871 116240494 755269819 316751908 705581479 486088374 186840519 212174988 607319435 597160400 402394326 53859520 263374523 296007643 159756438 124419744 771491318 181168948 962159270 703337325 66726046 308160128 839234914 474468798 990764089 12296005 534120862 104898258 951315954 923115617 842731374 34475401 148746114 228703870 856473898 727755160 88171464 124672413 743311793 707354579 855538006 832496269 540282313 982571171 537427666 718732945 987371568 551356909 418561930 586823173 836359949 194202955 617444963 320730820 781386901 38834824 687286506 460793313 120961508 272120640 217136252 454007753 805713696 776703539 364043600 736979503 388330863 790925202 43531217 122335053 601069777 503962970 104110525 423333933 70439229 701934045 484823619 674558378 120706566 889835298 150581838 503746541 594167851 374260216 950780595 936828596 864737803 284739134 197485437 738800363 815034382 819261234 148540075 813960354 935648568 234736195 155386916 856679671 538876120 109911698 869057830 912297333 476589742 126338592 185769947 350593619 289618505 145090534 857699039 197768699 704714190 447483414 234633162 768696936 860252312 866506018 668072133 991641757 750757647 17047433 558762742 550075065 975803033 781257491 479954593 123370447 633291131 786877064 144839928 261520199 695692875 353266941 663474888 747410437 210693107 817955469 975170231 200413370 272418744 585941636 143937998 354547730 748040489 482748833 495743356 624829249 515071975 131754428 541551026 718023738 258293961 247363604 586736085 107900861 292129405 189870999 942546102 802063047 176324134 192087536 853948373 700505880 238755078 781356780 917078043 858424400 340881680 250166631 310312036 993197857 722093103 266654709 44264109 67321317 799046316 6824752 304903389 96405922 172472396 157811572 948646763 462148381 513985828 126308117 18081280 102821868 468686844 374563041 809428775 517892728 854118602 577423738 787369565 896901296 312006899 890526945 562776774 618715516 603240667 438800013 508662213 520180929 533552254 120497364 459655129 709850758 350751263 125946303 181265419 222850270 584298344 899909658 377912724 677644254 662456537 405185073 200506523 512737431 910223985 600370662 296179629 641651646 719301524 544451549 363827528 617303460 464493692 244020339 850999516 310914195 123923221 324245848 832637770 140412655 249275497 686666571 597126086 353931865 340057676 744580322 97445691 661427195 984520280 609497183 494275775 585566372 381189557 453733096 770792470 652396776 828884320 171400013 618756280 758478406 526015104 570630939 869696777 230033150 602909633 473767077 822085984 949238553 496554063 344483798 417597204 754506122 786418375 414267575 506138837 742583687 719907398 175050801 767066046 930519933 995668547 379179664 356189075 104288534 634384534 91793632 972008710 334323852 111753600 702792854 15466907 485076731 30235939 454881860 194967054 502841637 173114981 592363547 499895964 214218201 874234927 707889113 155114781 905256715 203580680 831531981 658572912 165531949 323042021 243746730 72446737 254866808 306725351 805258911 13248935 116998452 88514435 760777608 890211005 429103758 404434085 268910646 811033875 255471929 315781074 685120728 484772656 506936424 930957082 973887746 357494824 452047387 738213979 811804998 302193737 833954153 845590134 286849400 646920037 424114912 649999978 622987323 763903024 440855227 816113874 67106664 382279222 409637099 114264383 45369732 953574241 29610574 991702793 565700743 884628144 594764925 39512280 118845947 689497029 427749451 757532269 268799244 993527154 237040039 373089371 472771714 457919436 56544384 580539413 534812290 419239053 422655398 697650978 36893677 88509048 909584622 400643973 583832857 156754008 46830348 557958953 962586680 617438812 730827726 458640717 811978831 298028841 55154650 467877043 815593598 643809129 507341941 852642143 74046727 318107796 660751178 189555156 449620656 909021949 421702836 18683994 546656557 338935067 715238333 176148932 44691325 93596303 970334130 858353218 120249183 607265678 245666732 324526484 248090177 841202475 582821012 4452816 2686808 748791461 267308941 871139375 475792575 449568182 290284785 311979593 851045185 737378171 263955571 910352049 420859998 172117976 441357274 235127926 132600570 796866570 398227369 814293846 773019738 462075775 882000707 295022722 448388556 791408637 981591212 855272657 912712213 569029958 9199524 78036311 394875429 956646369 588267781 68716925 522709548 764492479 477606020 360520269 139395606 799887594 150321342 176558752 621534146 225271979 538847699 251138787 141778862 383759920 593146179 655630624 486140334 725519775 877211539 991449648 351445060 948597020 107925471 507196767 872748268 436106559 461232584 736151402 606718080 663887266 986319880 284684165 652327682 598752619 587224642 475452605 611567978 387212418 815538114 115761019 87356340 915401632 86513916 286688803 494223031 119936968 153644519 854875406 503933301 119413377 231273945 480434591 16311547 548797383 594411442 248601025 558664688 272253437 362989508 945930247 300220757 687846354 526845212 769883295 840461259 263194315 749818611 376262872 403005756 993332488 567157397 34183484 531815528 884569832 541641570 331396306 425679425 326772631 990265132 485444829 149560627 43372638 792997202 751123879 337566757 140882357 112317779 881236406 398461283 597850916 521328027 857849965 842196132 7131852 208512675 211917783 569290442 957408714 95449710 946524317 112851606 321332798 163267457 786728186 436458232 735372001 286762864 471293481 312741375 726498837 453061786 112682248 741866035 891443990 250238666 503413626 547654227 680382452 576434795 657849584 854286673 565408693 920608582 528616009 245504261 208886899 241829128 687966228 192621343 247159310 874049000 303059663 36021258 359746254 761889255 657678853 466424142 514712078 929999147 613133501 426225248 192376815 584884952 735745387 908979009 125013400 364814718 934550152 830817739 680853885 452719421 436712418 236793225 469547275 134507663 45997816 145030555 496396797 516907192 423291151 355724327 148240714 863818394 356262955 978207323 544256156 886743772 842463413 754589420 71930280 931755323 803987320 320582189 752608761 755876518 303569447 275297696 714362073 984784875 994990495 204883293 344284141 972858391 404390773 966434299 17957455 320951219 66361821 163569173 721304483 262486439 394384067 267391573 337573307 374086638 774320017 221053542 546745592 381678727 646038980 349560958 468044337 159471849 615919615 914762917 26396619 637831063 441636976 539039330 136406256 584755883 620350292 118481032 270067304 195043617 705565527 300928022 804292190 822984078 293035110 621723555 855396310 763080927 471899734 449964599 8986614 961155744 951988240 753228196 814529894 666487770 794478038 810877428 905681795 180639305 942291824 407905021 495892523 84390299 885286753 654768014 569395469 68422398 649313181 386549615 257503983 895566330 777792775 803129808 18528178 637873591 949128310 734254978 300156078 80406881 525650035 235175768 950332663 797366303 118140854 125443502 546416805 398532522 577947819 922688049 759667336 162807286 389110900 47139346 300702567 970949730 329883721 424947668 36607812 188403338 521382703 353669983 739796532 647781213 269761594 488050013 976480708 33451307 452128827 780094022 536140650 771368963 873723994 466057270 10022894 122280983 461137199 490365872 652966000 654260752 781199745 431023561 443705069 307881112 245701172 625028281 561535687 845732589 753376102 479653945 151873874 521758758 577469043 9291070 696099799 898489069 736477467 417211263 344664799 994977369 636673352 263151254 910080420 909754544 513775555 842372037 101853076 437337148 447101682 950596815 289288194 29966922 979387247 913116517 319582048 592204476 309246660 977586499 431357214 640463154 3741057 39990536 39382906 895348873 216593776 241809271 738814638 995098294 252053120 247883602 907479253 170555794 586484322 886577961 297171922 983067347 276157510 6651497 63163530 752042993 466104735 524346235 514451916 542425023 576205289 370327808 651089727 403991752 249610324 882845823 148656352 446697136 841754847 500424007 140090088 357795649 665366737 924721752 251477952 67234983 170836487 935431301 727225789 104763780 249017843 836978816 934461438 551137799 749250316 594055406 91715278 36473806 745453234 952595627 301462652 101255551 838743078 222266702 54844722 646307965 45556391 78042927 719814099 486064477 18029567 611756859 601043549 886807724 5676502 347659883 833487519 442796881 446000743 764916537 842874362 592725974 394678838 540757337 256852409 500515499 777277913 222552050 574335503 817090822 456534665 975711533 739851952 469500040 699981234 103322357 205585798 372826431 772368390 48428844 886676134 127652707 274560380 601416936 566029602 483510512 645745017 704314225 74993915 428702125 246710254 93525272 710210491 247790601 582514716 649023978 258474962 422696536 110959277 384393511 905402920 68325745 883911498 371009465 385651541 738065017 93142423 299844037 126995565 133314004 114926338 460712112 325885496 76600448 529796697 654744295 680871653 455317270 840701387 531013431 966101187 491173942 863925848 766622408 605267218 503404560 93772451 21108688 55199402 738595727 405276205 396160685 299780325 178781649 460956086 573824497 785872893 215234447 19031183 835951245 366741073 903556677 188824477 980230080 5527964 272013292 760981567 454684712 853388789 510718393 115640095 468501846 900479220 542188855 980518902 451948079 663839397 871800682 225076741 726499451 691380693 776576651 549455196 427535367 706111047 650002412 962781122 404614297 918788402 693216950 111862895 760684885 119914813 438056303 812911925 307930819 800511639 521752582 718020109 636547485 115865414 815427610 834825101 469322444 258681482 919381282 939096239 627663114 813292924 584730150 70114362 973178438 893284629 704828380 601718097 495916045 683680790 801084246 115406638 900102369 856795560 157235955 8629412 598459131 530239889 615710596 631718008 103424247 321866237 170257617 505381117 566511178 481847385 135155428 679952364 573013272 296661816 823628439 808018907 72629720 255257774 27279488 541495499 353511244 29114172 833325730 301562399 468020263 734673658 685992287 255526349 244580499 473469166 652542444 671265529 319087177 265325735 306332233 69190711 337901068 147848156 419635747 9910720 353696480 795589837 449624811 264203846 23263772 103290393 94798893 152792767 862837730 896833872 96882343 869217357 504385973 846888674 182753993 503041694 900241603 977903510 820862643 630786430 16988811 98375573 554515302 171912280 951781584 421374894 483787902 424817201 489178036 862207288 270129384 45926198 633014871 487329264 930656999 962279646 464846734 215818939 834491421 785620030 905166281 699126476 134984682 788072534 515168586 757995786 712599998 564923762 637982864 914843648 53443844 706621994 272637040 980352467 526369124 680009327 988070531 914897014 815927296 88295839 623119232 649754503 261966139 826441095 27617696 748683471 63476035 368025499 918230530 751477346 636621107 806944087 642267174 573314153 211043980 349132738 333641885 812239701 793198348 370372667 202139699 594124751 976910021 955672673 472254860 481691068 802329284 856840452 244804878 155158481 644375761 546008525 764043465 810924345 635645944 798860288 981244561 63893479 386368175 990571841 52744797 22604758 268933754 388246426 91755610 939651396 144546889 974839046 169367666 924288198 775174988 846424661 640075060 787619810 186428235 745265237 43500641 146707348 107911714 146185511 903793098 80043927 38316734 482530919 128758536 985946403 626589257 714831475 154616071 806948237 843680867 488264211 545612622 861285292 689384060 433235949 392264280 567867140 262708589 59107187 673645904 612748529 182811955 126314669 735551352 259932313 62242313 583122422 964587848 526897703 495823615 335598404 257443981 182920118 767651461 846776209 520172984 443428179 484589350 63457858 286814666 11016941 489350767 444941708 243184244 380069460 32468541 683738156 315740300 695931040 506208094 930026201 878258735 48421251 927140191 684161435 378659327 434871382 612070544 447065695 977419706 323644047 222051375 745682674 35579760 776872722 873482856 113493560 569070172 884623694 723736718 307536661 770523540 692182383 876246936 943849897 916268455 390962687 162266783 578752234 380634169 861482213 313147571 262656680 644263794 170347678 173386867 130377121 62455533 355392098 922825961 656323250 377249639 190191451 220853432 446496750 784320396 940610487 962158667 80031072 716718806 286766962 306922123 472362134 898595529 997669274 256934221 885773547 829397309 964185245 966392348 665775620 29664105 560712568 389317865 346362409 269238748 834839454 478277171 846840082 279594240 75293114 296687172 393121534 497573885 873528884 111041989 972370689 142461383 552846303 282790615 130910150 144560718 451083245 823056244 894958406 399630422 742949550 239199956 855299883 860855686 409194627 593346640 357957349 330362556 346809415 801829077 867462602 851428344 228303315 901853950 927522365 984511556 480592218 308353988 916575524 1198800 532675176 502460606 968246135 383489854 381218428 548334255 336568009 175384516 426859526 564705163 903220215 629110207 571370407 395652167 784875900 291575655 604784164 237675762 105754347 819286811 185767772 250349392 417233498 396245305 843502520 770331854 842056841 741487710 145942244 232283631 13387883 93389957 210371958 202448085 570239775 179316749 215014362 526265489 319978728 928665748 988165000 62266809 229345922 36467379 160737487 691613581 875692706 707321254 669022032 128039234 211710292 585741333 731005660 846448209 315638555 673654410 734433235 782203119 173505833 545707923 580853158 639227722 688346595 814520046 418509363 337744340 656110564 650090178 870299643 736048992 797264041 402194389 322337940 290406682 528028772 721854939 897076897 754776941 879253223 546492109 811098510 741291352 347710624 956610843 296300758 434009784 373800703 11046399 888402547 67718636 514338342 112281440 663778611 575597353 824418 999793106 244378251 908246503 874073162 341537275 165417629 871668276 837077587 15747523 65242855 989923352 539754740 399178024 825373424 411782177 287150236 638834234 20787939 99284825 96138040 872839545 118997357 46313844 309278646 23624440 422887811 920913598 873383933 268293892 255485073 698870448 701268567 846727251 508273263 474859984 50528716 331366697 755970328 698342492 414380862 663964157 514597788 95137235 712149607 371071054 703400394 762046248 898169055 686374878 528385251 353391394 258163508 528372688 887266760 927239782 166275633 674772891 207038817 25018512 68279920 801010447 70606020 135246618 726994280 310535309 90223310 405533405 128046161 990566520 926660975 2771334 768355936 1343120 621342136 695283386 999835768 16845225 362977954 25545839 239321158 478720687 379399649 773485070 646535660 593792145 655385037 604070607 766384039 727054932 921483761 789374657 940597911 720843506 849350901 31880080 391734295 842463806 176479011 268916728 683214337 875185440 990311546 15810087 498374208 93403598 882454777 290219021 37923345 38499617 418312896 362560049 913845268 946441640 961544563 505559346 237309443 812978562 295950672 440525508 875739083 727406056 562498506 212071070 480565983 658879631 993418113 112054901 409886197 167074351 296586285 709303994 653457 163117250 704649523 991912526 65797390 774586674 295862174 624781287 465650003 523209979 718086100 949037235 407562209 751767226 477348623 34793894 102197089 991969602 962863597 420560265 84955260 650397741 898848932 631317288 298585424 900199094 220919028 572559304 73018255 689979663 492099117 231852704 544319357 803098865 17681091 108542937 198398224 946745589 15680521 35025022 275916891 821819994 48050988 280532692 925875105 728127168 5087353 61608450 35025863 952407877 772113967 735450574 113407377 104544309 869265623 41510195 304342772 377948497 895919023 871291985 708776475 487366994 34532903 105950109 605160262 801856709 201623316 272345270 578850570 858970108 446584054 294664812 208511766 446054572 20152594 141688213 417557288 28167055 344374099 529598780 48543678 768392118 265451524 97726822 298301919 430679694 209472861 563413655 359462083 656676963 711949461 256040901 503129544 936690677 846062600 660853084 453513554 121168329 8884675 571174006 350132930 226173587 331378620 480495438 715296289 300390213 791928978 811874328 673433277 894710406 94821345 782109340 699623457 59535341 884588812 734494190 349783225 538483876 830159437 535748219 175021721 434838869 364905825 681556781 918763509 921975309 392930567 793395616 498740409 946539430 4824900 677953915 934588679 207392906 681975623 579860443 208287510 280064554 383971136 803139746 595395010 605215292 562641412 41269560 741686986 472434370 13648507 295623841 558577764 541552911 709422128 294863624 803047625 454838469 861597390 856868496 197109401 95913448 624278912 282747753 598700019 181555129 839943328 855971168 858655782 79025982 51806167 456120946 409232651 240619626 630171163 809264715 225383878 321922962 308179570 171725202 899771476 653988214 829871688 959678630 430829755 197199068 75834338 218497825 465086236 255385811 935270817 527915127 171500103 858999981 555745126 456629922 718978573 560915717 575448326 386303539 289241353 232058780 47634666 989053946 387563426 213155843 364773130 231524898 691695393 197344690 222352281 678279828 744868480 441543096 825295771 501042294 429372867 648896575 289828079 258877420 717240276 244584312 127811372 170708844 615671318 502088612 743652186 688314631 548135259 873814730 564599804 281182647 606479024 928979282 544030667 820798633 277608530 705272725 105397892 937712446 823519066 348446141 108130583 506947675 521891201 443135977 951162004 329353296 181345047 615644504 764239047 996167805 799912686 767835908 416569347 116639468 420744024 982967691 544380067 726383390 227270234 329492268 688237280 87760872 696660885 227269350 803199697 977274413 737687696 169982453 402051499 315330235 16500036 782708526 474782923 17138348 203404278 858353312 492107319 884314914 418718632 289393052 380467273 731646441 21927844 630922284 362207984 361430822 48550371 44503220 778426136 181963551 397570540 613093729 519085354 354412833 659331267 440994761 982227576 28366736 461824047 563033931 853556671 231604735 962646689 859892197 415056862 409564273 224256855 94201368 448102057 520927523 536528435 801116409 55733729 799160334 315034439 48892338 720799360 345916306 531038863 351992968 529118557 252590201 146767499 177372502 494638428 530573875 354170282 106081113 172070475 271498742 498895440 288068908 299006574 818643459 90663162 46917559 521615004 801768029 480968811 294235601 216907329 8806468 2304895 247613117 831314773 948911810 132140747 441689584 686509829 213510408 338653739 823835194 239453517 321562515 353875717 658615968 656070727 860052338 158975511 861635869 181470780 615336698 429989954 895922415 118427968 172129203 167898554 543735283 461838870 286020115 930290732 773234761 275657281 67615962 828576601 118279667 107123316 19190143 650155985 644332490 710071516 855156697 714639982 909588807 907934573 865341448 302271566 742578893 72545738 430909767 517921678 41878791 922143172 599718005 21632687 589142346 323440578 464942522 152461151 488965361 424826020 638862396 213906712 793520019 643059960 592078564 923566063 380258385 981580055 83633130 47400707 892092348 576887530 851136107 486899822 553112946 159636489 928486795 403868688 326036389 465139239 963718349 986544095 184271426 60241716 708836657 668174189 614648444 295915267 822019617 345350315 7680398 347691065 405689046 725933492 771063826 656059643 642017059 84362241 290763880 273316613 690893510 623266676 682588550 478607779 503078018 883657118 148186307 44073772 29907268 339827226 751011610 942979295 953169114 927038702 206297017 732709060 704121534 230741639 327171725 319462685 496099048 62502575 726127505 743749342 299575192 780806669 804171115 271971158 300023164 975422400 625912453 993538124 952024589 780185046 485878845 53430770 519547505 182699925 441373489 794545738 145665856 514595921 654017595 140867188 640204374 346281785 561141532 296615683 927329409 667098781 799113621 282262569 125262501 648784999 974206663 326552774 253990253 347147804 945419434 223120518 792557620 416087098 388663780 768699182 482605899 937215052 431199893 247752383 197933101 833325751 744259383 178419122 863087893 721437146 571713781 716943189 36876010 415572879 364921465 75080989 506875346 157993273 21726262 544229355 870103206 303796394 933221948 718387943 450236843 331843077 303879706 281873865 991818749 874963110 741870801 599033367 919412136 884711565 980025226 542105387 652886989 968796792 736835631 618463403 617217610 569898912 833966696 267481661 200184964 456583374 764643166 98457497 516177622 136894153 733101937 123534591 335300321 894164773 884606507 587487963 446164698 738166425 203974691 437345901 987928974 455396923 182197253 470613350 639853408 469437688 998970283 491854893 789247994 353013456 40184616 855055381 848341511 849442108 254623804 266354293 484645745 620091782 734176119 203511722 855650926 76978828 266159044 306758131 818251588 140631785 591669968 358688871 294808509 621628605 366366139 583142430 868368169 675064996 573962706 873302513 827042988 81084265 524573843 276213246 977203417 296187918 924244361 655022739 293927909 789066759 125922885 600485585 856272297 238294711 516441754 971100522 31847631 52303201 356903500 487753086 8667608 987992311 973806805 53320751 668632140 907852442 620887770 648732888 520742990 278348065 864555763 531117569 616953405 459827072 932125012 113149885 939580032 460431612 169029041 102207739 127840373 990957250 733578161 251511302 870441654 117030940 604586560 726413713 609525930 970866321 371299836 81112997 667576961 341024979 449993812 527243610 67623788 231540002 839534934 332704954 115491802 785723540 157442127 864898265 397574370 671191763 695560503 735912773 946663056 840356855 194613542 266226197 344219478 917137293 153191922 377007166 110705187 663614705 789241666 247130789 450376940 487326189 706737539 688126894 617383365 121718303 599029829 308821458 924488021 100618547 307603234 624136009 139565685 515535069 724802500 329768633 138088276 63903747 186399691 104133587 144105436 275585609 499300957 58812353 476705761 507522994 737410525 858317058 977312527 747882974 750339339 665812031 640280905 289972299 19443675 516721788 191535872 703068984 425625168 623196237 607724825 371775088 97084417 273177952 265790019 180544880 184162702 210948386 510227640 345663559 312946579 225850303 867957447 309852309 984650462 824471326 287931242 971816089 974163053 373040664 561410390 120136234 838875271 872917601 824546818 531630964 528289843 123693775 946745358 193292757 903823243 354754722 669578187 681956424 912845204 921032012 805691807 495669371 539016987 12883957 834616453 632420489 645596842 829346192 926708403 362531515 355101664 340522215 244275727 251470367 695528480 591166388 621700546 652908325 909705125 567283928 982087642 488990296 195207873 881688730 955028020 870233045 194343629 607576533 2165333 303956909 439505544 358989286 852170749 348710668 152200347 239336545 18225138 770868589 160312273 469755259 624379901 92479890 413852598 83170879 502096538 448090311 51776849 547332347 724659437 681795807 729076990 644902379 71367423 487064241 808030798 810586449 10090043 621197113 395974242 402938139 639700050 947264892 393235136 914982767 129827269 737178906 708453709 379279855 118692270 433605294 908378244 959953710 209593652 780649363 552688966 501316312 498385656 733711680 701437867 496541696 77091654 491177900 4237835 229563585 88759459 218913162 662594595 699607924 833972604 32383917 862369409 196079453 605280687 490046264 135330827 286379867 285629710 914735606 956453826 812836768 785423968 57966770 367946610 213314960 459805014 261751599 144225819 263635711 724860483 770634248 748280277 498518456 673362276 239871826 296911026 825152463 345116281 119807445 653140756 416360251 448989972 210205646 405598256 752727041 672599758 432164054 475096270 578093979 583499513 438448854 399423247 679357475 110337055 934686834 37933659 955934430 358645515 986388749 101349395 960558429 440772151 11082919 702157622 652745180 852614670 196253785 818770111 759871782 822833092 741569224 455271508 155102266 94990641 996920543 169405120 247793240 982390903 873111864 384107409 646669263 639865974 699157884 165176215 210029660 17605541 627013767 384516352 736306190 93023721 607187251 220774826 923703826 745740014 236181125 675898380 345946201 504752962 292953083 716416149 439855373 851023222 624997423 770057868 288214391 105481386 270429484 794801756 631907397 967680183 15891762 325384274 997877338 101147583 344225532 87389039 333248960 46390679 442096270 208014460 958204935 525553260 795875796 314657837 881508353 577686225 896649902 444719293 956097332 96753609 392353614 668857285 556977038 282691319 625908504 345607272 347958239 594769484 20099692 482287588 80742807 688310262 766795215 989416274 565704375 506205658 45380154 536522759 394621653 192355158 288720629 874183909 815901858 468283675 948748863 222038371 25252034 218485972 990882648 295568037 716058256 12630334 656419371 212562872 282641 670236939 302810133 621250013 155963649 878445796 323711351 768113417 404661921 302340022 847838857 183748102 447851470 346005526 788871498 99806510 532514054 89059240 623026897 725610461 975672552 930966949 873298994 175411798 148430082 834006078 826575940 24452615 978796853 50833138 442644456 336956644 907079625 431481022 715328161 795336156 656765554 742753001 444605942 214531757 21402831 675198004 673663932 858726318 47777631 614642074 483572857 781917996 660020830 405363220 694351197 795693252 63644511 262864636 152018551 288243536 305383581 132670431 999539567 879820980 751923002 455832713 621043092 118466873 485151028 258528564 923755329 799050207 500352240 182075514 736985987 127492293 629304377 442908173 291329440 254549118 868199529 454349593 521158042 62455697 246525029 336712068 446246233 388148418 404491220 634960042 153048156 228860962 547667591 187107075 772428214 141121773 85519170 737888351 673263084 118388001 738182877 739174731 82802869 292419315 881538807 771326614 201784061 631040405 382290957 559511505 889416437 854402799 737601857 102750592 735173699 761414883 721739813 598947096 788593804 836127743 370069740 255427193 124460440 563857840 121753599 344321464 229943835 345655957 42507805 999719962 356097283 543348072 864380446 9712151 960763482 794393641 336313414 469295357 263190767 938767889 494455830 433788290 913540890 99854990 641463620 814551945 537830465 298132226 596146951 248837755 49995926 187560907 871244003 813607779 167014976 881263771 746755245 107938833 569563322 787149528 85687444 299175583 781128615 967672984 717600546 405026070 708838483 300886152 40702829 364943824 910075431 591766039 361009027 614917316 227171119 672448324 225214815 100052363 14340643 643845629 784571929 41825890 281113825 155497316 477002367 189973404 887468874 832069241 558968442 587750414 281885032 729101469 5450562 236125792 823770168 864138924 278481260 915336679 889940665 263091374 356049884 522655387 800343200 663098442 770325281 56147277 364790641 853127200 508216683 840118602 83965927 160279022 755664818 711191384 189586045 292530946 691136646 614111515 665770911 101673232 420827178 221482070 137393978 348756502 319687566 340286330 658307473 332705253 170014266 393703081 90105984 91523277 718849443 224223424 735648044 93247548 746395825 567401346 122957148 558242622 267472084 395641543 951344252 780102765 450741294 992548623 520507426 199681506 293140408 127667176 424570419 35099977 346125461 573245719 565472512 42046177 515981440 728799 679922563 844882716 641073200 864417450 287224599 260536931 604670875 489383309 868974093 299693101 7950269 645344263 163456347 401010935 363685609 839611077 166938061 84709256 151531015 523013762 447955047 464141197 636511291 558301138 579925745 45030387 188805262 211773156 556552101 908269368 73149434 656311695 347243882 665505281 400125634 625759109 141889568 495444676 671042338 400434031 754923484 742640807 646090769 952935821 950931572 456777030 240387149 884828365 639326633 232959032 355293979 114669496 503355267 686661293 661208638 953762510 3965214 275547842 137258138 169042081 462119635 1479529 43677379 779325035 725127241 560656279 450314728 514603423 828138697 569760365 544677129 845354420 878473626 335943873 294283676 630214598 444563817 490885230 447050160 30798401 734046726 566593339 593631518 640378949 646136389 735263344 447411388 45624514 542747830 203137156 225691842 81235761 885555919 427536955 558307964 418509197 594926652 437277276 932707092 418884836 954071077 550897089 504268581 996434429 757373421 735464622 408505124 199849876 714308802 966719297 379921263 848366402 600508627 57231295 122440244 517609181 877204915 244301704 204159404 661027643 745517057 46311160 488110083 916475 454339352 69013528 797484715 818618012 563020026 670711417 596605488 276906638 190137447 961152112 450085925 634067244 422308736 936814141 418877989 337227529 596989626 708775552 925208667 195912745 531996757 923725634 696488091 50248237 869512085 240072732 943271559 69566608 572038173 701709287 959803459 422959352 623651110 144140760 980191084 287408465 516935349 180501793 751241370 587297029 726304625 14416657 307477733 575845837 927314579 712143845 180949993 565933378 944363759 141824133 95305545 179138560 416744195 962791408 534909610 483363239 607596332 840361483 887782429 399090678 683043697 621419442 877621625 146000342 833449581 511588467 918443649 386465088 493821434 48768157 219186694 556622532 293858277 64258076 549479566 614299021 565739949 595562546 276818157 506079286 126961077 906288523 97301918 276563112 788379009 294366857 411772714 901705873 21233723 990558322 912380090 904155842 769187302 392049628 839640248 44745778 430854871 473090580 622183023 161497502 84930892 328771595 721182709 931096850 15624305 515247773 597595253 159448960 666223831 121930276 559356837 631023975 41105410 111690657 865441617 137605803 93513959 341716978 799084085 142015118 392597913 391239735 479245311 916569611 748072839 136996809 547161867 234834958 360480191 706322756 141513682 753662846 491897953 472106681 338997950 967046765 614325517 998590820 109664784 727472057 26641515 116275679 266139785 695092067 827613470 746328819 732389656 60596293 25585828 893484294 718909328 483054944 440306805 258160133 959674052 884974918 934266681 495859263 183622710 700452991 811976049 965701375 358642177 691442322 130472000 481388695 312810411 424221015 200907314 78059528 726454942 91873515 831216240 569235693 649919243 249762960 278780474 674481230 604678157 445397037 77975117 26142069 443524895 995698756 715099144 3863008 84271454 622727879 557700055 414778021 548234802 908657321 780309249 235388313 467841769 652622153 886326376 739666829 570764628 608754120 473716668 30359387 786340034 677661022 811162194 383018867 296418894 180136864 494965144 985721707 281875140 575300977 615725105 699627097 930049688 730885626 785403313 987768755 865767274 13272168 900039726 188400761 840323302 190044390 247746085 607876102 809328799 584932141 983985303 756182669 251615054 475584426 678943527 274608733 142663419 930861888 484982713 272066168 227355411 710400671 850500860 186843977 883176662 603914724 228825539 682660498 137601846 549277943 939886784 467241071 702675155 140757621 840799381 994547457 814837464 963524355 69285104 943922321 424167158 258859894 263812217 153265169 365877146 936720407 228023484 870811344 16442900 236132081 836901242 194712186 198764262 798600230 112150453 870983716 476156149 578953221 136695788 244073588 626714650 157152637 112912001 846806037 472175030 162737376 335035407 200867148 18735287 390409137 580636833 485604142 313125127 841213841 287413431 374675756 544664580 953966685 675497637 766626612 604021921 69050011 943543603 10034226 2175587 957259952 424589664 996544875 654404327 822255276 264976516 802442522 597252631 219553571 749746247 897560012 869874873 59835292 489002945 91409253 754484518 441342653 318684999 516187274 760425619 821835380 494958342 840278500 245706353 979813482 149259920 935411877 754486410 254157720 494104258 848521388 783867390 325444218 676335514 309304991 457514672 776479103 44119018 852868174 795743575 867278632 850539696 829455657 293093314 974910887 704377830 852040392 682886172 68526480 162601586 609205837 318635358 452916149 197628419 61710986 65417960 134840719 808845297 434027626 318832229 640650381 863059359 923527142 337590462 778182261 12695964 195907994 25411341 61165537 123441487 662693447 20154688 802571030 302751247 581990754 849948721 497804427 257489434 517852199 543691864 596686721 152191005 578383488 637753833 560207957 808566262 947096477 841849526 925503269 776591508 275880469 311950710 288715909 603084745 793236191 824193046 119833372 772908776 859542277 90301392 114627327 533956388 250245537 300940991 958358837 958674540 832780691 659550598 86970669 617327261 715365124 676595482 153792103 280509292 798073156 260176750 349036492 737824473 532131008 737947888 923032040 565264306 84608272 756142353 409306508 264472131 222051476 922317063 576444530 984354119 780965706 636637176 963349392 429017205 377615915 599405786 191629973 944461470 202219835 52129255 122884737 903414955 432117933 145939221 332793837 863666601 191956904 608599528 136567372 508406991 329579566 268847798 59465132 991514908 290439752 207010941 685234450 90816467 604847310 570828519 84928633 251081526 296845964 24597158 324058386 515526319 236017301 97901560 256410450 563205644 251151314 491138549 580673315 608028987 821687247 869152329 886327976 842275466 956498058 457852479 487833845 524734977 86359371 655528780 896354032 325046594 42316595 519795602 78361240 549294653 658015484 586401906 96540968 459407083 971325845 864061037 793406048 980887481 8030401 295049692 970369467 693170380 919972762 294148213 908148425 571513777 454023589 214189177 173723583 94376866 26623761 406100579 961128090 444433905 155760690 733382523 694550134 265396906 906532542 99239697 927454751 729224508 753256189 273060684 269736771 818478550 332489442 377247319 738610672 197433930 802247796 636549550 989147990 545942244 538735900 968323006 554358691 721971153 580389971 446064398 512965232 303612273 922170750 415920292 65522026 839076511 306626509 278906584 25606036 68455995 509580027 147834467 83968890 111707081 773044273 473334895 402679774 902906570 25611073 554862447 322644087 461287244 364849676 23646134 598241490 131526936 698119080 923483527 246007098 426308100 605057702 687131140 553533786 46636418 823548128 253048669 678728286 483794884 422065443 130053021 470697192 692311984 438152318 128409918 258159730 675518936 192569341 991506894 103705402 397256903 159489742 428287559 616633178 980961988 748831369 442034965 573924019 76915385 940009305 856453223 492248853 376876045 604924855 72012485 65122979 472368268 920636043 360127588 14243955 872903926 656552888 710867410 972218650 152766159 511848902 931578275 769549608 17662371 462719931 403946266 402717140 442118721 510198853 809179396 574034300 681563709 459470123 795226151 578281426 322767003 847767288 610901452 495601594 776041126 928606402 241037724 892340657 709428770 732271664 796305548 537876628 938452781 905740703 764379441 312513920 220500982 184221917 52042230 597373247 942103415 479327438 657643966 48466631 719310664 936439696 296089344 756589942 603154032 819315306 525411631 563078197 682988212 881195293 910663244 152530849 816444617 836075807 889635681 726215676 803071923 927794752 973040147 909770991 360266543 240095210 148022709 897318023 343185027 198310889 39766766 575223358 244877076 331328294 375184922 140551014 774697727 676106294 730911029 764698795 956126743 253412480 154039827 396214614 644255895 505811614 820877615 9393518 321273215 431928348 156041869 631585152 299495878 130146844 728586949 547219635 408510943 87952892 805755438 83358921 342418852 260237138 697305606 5226404 593208731 259437992 332432957 87765832 133471677 717347156 253184645 235839646 515996928 422477555 122522881 653831915 890294809 530885050 293411483 413947991 850381072 700991581 367195119 356551611 565185045 801701604 357541728 843723921 480930878 743581476 598542708 977941828 199850285 136961737 218801274 615389387 257274932 768950619 807901729 984922942 244308619 81032539 988185976 113051100 171333227 727805409 474627310 902054861 260916385 68615356 956689769 808065854 818852286 153957036 674598932 279283379 134938086 401353752 215636905 934663943 267029512 313662123 226146810 657849642 370035893 278805261 678435623 458559937 194469210 683554247 516334549 527810507 455691980 888274473 724174591 762581080 486726754 97215494 184386470 722437306 559053299 58190689 197723127 38138742 97655937 451745798 183497600 561614828 670325509 110427210 394268291 149864422 867406110 854006287 414477950 534699405 396191341 822051135 688498056 388448569 728994357 627609705 212167152 112320934 542330560 82378089 198626787 853437218 468488051 41316166 136112408 194364108 566898384 367776003 869468146 514647236 47748464 389300012 249077768 866869615 316186202 38148480 613386399 968081229 19018420 120238629 142769592 829134032 296797752 127626748 702325718 336667540 857306395 638043043 163857888 839134746 740518671 357138249 412515640 960061925 436611392 391784568 740706550 310475378 194692953 735164917 946553219 520759765 580505153 306176129 528509179 642967394 753634518 800606697 166742381 898055721 174256587 215361753 702581124 127160153 108923529 198412626 193929742 166621655 991239153 741609226 658615706 354581134 92991320 628723142 254377721 38708129 60612822 52436104 303810726 332438901 398884621 93912956 80844733 545147613 85088539 132576431 117807597 324553548 735768732 337845115 155000741 473677844 648130166 888460875 545130775 371969958 305795087 49322372 287787285 716690477 520497802 550884141 167150094 464387879 420918814 166780067 628110883 973942095 708017246 848794431 474975341 618766867 937909165 182597982 378541612 729607915 211317342 593508559 707270874 517819638 749627326 298042906 549393753 250338619 553662892 863659180 652566608 39242344 95187329 835274452 95951649 979159286 643583452 913967195 571658740 909946126 214243762 989651726 315551035 811511939 448276225 914506673 384621567 835323638 960440900 856093303 486298840 647282653 305140533 281488051 963472987 796759099 210218927 988142394 647687455 272199932 953901631 676230150 936418989 125917156 961269846 457068525 227802845 198607 657950152 2091734 203150261 437826974 982841094 44268474 574104833 516281390 196963373 592163660 344341748 807951750 158407436 685480937 801418313 860920349 533165362 796357302 666831668 757887593 159121785 149517509 68108937 961604558 748811520 577944184 895233743 989021984 266931484 365104838 247718345 257516605 357790685 157990320 568557815 858966311 21911559 800396287 664469589 922894596 653326152 2982879 692027977 63837124 53275478 706763292 299848195 341261472 106688750 987151285 843073672 864282501 278996154 415826175 613850516 961844905 418385690 35798200 286630924 766469079 63615032 741338745 108274218 598484244 675372454 318693831 176186825 805319508 646871630 385763292 129060972 125107606 378678270 750030052 623816407 466321052 558739852 740848594 904059328 127192532 593471281 297756667 40058597 277751115 589091664 642246045 376019567 797002732 242210306 200938351 610499500 486299981 165746599 318878886 492197428 829603773 407670223 864814194 535116709 535518296 456437832 833982538 359644875 924231519 617460220 248518080 701778677 811917294 652714994 513651655 661364146 213133077 519293398 601210451 606930119 554851703 684966139 634507465 920296887 591118524 839622232 931539568 151427460 514235159 487429673 374128087 42328898 563817309 78380086 453410449 814778648 44158008 379910072 777587939 822844399 704448070 474944886 834481898 733437115 474200575 267230796 134454236 441933739 284661522 579147985 69642041 679563623 947673880 745064869 354639361 551514074 549051486 169788075 960548932 47566899 114767571 434011119 972776885 268017081 640515016 879794640 705217775 366908235 28873706 473456300 549494554 172300077 326383455 457824585 953710325 967343756 978283525 308471408 940158929 188228569 940613421 600623233 204198169 764981755 871793133 393965287 559592789 65266920 198010422 896225608 455667511 849769788 371056426 131951323 229277519 925038990 47421173 217580650 531010424 714246121 549275929 52297916 852605928 274143785 87514385 521641911 294374752 209583480 941268806 915397584 956674573 52499307 480834351 840287105 369223566 639118518 159305293 609797166 465081005 259698486 341203278 160136331 951419314 90731201 915144517 782905516 341655055 339758630 920966542 576542164 343218512 899567635 822304821 371386214 870615712 70327729 361654757 520312729 188991523 876172380 248756207 938808398 493430978 479635794 52425617 27156211 703581458 522450393 725197124 821961696 336519428 943915338 856640178 252514198 30985859 138661983 926391900 877385077 764569297 937156095 885484753 10811115 368275906 864258930 572892484 211680625 905919102 580585992 882445210 7867298 948109620 303079154 347197286 349734107 585080229 740613047 292312999 283135058 205477832 533021623 361374232 11598815 554231752 104190993 883325135 92543358 414148161 902815880 47767596 338498447 789063188 723472999 389284573 129635685 601240921 572299781 766903479 416298439 182390402 799860406 156176243 94895883 516057621 475617896 785647099 50072224 721912324 711111538 417816197 822933532 401418557 770564394 748986173 933600829 405389789 227326112 582879576 934121970 648988048 851945278 419898380 418146197 758185812 594538072 736648362 933809446 850827543 468421589 702565413 99068674 124678388 75820844 548990850 306831680 135072220 113701727 458292355 951012125 680602898 716818177 654029757 698631816 859264383 776972360 455983084 519009616 643112406 715956293 974583485 932956076 683886510 314516616 508718882 389699071 270377414 255161710 565629210 737409253 992521201 385274297 682814751 802660093 297939706 933573835 553143908 888230419 959995744 563372639 552449439 816887253 948879975 824266580 912988915 684122059 60529702 591570457 323546817 546614325 42720877 330713952 950824003 868715370 143782599 305663598 120282188 806884409 85081753 790707208 951665294 492167491 586934732 829417486 516927304 172975645 803422624 664214025 362650259 595226891 142533298 56920538 630552603 978265601 418154882 24801919 336815928 97120863 805925065 317281462 535957599 334657509 516978993 824289125 750308067 823393489 765941495 848265006 833666460 856895491 179050310 165101581 954856551 323810624 432190377 129105600 885562708 152146532 787965258 933205531 501172159 741805595 651102502 450170231 317958247 206851573 870465904 317432116 557404556 983270990 239964825 649292787 303354738 191240423 774000924 207698626 202983828 901271039 121084801 758359515 120337376 590713625 271854483 776405996 233063343 373870696 60700308 483813605 526135262 605200265 425820566 203682759 271248591 277389768 295596941 832001194 278390562 55630093 300877411 818872917 181183450 245676001 275157972 696543408 444453672 694890889 527074315 325563047 91403272 862119269 895856711 951326387 356393121 368717702 240689864 81627082 578313780 746064756 172375406 724133738 191897212 243689388 989328926 646120882 499284146 87859776 706858288 343646592 382201403 790495764 963703973 478198180 56725688 422618560 546611325 590856173 80209916 918659002 232639362 893374119 606620995 401950635 799485113 268810513 350367355 165145664 555728760 180542113 732821096 324468859 103500115 187152306 181826543 612779138 844951852 915651397 455049715 394044080 247894414 229523600 873287641 400607562 271787525 678097441 67114232 520346679 995025160 599197926 611045100 394383639 545037770 252573190 309266663 739732734 47057677 128400768 799927609 760577375 752401996 366973615 313463916 666111394 711039680 765665761 673680916 684133658 790421660 455874109 728645698 826121480 512231464 393242183 623992802 421484519 642701902 669237689 26178080 545196724 209684402 410069177 963103349 983861582 27246295 176116559 276263172 225744660 479291340 884055555 832371958 81874526 872985580 425857006 612318831 830741648 664858058 184519831 179628507 927471899 454832426 11346931 281884769 706318469 392899063 449335087 170880585 70790089 375974562 507174467 213590522 583878855 191637840 822540762 943347813 269541556 313340235 146978120 595438257 109321707 648212821 569544765 893425142 780016274 568592634 567334600 335429419 943470349 9071383 954731681 497874722 535712498 744490812 204672284 571772539 947257871 16718235 964881926 414358963 484129591 950967194 717126542 644269759 413506376 646520090 636360745 196370345 811060541 569066804 735292018 121935711 147977476 494065411 389658696 136718329 137556035 67557024 847199195 66132356 237129162 1214812 993928176 592027358 179694702 986229436 822446948 585384715 453795570 719499953 981048409 685159026 771653116 485997798 439254822 269099738 857225307 120692265 282232313 418124862 481880668 253898436 84113241 874659396 83958671 570369288 900208512 987280217 956025688 161692497 700980089 150829431 802721326 263084144 176438147 427871577 620133715 801694633 669919287 116924207 739697275 657729300 173796346 467195630 635687002 621509684 851462772 583583376 348728803 657944253 818685130 128151554 635251534 667208735 479363854 491605119 754303124 328308424 637537376 826785439 610657694 462909908 143985871 869840018 336241365 867699054 555166843 741837610 604834649 538074788 478973290 233140679 692246023 962442528 937728755 935852106 915773224 535638252 549637751 619097761 642782939 902381473 985577127 680845470 320457312 638150847 390560153 950373176 686090425 141646710 836224595 339107032 398540375 720461215 897360308 203583603 826660535 980081382 408714317 212866153 619485096 912139983 84114511 662572454 246125975 351841770 488578347 119902057 270938536 53792976 535802121 125006751 205787946 902112011 544891834 500003082 40246751 676576975 125530171 425078891 998866186 61498053 410546669 535412784 998629844 340511181 655404373 77412405 760645659 615553632 830878358 965911227 722417587 269021273 599057543 72087120 599587895 550933021 652881807 643200584 435665186 195546330 535281039 794607295 797846396 910167773 16850048 754455672 74731449 982522080 572745649 505159117 813535850 902996002 435756411 343562439 928921240 288420278 569999369 779868926 25451598 651992657 321242897 74914186 672467861 452719865 415309756 308048703 122440144 963078521 4679612 568205724 809353348 367702340 445335889 177488753 784143978 937665950 955583972 482444152 953213963 679149687 589593156 448505288 520834684 557080674 324142801 725398754 130296616 486570863 657740989 440565329 279920659 746099398 83190958 68859997 554181545 356491348 567025816 42145834 985036745 869496252 901272732 534906321 84288681 309973507 393617506 846517049 729358535 153855954 577713105 491693954 65823869 852170948 386544978 804482335 428888798 164268173 93879074 802852395 458547106 218181457 681959642 451365495 929695 315329254 803746194 311960097 626959541 497509297 371891524 349273684 147173052 15387196 97630799 924254666 973053851 934137502 905005555 590754287 40929970 256937441 183918640 633937088 40433753 275359910 231690874 602342687 128667360 996663128 237043199 954458406 386652842 378047753 993461935 667089012 212805779 76968210 109782785 150157726 912171095 165574282 909773980 247091775 819573397 562921992 545727390 898289120 81034290 382013365 319879434 902816681 223515238 542778799 953199050 420915269 492944826 142849349 470341355 658422917 735484847 954002356 46716446 26238893 607671987 145245073 761490190 363515952 203224016 317568384 768463540 297515820 515735576 582400031 82403480 721330497 860870418 704119659 893978737 64979226 506880440 514071236 523453163 77267608 362052241 958869631 605429659 620272752 719227289 790045474 185622299 362721340 653719966 571974041 160068365 477969956 105576192 696798045 86891214 832202838 212807640 531481423 575427285 214660288 148829191 789782679 663207659 933078683 842721656 16160276 810729264 447157545 671838044 267509341 207024476 19357104 478936601 158471166 771607940 513320886 5257370 651323453 63251065 133326740 651803946 666737543 165323043 110809120 341177635 208626148 255825099 220349093 508373357 582271978 720851934 888825094 387818596 484648781 336279131 419632645 362933813 742392015 185568671 314942369 639663469 243291903 15424085 113657328 22690199 64210788 306472750 804079162 119710046 699881635 629217045 197240726 438671505 832860194 768030717 526629922 546997448 917818598 922880454 766676495 489860361 560819220 129243136 991167127 619022645 268305960 488077966 802652280 669197618 172602747 241947583 651735775 434900397 750082533 326118123 315183598 79512894 306102075 798702154 759074751 522324113 554949467 257474527 723664630 46101069 144045574 878415336 804416033 699483259 761641286 931616983 789040693 622834754 562637248 947669655 881331774 689768672 816059236 632871274 822739096 804437272 789441782 645110617 177711579 495830727 649094246 211974292 42324004 625945532 835045996 130705550 646220419 88349466 677665385 8771491 34866631 468982913 146281451 683145842 665414428 363515832 538916935 237444472 380275902 634758147 983438165 123231146 103149863 721048737 880060897 780611099 931110205 424256683 35942676 526710325 204355923 524068424 644691967 686926853 856235258 457296511 416996889 339565449 82627338 592439300 896790293 598272828 496411686 879965418 414694618 355802470 762726743 448543038 436403591 232256001 103500288 351723970 790540718 447786209 431307819 814860224 676499394 965603784 578824195 380255036 745957813 547473729 153595978 698581741 366607697 763691010 355688057 5467084 311811706 397654781 493316848 238930599 391171782 798004344 947737877 644807151 594014683 487640013 627312611 82247883 553403984 860656037 318923349 932825094 966116967 165005656 409022911 96455699 215845386 569263869 344061606 736010580 9118715 216809425 745176684 161511791 238519780 657964266 231273354 516469608 878711394 803420655 643617107 486501832 687121016 818909239 529011184 114800275 276270355 221246213 701617721 474699261 248224981 111833567 8437571 922188251 239454998 338673002 556088529 64354675 920782936 251869713 651187977 76664590 845479803 169551891 896557119 454357499 767127919 504667746 721810192 335963191 714512949 407964155 721789094 101535392 795273 3384879 332502230 78704698 125068540 275279304 930735074 487485256 635699337 884850701 842188319 790567891 53651298 288528133 186522452 106767604 510335919 127493206 851181384 390437124 448282832 10759166 374291773 506567699 448499732 199445433 715014257 690366979 792930028 736304472 569859362 284351763 146588616 612988342 505064462 477011980 194551123 367077665 414640862 632635054 984647357 833951918 270432801 507236846 611754727 487151170 993131083 634482525 906349480 287149761 989033575 70610470 583222101 71073543 755139343 287607326 783128846 260875617 759468457 243741 647952997 647579803 681678872 341074475 258704074 13817213 378672088 656092921 834288675 596987120 691248925 428449096 860410756 171240770 49979484 218792183 121369969 374925372 75460193 657838266 953936578 841965986 499771143 719026550 186984468 954926050 543847349 633951151 354797133 871977131 527396619 515266150 398312253 761295235 103188047 843078208 565445748 40296875 758630465 181672004 485439222 971334951 791761498 393317107 1657548 464183581 961858959 721784753 94650167 838573030 346125358 702586540 271547999 449620587 269790960 196168016 673044427 885151068 829234071 272109146 151714105 361904693 622381266 126435233 217278959 804341323 73270032 83676959 142464057 942076236 48870044 193946870 229374978 122080542 508094883 225123123 221418811 794628097 832617381 493749075 225632692 791491334 790417562 710261503 742361284 410821482 22809908 904146881 778559434 802955452 522009847 908081675 525323352 240514452 114121501 968460640 133574653 759537760 811177950 424692582 104867337 10072926 440560225 668480752 736210575 616634383 766151099 613108122 398908135 101322944 53307360 499622995 982036095 436960374 528575674 292055524 638767785 348898139 615052299 406256573 347590730 166575092 806067462 474181281 126232596 48174542 179691439 256029567 255715058 390105117 566555977 401411303 213087290 665341570 678103558 359030820 276312173 61332233 522348966 938108589 613740980 725065346 177704545 893021615 528610355 486987429 346851655 308939281 94074226 295011873 553009600 666666705 169846204 875520876 494688159 931290775 307271423 84741622 534015299 772294318 801140946 467230650 730682627 630557785 849152764 335851973 768486491 202962667 149177229 996255231 84192840 127530132 801787576 810269447 972878249 904633388 377706678 95576770 577219135 151944840 625242528 825701351 512216102 50875762 135563631 54835857 151832106 542016147 925713845 362381618 39499667 457834942 716179360 132429354 20362888 261305597 792792244 413082804 829236588 264631558 572173854 110058488 938760810 846492473 115416708 415757584 299790307 28366752 891973224 191277489 313496571 576014727 732101504 128906005 706897992 853759903 6840470 13071566 318308989 233463684 729029730 478085078 266349134 934473374 15398306 939793626 279358990 821293736 153906962 477633810 511460966 65851670 963796779 905499356 674493085 577443768 364128048 703059434 862724171 89907409 918603712 430590150 676333747 911628133 715737190 697705085 528290115 612334214 574143910 398386748 619293462 319582073 682963056 693150170 942635057 16263105 142488191 651308493 503051752 383756724 879880735 760251954 574474506 806302654 956670572 374844521 499268080 230743541 541775987 217046007 242512349 992456738 697587665 129267904 186909441 664336841 835391703 36296410 370871934 367292526 95407254 306402924 751182460 956311752 322079046 229795311 402951294 906742702 851531851 914256870 943274886 969752258 435931249 932169533 805877240 514702784 246375520 154657426 570258270 43580179 805924195 715330493 848795955 686975848 531225927 169154525 831449544 883427237 975474305 566907283 412268556 70629173 912567342 535093662 411397968 442750612 277453072 304055642 590802397 738333666 486011387 65821658 896875622 304069968 74424360 137293279 300742481 395137706 454230537 589875364 780193391 229177338 296867668 987381485 628284452 482060884 56380090 508722431 351399296 499169407 342316760 951525433 962583192 297434957 784482579 92249825 379687005 486529379 749775291 399197865 842313692 1048276 827890491 335353633 891634953 276203967 425121595 689781541 61199155 759048972 50057563 38987530 410192730 889180206 585162161 619242500 885940243 48451507 287919221 337221041 386112174 626652859 86630044 342034872 909271134 872445740 683180203 208417616 654394752 735800948 335040545 888544343 336170475 702837991 263935232 125293702 678738202 750974140 382387738 749560579 53561847 526556667 480719073 925574113 497718458 799480391 52949877 382963877 794198941 311756754 887749440 78363888 504224257 185525360 650834722 144487396 257186815 20115818 966974679 367688724 287150189 423695207 783952964 667875232 488718590 208589457 501521063 573730638 431575729 880169640 897327085 906475394 868650915 15815733 882659105 589729474 237888996 976558237 61807631 518317671 557687416 171122759 128996400 872465661 14636937 626879163 455863713 603861381 715356626 460894530 875394739 462323088 38350837 243216972 41337002 512145709 205740722 544541997 676308890 80042480 171600386 207973016 371578385 208594801 592840978 112856106 475864720 381528994 89766700 658916369 72349890 368932084 855382087 61758227 270387421 339216723 80571482 535209909 248625849 44683685 769994313 215310734 836826513 83191199 982230571 106396389 84277047 682069450 104420802 875190876 457811630 184541868 624502924 86259021 352480360 502138785 460737750 135862970 442253331 385643695 738000447 297433693 962215513 97962001 617304650 978412838 567898806 819663052 95577669 692841811 779848102 276745633 974340760 324826152 881224570 292605840 464170679 14907708 419198395 877145380 463969893 34714339 727781076 506150137 164340284 556716650 851118120 654056714 283184506 482846320 273730201 711120796 427070914 96615295 505281414 133082925 62506657 507044765 878083078 271080896 544606418 925826529 576481882 69831647 709613280 377411983 554564889 810063049 506709263 141451216 602787547 437496253 658719439 670552625 887919298 442300451 577218083 884895856 389144868 828648110 605146703 9419821 952812636 364445385 487266400 927266775 841214899 851896282 776501561 654039855 101367175 761410407 51476699 228450161 813258008 875197459 537910669 34612528 190420863 377611961 906904899 514840705 337867257 771317608 94397193 570296222 802898587 758226213 983296704 547826336 517734557 811041399 561770228 564970939 256623401 171225262 114375715 956861146 217104107 824847280 279993762 180134035 776608339 562706156 84582990 885935270 566935470 62012150 887468656 998884336 874640521 229244767 588713635 780142390 124985546 232804234 548279701 816367571 974081986 161964393 382184495 44551135 240917762 842317507 575069020 463818409 222239189 807325583 504078788 16035070 275230341 110083754 657809546 131509365 633816414 441017580 776256381 208400272 487539285 503440264 210061587 413030589 570898463 373296541 75428474 77590995 115919056 231918642 260313675 785553648 110942873 989373782 635349700 453085136 223885935 936605605 6309429 280377102 586158511 101971134 169679813 742404441 468758450 735108983 723292081 848985319 634103267 983260481 990591258 458052139 164103065 499502974 773950478 678407615 654536649 628990151 896342415 192008416 453624068 707064203 420832666 338054708 410014379 440139622 318754673 472032773 386518489 731990658 354467877 252927789 572191273 109123140 767950487 338753636 54556361 416189612 714373984 417899956 309817565 157396626 418447593 515624792 550935153 954415824 180694673 239595192 419842908 753284755 487209052 552029029 996694610 698599800 285494939 244115881 847452800 675113677 99380341 270459867 942127163 114575740 632439049 44555358 168228986 364559080 33974949 417937545 866199188 441958701 961252776 439758750 638176397 531154123 252731644 231709395 395685697 354884360 576729150 717498221 498832230 263454861 387295617 982555997 76176768 372959925 101317677 592117872 87657214 412000951 692154499 249556259 308738222 369533054 964396060 647998519 419331435 885379501 690112177 977679779 239521719 249875541 437992375 372750611 695261380 323088791 175758450 306828430 559441224 469339664 150430549 330733477 844292525 480283943 801725031 853926324 320368840 393149382 25594586 185841764 372039125 52005159 661871523 995718421 832890868 942322388 380322846 154566827 986538010 101272542 532846529 402637410 740937381 917367116 283230697 841215584 756886224 483946313 996017254 219785249 518687943 920739029 647203456 982563581 518865083 757343559 415490111 839374919 564547169 523539448 216979117 771877303 92969450 480263244 191868894 70386581 550182873 158290153 203222573 644687418 545660611 771276215 451179211 241854614 450754755 964247388 378688002 868945014 691977900 864421239 415578774 200641569 683023399 427011205 94423999 909964894 410316011 882971567 481249445 750783200 586192954 567746567 986571853 875638336 408688792 910148123 285423635 784442186 376354763 449246303 755930320 417632194 66695335 822105551 518374263 273484521 965124211 822301599 739777153 522803010 662762566 949872181 30352098 109214722 295103953 465179488 237609263 158292554 666940367 409350780 875861395 651745358 792125005 990248360 427661467 63443935 267220786 255743091 471755500 105614026 523333778 334172342 40449664 41443993 25271566 540505219 132259751 698966183 363129703 869617923 439882649 650515946 80331595 352923064 924939726 212329233 163857754 104409389 208250773 297202026 672898350 225053817 151594234 856160843 38945606 630925407 76272907 223351307 578610533 586373702 118561155 886291767 28076086 436361090 735160001 870173237 413381110 316732219 702267809 150426494 569326078 722693038 804324651 381735172 821241436 267835662 935109149 283584631 340338493 397676265 297293542 523282191 236193886 152778178 150140474 284791842 555877877 162049979 151185508 623600788 664875642 37542711 843367568 730245744 747752029 168975971 147890965 262858028 674996697 736887417 740085961 961389179 663124734 426294361 984791336 921804222 122764796 259365172 937013490 961331669 994271531 45344305 664583852 993652164 843477930 93356911 970057096 196057801 736366205 879682806 425620223 202412738 479045489 717809413 898864996 472715918 61250667 289316521 103198677 103237992 269598576 789690472 155997038 906971407 169593855 419951550 177158455 768033250 968871436 278591852 769779587 463662763 318279521 728441562 98085755 403964249 486907427 598852852 36291355 721437696 374770790 193239359 807838109 453016053 367178113 208481229 947824634 695014683 964203204 282127735 128183023 269918796 637335780 48660258 907921965 883661710 494858159 521164759 394739355 992064202 896853993 111286036 264992528 701511460 296442298 676339529 318034492 993881627 675491381 650919341 620084446 437410655 634919689 787525714 251996382 298095358 687762874 748667731 169032704 716009138 168606462 330973743 797256408 422202596 345087202 274034243 365589047 423238650 284132750 908936521 253795222 19716621 292952582 371711361 227846556 306445027 355021838 988970729 729541442 445275257 901310642 232979198 974066137 924154665 701979653 866115392 750226258 300338063 4067642 766940250 919088860 83068957 222189432 29075644 474929689 224236560 987559224 80650551 591615714 710999742 384744205 702000854 258376905 21659839 7586873 295178919 728506370 429160401 697684768 993380273 808490792 67326772 569001212 590389859 876636057 915375752 411563184 645425124 510881674 301738608 594200474 563475502 429222118 37911335 820400058 681864178 867352871 560705169 549409996 142114855 571172867 141059774 954372658 55815514 477004283 253192254 349306958 891561975 634732680 933539496 303547329 147980400 780012244 416925954 70613309 821061715 60262934 882717043 910847073 847117442 354375743 737700843 701342971 654146631 354937656 473988280 5516512 499491488 897084816 817649741 475835678 302195861 339800552 404407159 809075182 271333789 788081359 909126580 831451168 601134461 696576085 767033179 201041778 370706330 609440489 182482882 706128958 352500725 423440409 725323981 269077572 551102295 378806856 862671539 808122983 995186501 740251124 379607843 728144589 696322992 78024770 996232588 671148558 97364715 55744776 32594841 842787564 663815840 101033329 277697389 91425374 795101673 394652695 689809439 299737550 677430241 477075996 553235827 509989333 670519585 228786176 454975813 856464239 586745395 440454270 49663800 40601340 746024301 335050656 504615080 475079150 372044065 156066134 66947279 112970395 49609438 893882255 541161924 484811324 372796953 170257383 635467671 988581118 275122508 781960768 395818926 356888571 177506158 375295585 899494086 688754771 263026293 784014654 653907889 930795902 603297757 586845786 644040369 193741264 281599165 934025632 12635979 450527772 402319369 232252159 815156675 902011036 878583272 681404752 686917656 795942919 917129366 914460043 372187365 833617689 529753216 433524657 41198095 951079598 258759074 211215045 612046890 4775951 648809307 989446842 420863621 145003489 919866111 511736009 679583946 308611962 992931448 972076986 726569834 739351747 720017083 924182200 536533286 315112747 935049541 387796807 352318080 318754480 620376871 894035902 45997420 849056488 992383801 819543621 117105607 114186400 627149778 571491121 843137085 627365509 776078152 300308012 945262811 714514224 659932984 287479139 144498692 750980687 164545757 995435099 572485104 208527817 733926218 38940749 10956993 644388414 182510357 452755783 466905885 955450756 694057811 709990543 85286811 408568585 527060491 491051586 806903262 968462846 76919137 725158594 581607168 986561449 451263397 728909123 242328317 555641214 563646252 986540711 790535230 909284236 296851807 613473496 199419142 199559429 574193868 535796823 188636110 312792453 225355676 369546364 688050033 561739462 212254449 458088371 61846693 49240097 973795632 337121750 350425597 302383256 401874358 551999365 516397299 773583971 22015066 908216790 285193713 348444297 591116076 163644000 873085751 112242880 486509432 159463803 832003153 223818749 345175258 305422962 310413381 928778656 557664331 66272323 907770065 107539547 637942210 451983061 272585599 276691673 504604651 207232638 902596176 475124209 603583514 418737138 632042882 255390797 508611146 306226111 435661037 187978721 89059044 385107973 11380354 333095693 698022146 223062333 678917722 218147274 211161150 901099484 347999632 342233730 551479883 543711938 396957288 409333830 509432320 932901287 952467131 517479319 31861570 106843946 74323950 652573983 703786873 427794565 69349624 529552768 135535308 725999772 690367555 310093063 643225121 54835790 738866285 187851149 889225644 366852034 131214 741512598 116243873 643156593 22963082 511438727 596951509 106421381 215503983 978150531 635134919 658210657 553892373 321229308 552484512 11792707 628493730 351565701 40203525 632720983 186369039 552662010 882501161 971121686 346861484 660650019 553396856 760762330 693063932 864565118 740539008 501547413 385918747 916568359 212060784 229779626 562164061 417756768 397377114 123836118 830092379 761850256 701566725 406272436 424787475 366414452 77802292 92984816 280042411 503690206 22525876 626687873 619464918 275021139 489518706 42891273 146534779 775409809 798823661 971664836 800703013 867769577 649842601 693339168 609558299 442821915 569064998 557375704 669601846 113533811 711748600 501463380 367115594 7305502 772975386 691903186 688023839 801589234 322811057 200868317 436386805 25756837 552232329 113681597 303336460 510023740 214655053 400028786 677404028 762252828 105564735 502496136 591518663 322398827 28611155 702676439 316723385 867104172 670801515 167902663 777721918 45945661 778075671 148944323 620608720 808503213 34505536 689565751 500024493 215563756 435885277 975605025 679667095 49699878 937319184 300669112 896708376 706221676 967939045 133802362 713987744 867861530 112426332 332444709 11528186 648384557 562721828 792483376 341183282 262994171 839553599 663380012 508315016 634422444 649018008 913337524 501162035 466828943 139153515 183149841 189261902 201180666 489350569 511574071 893439011 934771554 177585712 235888986 353593984 333884980 72310571 406701883 973206606 948685933 280452495 185789915 343903831 850601554 970448096 348463218 715978255 385900503 839267693 721577134 972178831 891323979 362988100 221170449 272750112 929709774 563283869 674045602 82338668 345682919 347165043 157027935 412388040 192263764 398472938 32845541 126430253 864178137 103367085 430873545 504485039 716418354 978840783 473237943 952962387 852397431 653490972 720818232 826523863 42156459 451082662 330514914 558849545 795129932 780504185 159379596 398422184 999208714 503948221 658684960 985844757 135264725 704025509 523379799 953633030 538024545 353491284 21363739 473794599 199099611 9388943 869547253 824372647 189662610 524951150 646501766 204815172 52727861 564451043 744206657 335068470 786828309 836387764 491005074 887657198 446202647 715978183 762348302 260633132 288043325 732372536 880433183 842648161 288761014 612496677 461264013 729542227 52448042 45341159 72015804 339556578 355483214 467529768 717797940 318463153 273761025 713227068 825373044 296888092 651215997 489458809 470284098 209481279 256406947 852503876 515272631 109659722 125155213 742783949 479930178 254704606 259212661 824925879 678167915 91183175 455260013 200042218 482913972 977979913 168363575 341150559 516081851 427979817 945948857 36779594 868605799 95593682 188368007 756806502 824318118 124073749 408031516 787555871 850475208 505198776 19582565 411380047 644915441 260973653 12545533 538592175 559064306 337648425 451656254 54632660 599800024 366352726 45545751 633135976 278965799 507122210 223941169 375515113 173612806 361446645 673863757 99330965 908705020 388151603 375576926 300909352 671835367 817600585 456096634 239535912 337869346 466196952 359775937 669544457 308717271 771063812 245829626 188036028 595989403 79119989 822871547 940738988 620959712 179687254 76327746 569269991 544884243 653334135 463449102 736084882 792710355 575339743 944977650 559083339 105211859 135945402 317381123 804578021 535588879 862252364 398795771 502694159 436071926 594371434 883056258 941874373 163408615 745491420 800415408 486650777 304275717 678506260 726235174 196651774 131128309 849194532 81426835 965233745 640812780 290664510 896435419 190988621 768350912 110728708 736915619 514861624 488133861 98633163 565538125 783566432 634811707 340790316 896790808 470745654 231069291 70012865 273596449 514163718 452433308 207677798 192947268 81180278 823741158 286282806 628875345 307890930 439377464 760744800 448309369 936287927 280918784 678501506 857417738 895075992 960478310 93298749 560406020 899624688 379237578 156032449 487566147 18923637 568857691 674518166 322663737 447708363 681848839 431184688 562392055 363234901 668650292 921219763 382327512 972705341 187935684 559503913 634366417 699430464 408333113 552618468 975035461 380329949 507812207 261176733 101909128 360539625 232715061 568558494 143493578 53246295 918212910 422854063 313501103 192910017 984523741 561027677 220055844 768336089 739812132 445761479 116693459 584257876 963539479 429654340 992331956 966094798 529080342 834445797 350588191 190040538 906775169 201491289 854927570 913440578 731306952 956691325 14405256 514235475 447875653 37812332 145853699 566053063 998145458 327337722 682504198 746500975 472929913 278596203 408339943 463796839 836376376 571265849 831668037 427804446 317367820 900326532 336909861 516901900 193523083 569884678 159820268 782078477 299206261 402395899 497287864 518741713 203959884 925567541 579885372 977142386 36842506 2804927 712337800 294036967 322818652 758077553 422084653 788733001 824412505 354559672 226840287 572821084 774493437 502040703 48214259 156442328 498364292 706250121 374858384 906718543 76412793 408585624 722257507 909573974 725908480 276638747 196648918 489766009 616639673 119071592 176092637 233807625 49532447 410008313 686442816 362160583 450248075 844092548 980976699 32930870 440170411 345617083 608920659 541924674 707920661 677500065 65585306 39330137 479242968 138448953 755794120 657912468 324229661 433859477 6550807 357401316 272281556 606422710 20744173 42030581 31743021 615786826 745670184 42452449 237965944 393372859 304828816 556431154 14086623 665138992 577308370 528913743 395811992 899150751 347509124 717332274 470807512 370070611 256574288 811786054 183973002 486770983 480834507 172561677 699652149 39758059 636206446 926671243 433190181 45585798 758465264 543256582 45542469 254219167 635003305 360400744 272203472 414311292 472142301 301660585 80647980 594663620 473960578 544309196 537289095 599179663 233827201 560744031 835434023 526946291 248585439 753830205 33474619 599704639 152333651 299600896 504338705 72040896 860405457 349083480 643810267 35032767 900861772 38932639 866664437 207564278 353528451 80692815 182494800 10033235 614791362 613473487 681704180 210362100 88666467 952384005 530304225 350657681 855011452 519786565 229380927 67224293 136763121 996964974 529416824 908257342 967877340 340280994 174670141 788545903 657534954 958964175 304646485 671198988 692478806 485190737 333973826 159512427 799619063 627431575 632135892 334359403 92515761 483875690 792493842 824637052 23356898 168662256 576937485 269923650 716497338 83970735 749798123 129708200 95683599 635937732 57701343 350994637 499998702 617208282 107164707 693872807 621375752 664093019 652236121 389957995 960928002 689174410 523561825 665878722 806026478 837701517 704855043 595145696 775932860 131935237 695339841 304281805 177336613 904964714 205975115 804664928 409143653 599920081 734125082 125163811 184951269 688685581 563803500 481667675 813332088 723271804 24997055 683795319 991095622 268840238 14664805 183843275 149990301 545860559 957353240 180412796 321051439 44069776 240793790 831638478 621527411 677894419 177134015 514344255 22793929 672739001 537372077 28747472 402827586 183653544 83484782 181398782 354886282 611193209 792569659 807282889 35337468 206014308 435477335 657453143 712589890 226287845 681253419 629411521 991299136 7421747 729088504 988969533 783673203 589933905 335846413 294041464 221268187 359817042 811485425 126349652 338118980 292769886 321474657 961798957 540493428 806602662 786627192 309244534 509309835 293978349 645518530 959922677 152269288 200755951 49286381 104265393 334375037 472396700 423835686 880667847 925469279 388137562 920646716 645550095 347074117 354308212 477082854 636271328 77752488 585544387 331444352 347138693 966569959 970427734 772213276 89020042 604028709 66235286 307156372 827066473 508121110 293237081 800198301 186603923 755636199 179042539 473355921 104865237 426838791 292864226 171539384 303059378 280621249 301404950 571409738 554969025 175531376 610544051 892200291 924965786 391808769 387905199 924012809 721883804 86361490 261635966 654605445 688912923 379519190 685339364 154316075 55102975 332052139 313631516 358654065 921258304 266077901 499777594 675478525 530663997 921397168 882896405 57648091 873972373 312954461 10414948 52098481 609719620 352919590 458937161 917139902 374219585 9152220 212580694 209495728 305279995 551711312 526065948 853814115 258949298 862136119 871302052 811944669 218038933 933271920 630638703 190061676 287541384 793269426 653917083 20210449 316531138 832075890 448364270 884202978 880791842 390646551 133903684 312760727 248994072 380388036 151067555 352838990 348123856 115642446 49735224 171151629 805602586 839479642 874729979 606530451 773407296 52519900 382623868 231103701 981597512 691107187 543213977 375522882 693207563 1118284 198196727 918458628 963807240 545428532 481484417 182521266 518806388 807710185 750253020 343037538 306355755 565047996 263210240 308357301 143401910 722980182 96608729 536720133 580269279 5658813 77157976 195174901 815742577 768069655 295039182 255037614 497695239 574079914 336569408 723253855 956020660 595914780 372232976 21517502 882502722 323197148 317553356 204584796 559958552 933835781 85049700 37476001 540178076 989788783 148148868 875851978 91985853 113318732 808791498 236481655 700919704 130673900 16628890 796629535 966814432 130962064 6605159 323836833 278118955 247233748 653472057 441034730 326881676 994170177 227088175 239201845 963378602 929811880 247998380 373214534 80677235 193835044 147599175 271001734 192445091 463683623 576658111 479611999 285044945 336309153 445759650 526044196 45484483 840548390 68742679 735113605 98052403 696858004 185244953 61627189 280719646 455422875 183531499 15610987 606257191 523311807 47608452 74482388 385998415 422871596 23500041 622660267 190322545 487161173 508215574 633398231 521987958 654703316 475641431 899321827 516786875 375777071 14982410 597890462 368659266 126463701 160617798 629110913 927872837 281912566 67152387 539232889 113739329 714557997 972735710 486203524 293911570 404380709 930825909 422278635 735813993 387257777 681100635 332795813 349474665 191753013 752269715 488411966 276047179 687448302 563990567 199418599 793657511 263762864 526870252 727241006 710327716 106780020 591799662 585443257 277507712 970048060 126677760 829808936 561858028 546151838 432795256 737972947 923271497 873765687 760024140 829270162 646729253 706647508 301030534 925893715 127062729 789482379 190331999 633849198 47712337 900207159 374893003 190120046 559468840 567699557 945913618 421551244 462223159 793082833 60702391 206619538 916333883 355979336 27073316 371007757 531146389 633925636 10509908 517134073 360631126 931255164 905838570 718756223 481173689 345588070 65885802 470208425 204193535 85559700 617763368 973112975 902747531 872209339 230800815 328559758 704441791 388483380 910562627 633753008 967137452 553237178 295428749 765863670 464817852 90129754 375202073 914156735 212613958 703566274 964112395 909071722 796537154 937771046 215152149 635332028 436821364 836339049 237463001 325239399 551207294 824114544 311973008 187996090 92241882 428655597 830012985 61326235 810478509 102918413 87978274 71983473 694873366 243780751 480865189 932475210 827139726 587420257 455665674 884062670 71076298 788036745 395340552 257871530 198408288 573909275 812384099 260713489 489312832 549694377 325875294 585994243 690654899 341848011 166676218 719858400 37274663 732914348 592784262 839965773 269666815 722955170 431784661 823115486 266475083 255578184 80495840 187191269 338300185 365396993 649315862 34258466 939661999 66518496 737572962 7007542 845751817 408592648 691841386 993102891 339002540 664923682 397365742 409859854 30208787 707328337 397662603 984872131 345628091 188323617 226868961 600108637 121795841 385554920 412268622 923050381 722781324 926455668 403837760 754690445 13333047 893868027 753283250 835323113 814858909 55467405 101277423 199067098 702299853 851701284 733583214 19593722 717712954 397554430 997381522 772424960 596794576 500219320 794267107 953394 34439050 151540881 391909915 797771168 51995603 593500549 567099809 135248069 512390714 381497491 263217298 297627367 683057687 432824322 318790362 462081737 883183853 844204205 584667580 710529570 70157881 976065861 699885522 849545258 306756790 74583529 480360614 534645427 560137202 211050632 540739314 156211369 566300629 998818597 524381914 164428641 433095783 335626419 122621468 554806999 283115949 962939736 592624698 376588581 499217125 577295502 551490810 393844252 880788057 135166548 182251321 431397804 787003877 207284322 927310179 665982089 235320480 450824313 331846038 963251575 616255482 243002622 902052598 707265808 224834782 643589153 556499386 284580607 938863677 444193520 215522056 608940672 967967422 156221599 659326358 312565647 835149104 797585654 630072423 993923205 151071878 997193435 888808702 644292201 576293080 877669969 615488475 460526164 747865405 205364885 589292092 901104017 801617109 741898820 101726170 675330159 814215264 465811430 662096759 175269254 528626228 841242189 955730055 29276047 209224137 953958692 58000918 5002718 394358801 396321599 301760105 424573631 901509981 684872257 727464218 458381407 409262191 501152645 699202568 417424615 863291245 627627741 536785513 198917453 864473143 215320768 801655705 893987967 247034977 324651846 262586521 791833821 784469577 346962175 178573262 306215053 475743686 755273888 59170952 722898863 464978178 201273430 743039853 588796700 557982402 302313305 820137560 785267827 972045027 872282282 786266100 567322964 291848512 651468933 232810597 966809883 176687349 206431359 378570699 994369934 961924945 816584926 240246370 193195426 780435469 65606059 464892812 507009906 340785838 145570190 635458759 760548285 435549466 135012862 667132743 779280679 505876786 418285442 844874734 268251932 332882491 268075740 786223030 125698986 839987250 280469571 481104003 730281347 685766363 932522483 487383052 186372939 839063147 29863556 561787341 254341817 257587726 564180670 988437941 952302474 865095502 693203062 42997698 698267931 382365681 645301794 434574839 184703218 534618710 741450264 478164213 772778675 291736543 490924652 185909985 105797072 790514854 326427558 619353034 374310423 296983489 629459344 338124949 633379163 659523269 583027497 394756202 655381548 725073891 593815207 681149021 128128903 493696421 38824776 667021488 392339616 261914423 462726448 348192262 329771925 625393582 320153526 683052168 416380570 190260239 171201168 916519443 895963191 826906716 518958817 785219334 863589862 159123450 886212013 838636817 979019705 234976318 851012333 102597165 580702909 269912977 797032952 697762496 373918075 265432115 56536810 736057242 516475942 146162567 288838396 459139645 151243895 713225760 985132964 607562018 861961534 302836146 760026608 926890655 719281117 242905433 484482116 999057212 777722407 379002862 958337491 581899542 983327092 30653915 850680992 680724174 702440343 599057615 365216441 937662611 828442174 26150103 239953892 158713696 206785116 529530060 680931195 179219001 85378131 284356099 791363563 167412578 645840420 3602052 981812325 671310083 157113458 954160561 348533001 154825563 523374977 773088048 110847378 913581469 292466052 975163116 27119189 112014399 383976194 314469790 643332940 3512412 888685124 956818587 262382882 235309824 332313673 568495604 188550834 301289646 770227267 646640825 341099363 780146226 489523006 689012026 192244930 429684065 998183839 440593211 755274726 701820175 977646860 458072921 172974063 953588527 868409387 912824586 225963251 478548453 446534059 883256145 668694946 737344341 436397025 184196387 749490452 110981528 749379234 465095383 441309034 838694399 56668194 60576367 79944150 736876474 495000068 853251596 261711476 34968552 895565061 851188253 692916724 581090335 849562252 889715584 510892720 665274572 810562389 701637860 650817626 608859800 89519854 194751289 424132796 108602870 580756112 707797995 650587371 169017314 774118315 784920292 47905136 112659527 522924397 386982893 836471982 732666196 502699897 379662258 425382240 343026977 64076948 13166999 229770977 106192639 215885471 276401119 671098019 13885578 261916727 392304317 4642221 652128972 923796136 444358448 638776532 484534465 900076795 208612818 382732741 695173008 159909309 539560974 682194162 245509869 197194310 967212176 310861027 283861671 267065574 629544397 173488703 218592281 496823957 601597945 605935286 479741737 295051215 489923417 930723180 408887685 925493539 284517726 781218658 710685925 567667511 706516891 633474071 231377785 840889033 855459671 818711109 555207252 658161008 626162752 147377841 460432634 448411647 799560543 366098899 137898402 317089482 123515881 959315291 758807168 865917096 619118924 750594606 758240119 58139679 697629222 536819035 55795909 852058184 565752510 843355202 345469514 414262849 823416418 587326411 213950039 727866450 935677460 947325537 518868609 11831700 822769690 312007131 856409284 715742649 915545841 856353396 707152600 95783515 764638586 712401066 477288416 651962556 678980557 945329562 885368670 872651188 945633757 986136981 414041398 769968301 681436568 814626941 515314104 88351245 414921606 514920986 389813142 873068041 219040764 657819149 559622336 247692033 662316519 282826102 874465766 477553437 828795341 509625802 665230146 169594582 340220178 401860018 966029799 229298587 255892126 355696988 733937937 92809748 701535564 319758089 770770607 956396394 562793927 173848181 38870026 647010269 324541115 4285615 559395016 427446115 694756374 47316516 776060598 602598270 312340285 706905804 867443266 730784723 731908071 703925082 605468096 607807260 584752807 832677418 853686502 201172293 271766684 169040910 46581362 462366092 197685573 792635484 243519908 440843629 88300419 462815186 987402280 706274195 529500062 382545760 920185633 874411938 324726243 868693751 532314758 96023231 75015875 755909891 922732573 188398309 938916729 322676420 52854633 716301411 967416882 491858172 158436745 92510874 109902213 217763709 406712575 138147136 612998980 255048064 141867088 172875442 744429364 516864976 858453702 984381536 381298083 714815689 57005669 226687549 738156341 252740677 134573113 295557608 594159410 278448304 539888452 522772574 351500634 398526119 980579377 929742690 830948305 66440637 760862395 345156743 880253521 163869731 279616439 301158492 728489108 229824814 792598798 155483 447427506 46427836 787494265 731961231 655484930 240385711 7114805 279250601 794003791 981118465 266919587 574149116 763553189 361275191 617213303 995140573 800780648 291767729 417285692 925420357 533182611 983221231 243204455 961769101 645583479 555543829 953219588 651455533 967677954 591038734 114632137 216333715 176700422 816679968 483398790 217313762 769850866 411770460 371669486 237065382 170392224 876261580 121066418 140001699 332439606 842957450 908194326 360055906 974839978 187490847 356264899 108531837 508518768 615425718 323227462 232546643 319187891 796597712 674163246 99921804 568946159 908359264 386468492 976411728 395837968 584419784 443323313 518921524 354662915 304147585 761445094 64930491 73657648 840037718 805444042 106635905 518552442 821085695 999227366 841242164 285416128 59964444 383782217 60241113 278246681 284667925 151539789 174581369 656934279 408437725 295127677 244856824 178199805 274240967 433728311 131616161 658524908 884150897 637923698 152220274 990308612 916129125 542792818 591028509 201024989 325158917 280621895 779355899 388593689 244579859 81513371 988514689 355812004 564109939 574148670 1227932 716447592 309936565 690206795 285790136 789900158 528633674 355535539 896339602 649247455 218568087 551030187 331199422 884281812 326227317 634044386 794149817 840672468 439479173 435157085 856897898 254361208 547365845 8949711 671081098 976943830 244492720 304385637 730696886 470731003 5217428 248133319 90544398 63499019 704527631 196712405 598836497 659271782 500045589 609259770 537740124 33632645 37942998 89650273 136771447 985900272 37189512 149139525 623724241 815697216 959746696 114572606 939119510 387822937 258777973 605014113 861760140 571767227 59160580 428766257 427993476 514856679 244020247 819643927 377838821 204455230 780873934 286951787 174007824 52452928 182107192 252157393 239729354 676860894 150737653 137954324 953014030 663600645 140932652 98757055 590506472 86321293 204824643 98932896 115110271 758292270 225939632 20592368 465678029 876523842 307806057 342572337 876280921 828109908 380581423 676607397 54999199 201176343 693808836 631023778 463486478 478195487 749926582 27152118 743816616 471806581 850056374 278163047 117594424 877469471 808075870 473404602 950293597 905509862 124743814 766631977 870164474 265616228 928877998 383787157 403878026 654965627 958023286 397204651 265595846 349569990 360724863 839548821 129633809 953919786 833702609 192980820 748622574 613019271 217849941 529171164 338673273 139507141 131433333 306549467 113072058 417523756 553170645 866430469 506221681 150258623 229922310 870445924 184659146 452660981 41330706 366007817 726415587 971751441 402157903 275759803 905151619 830567482 31206000 288616704 386264179 257447005 36626050 194974951 443944769 426425314 875690056 498801227 442182176 503712677 346059503 738926531 678376929 382338203 70587884 968058401 988825198 767660767 609001579 2407807 884175327 695692533 738459420 352346548 313468816 467557707 508431992 587495330 884945998 574671069 397509847 873496590 828019217 530747737 665775834 801792627 332927008 431092569 660611929 735383651 916186703 811549862 893787989 30786583 437084589 441580725 715835567 182699830 203870656 516702476 350339705 506952071 988956287 862770327 326044558 71101815 885224246 448836272 847438636 690090988 196550220 75374542 39909873 950366596 513600884 427277338 166634630 352527300 651898740 352475008 123975323 455161992 556200804 290781292 61605673 553780259 708319815 350075566 294840951 17478447 506552565 345128879 475067249 175008588 336698163 933000780 582641151 332049006 284890525 826525366 986383202 707845916 407015450 726101554 748266091 815287032 856359537 767327132 703274390 437704499 326084696 330949310 784049009 997296724 572906393 876965990 492239360 776753216 722313025 98067426 910280913 153278507 659703774 219547902 578134533 595880111 155430568 703403836 973760468 980063444 473577636 381258988 880347414 273143780 182694408 46446578 956076126 967170165 865392325 578775108 571105959 922593048 253799935 135458054 374834431 473843877 628667128 1638743 437064037 721521877 632502532 614083709 842265988 598803180 100608881 904021821 259205742 202550969 699594112 312128107 692764771 288407623 630898352 383012927 45199633 823209426 488602122 187109941 264153120 965632933 124754459 233017880 108638998 263908192 86168657 251739914 646383430 922031909 659855905 427843196 385380479 234245479 372997752 204248029 425887098 477559530 318207844 388885808 271755922 655259972 793316129 333660404 75799939 146575989 962428939 329165152 299324570 148619408 636826688 12049946 41009197 645462210 915075217 814036748 835827845 363288506 153784923 58816645 939012009 868867194 843927657 994195812 344404478 806435425 788619886 202344428 879716158 938648795 716181351 926625164 280733407 448055356 673787067 163112395 394771539 731152614 397500609 989320926 715520942 733289078 773224886 781619290 742664808 248032096 617737484 412234297 506996886 544999059 744980056 784976996 742774534 505693801 57595597 161514346 765822275 629074654 620559376 647794646 456254399 831977376 417055837 91666328 535875148 111929281 632522322 23916999 878519112 284184623 256273352 700777533 858353266 385383707 334555234 846665327 814259242 497000954 483173021 187669802 313933065 5857198 892295532 155105097 158461412 109951087 955106135 130426246 710284244 230703955 612292395 785117974 579226493 592095768 124450486 662564521 905552485 547478802 959161393 660299517 971212818 351901234 322221755 411725987 151616813 92121521 306029748 819422000 136942184 628578411 476439699 480783867 282808172 856803676 793022818 66505687 567146464 365704254 822983052 852603110 771975390 212192312 506114660 469101739 911333099 554787428 980474148 167865440 125662523 240680869 212033512 289889784 23616950 498343350 143203883 609583717 652166078 972727169 635125986 706785713 636649283 203108671 458837282 550429657 40343828 758193803 584205383 588692168 932334743 931492477 797113672 654569335 512606563 558479986 706899789 540898417 241932089 924233780 655224943 435025664 514156311 157260803 414004666 880830562 478810420 316295541 331983064 814039869 255377000 616892048 674453173 170010741 388335170 140998178 556128811 899363664 146312269 464219452 349390306 556079253 261408679 823968958 54723356 224421516 614275473 422985596 324005808 692898903 600831239 884540187 499698521 483967100 150436009 603772140 371972462 351879043 369845401 690426114 453429727 195701066 845890484 139795032 253645773 285470587 763622662 185875426 612073815 629385291 947989732 949235842 196885882 464079068 548447259 563496896 493159986 654438042 458543785 744805248 830522995 871532579 597052883 35504427 72660784 509356681 372634714 105388085 426977348 934185726 540050177 987030108 208902232 419394291 494739583 358850202 362257254 738056322 76405302 639904715 38681574 936811469 166849626 806534118 333770173 622002749 69390324 437323160 662612452 35936470 572251140 500686652 716080281 631018607 66312663 79609930 36799125 66802048 880921389 734216272 641240841 875624945 75580956 817138928 530729837 441902925 749905841 395404859 443552220 80062992 424037851 686112086 325397145 133174977 270423493 576600957 162526111 205001421 106504284 218731853 399943548 956063464 986507860 450795010 174940022 757722095 571770618 785748320 756789706 539880482 285794343 557200312 461688331 222548164 192100922 743683449 406373892 706841965 272337026 603711627 292617013 868415962 992005423 384109504 54701265 507292972 48850810 939886799 107073620 826355850 5031801 476340402 929228248 368475722 222904084 593201802 947084823 113452386 866178210 13907882 348724849 30837028 24900510 980249202 605674826 168546947 140379230 179495747 966850095 606954836 260490197 517237872 625207848 167281886 158486959 144327562 181186652 413346248 271356089 874578700 188676574 610079671 905213335 130982676 110961745 21492182 508734137 700434716 721387800 581534275 416990827 623417451 294973791 721621307 592620350 544935010 233981820 909305509 988887735 919943912 580319721 895409910 803535248 505064807 108399012 346921097 894586413 274781040 310543569 471689128 39490637 452631179 432927438 216240403 65233857 427054158 390580438 345081521 202236718 543430788 71434250 112796785 175737556 735138200 946098682 909953729 963865884 583891813 277207249 257966189 99125305 964574692 606551300 474144723 828041327 983514753 109560401 953053695 717358796 95644173 777142853 989514003 167880312 46065729 806607392 525155791 433963230 816520566 48654309 34276403 522542623 640783967 882654004 674267976 515129813 35360564 272364946 351488934 841216961 396890187 786409554 498542681 825079612 221263398 808720322 608084308 358812045 708309920 247022389 752606250 983983580 194926589 796084069 848640292 689300998 376575136 457815297 628117906 640071532 1586214 217323971 291911137 653018950 973075222 713032456 993166957 587445992 160672144 885267250 342397523 302818105 274540702 96036950 684149451 613203730 432358098 601426554 623881979 717933136 37937013 137712541 728775363 867205029 956211025 44492804 655384070 205845443 184383928 817864945 641038837 910176789 571009536 12931427 812563948 138072780 992823474 447915575 579888031 191224161 75412937 482976278 691629387 420431986 136062341 760370695 26923925 886859659 987473572 39891265 915864874 277997094 302559857 323205433 423453232 401773853 128262384 680673206 914808389 856379952 510523376 48691811 656209847 764796458 461087135 967537821 701146708 938863466 803780973 873600649 180333488 844620433 446214705 526880912 347640109 294976269 633697849 733952937 383777987 805914955 179014647 809957187 146535649 958882445 663092923 14969506 706295283 826326725 2710096 693744031 921761618 697723416 570926505 33715702 471291038 788070429 236800680 283921646 130471948 431069501 726009992 539385629 516549762 964807915 840716254 156325110 214814885 120973182 656743896 579454419 579487550 725172393 942759887 749846359 65971944 471375549 330725777 174566719 342989380 877680980 997571576 374987766 170956029 888349065 346891062 271609969 400745123 39236320 907367239 595838049 860761923 92117978 219768989 858222108 536985451 648132575 948744828 553820450 493173281 878191806 633232964 273875658 223648136 592976025 811019845 770552462 386204371 154495465 333713303 895138583 348094734 783990699 426297114 697599287 644051256 408229177 142576141 445731739 803931667 51840445 360371457 808226707 924406060 532786584 372413029 453349963 67798116 885346998 784909127 806216778 980034407 974918821 944127062 68469306 776453590 465588733 208967299 412638510 949426085 569905100 383998429 393608060 84736398 438138467 244222278 453082843 254206638 885007039 164360762 357461832 778826129 28327715 607838559 511395829 694682351 861300912 775458144 135831426 970524600 877977656 303329968 644760043 220956489 659284353 823911203 406088888 778434024 230438864 201276390 331106059 237266790 826943395 406346061 331971987 501710119 48837647 209460404 782840048 385609026 285621835 285360224 672030371 943570388 16511356 910840142 671063320 966530478 146193229 87296170 210938534 299967656 418627180 823606994 291378679 93316650 169764668 901415563 337684275 526005123 274622078 637380071 76851720 854987969 492184145 506403730 324983659 487931594 173358699 611654865 268717001 945228149 777013131 803003927 745295338 815168078 218341005 171587829 340261138 235377113 591844961 65680602 580759546 47482347 857920416 956645656 203063653 299842377 150420630 870877544 514528120 8248181 352259973 523913239 393212514 747552740 135934952 58415963 429844858 536272409 264069808 85251374 393422909 520368640 440491101 927367650 953077274 753915010 233676623 349839690 295288628 907194515 155435969 487971992 244943058 358868180 627367522 584488938 553823305 381837784 532474907 44096838 333791391 952377481 807281884 490305053 73903446 153192000 622439697 766422326 773179922 844827002 312761217 54132292 349012485 664019593 954542455 426255769 168318968 762844792 72782886 875640532 252820270 657838306 832298581 647846552 744835200 272727100 114748162 386571768 179102844 162130226 413712794 512513436 523370878 523197156 785754539 175844764 38700612 570866524 413597121 802687999 686546312 883471023 185661213 353088412 815423424 260741639 133790372 886296612 773178999 584614152 563383311 957359490 163501165 413566853 229935546 40276844 397283608 995819609 331914343 429885056 535351505 364978610 117125830 35960060 655475898 658315032 19307949 660363358 282566799 365623208 645398105 576732048 45527080 762055805 298985960 102063255 810807769 150447395 984947383 521002405 846148289 786104267 319991245 482000569 599163269 623935366 101976302 118133056 396917460 228812124 849538622 863560799 820298360 888665334 362641591 195344251 363010296 758763929 687234800 79891051 363574659 13856430 83346283 403473663 756711853 480772706 483749419 437198804 711125670 170972510 335423448 635847504 134662801 830563322 83037841 288643497 579819960 340570214 174183949 163687009 77636745 553131122 772833386 276115304 672788526 744171583 837565194 796160666 666179940 786771904 646407118 459519727 987549539 403849139 469103622 2146977 451206507 196979420 180702591 779507391 65466028 986603877 454704987 985335935 94754662 701444426 101563424 257388438 637264813 729091151 669346745 225130850 739614536 539215189 309608060 949499396 808491821 859612412 653469731 233177711 701088126 267641630 440702696 735441372 149156632 327237707 963858014 33341962 619647711 843166368 504103411 19448651 964801330 724943853 303943008 693098764 936538552 497662403 665528230 283614965 246723628 994786697 331556026 351716509 75252298 673005587 761547141 989972777 115202732 258085152 893555677 969942674 982464975 984967809 582943702 255138463 498307139 369681027 722144441 575890705 431049946 473812262 460969490 737845442 767330721 446905696 168952279 509485819 440601820 562347672 460260095 795500229 627401694 461240474 642847174 59533551 213226796 12322641 965202352 203048963 459359007 786044372 880003128 975113194 797054203 85045947 960567714 105954942 77304907 356768032 62769878 206524924 948823488 363271748 945088251 20530463 404665017 270779563 100265603 507930391 539963142 380906222 525455918 407523739 57441915 262311372 750871829 450808341 505115968 215980443 211717602 64682175 59525359 436210102 312322669 822637521 747711118 734300055 614508855 732463803 160603025 49916299 286371280 608547093 602746508 339113508 16785927 963621499 591998230 997067436 848223413 792669347 953814229 813299637 805457201 817119138 103850151 943329264 287186473 379757056 643125801 350203749 33303350 586510976 559663903 724981970 947337119 185354474 904723671 367727831 826583693 828257008 83562099 519498404 700995849 353368395 577134077 907804490 457557044 495448559 317958331 915979425 901494158 912023052 505622380 606627710 268859342 794330477 608662289 922443841 89510172 328636781 703618681 607272772 105121945 874899307 258855672 160892238 964093083 246891310 564002256 112695583 529812614 830274169 244456028 346825868 803647934 94461395 550387698 742234480 182607569 281039300 97719294 640884866 862010081 946321690 739344176 800083638 227862694 544493890 390755163 521497095 521118811 597605410 754871438 396013146 481596999 613176815 924598109 999426272 382682508 447433310 858998514 976518918 898391677 495593058 561730782 147690368 268811247 751407247 489536919 840284399 188721267 897391361 944135063 897453957 130283753 13511826 124056998 838600496 247112167 701218988 641709402 641538066 581128121 172508722 489201764 853045890 945817898 450707603 479053253 944039790 591526361 77059431 736856960 660888124 609380853 260364331 762725895 483566703 626201649 551818263 801454692 136764440 797071656 453087037 676786348 304586620 314233411 500360476 952926324 530249625 75229842 230592486 499791580 777716137 383093220 825931831 221924632 230234303 717148201 735572850 894862367 144569513 593579100 459944284 657542670 774358673 244410743 145388919 15172021 595926180 824025135 561991329 328058564 852396961 189364390 231583187 967422713 686469212 97259916 250275749 430339607 994470292 680845533 482484210 869650582 437942670 225416393 842178116 432725100 641585705 687853190 183210679 171098670 576302195 67405181 85818018 95008169 216624048 987444847 965023167 874238730 232095728 692905927 516582015 844587814 853299054 866282747 91506172 331328239 926989472 451667335 8147900 380841287 549628784 82064995 319998761 449605243 742419351 126238531 479799043 870119577 533322190 740158812 239029384 205366507 46278375 615894055 952242156 121585509 321374173 606100156 213393810 589259147 59188112 634218202 804557544 69137451 582721121 285518098 468640924 620709468 867150816 62460580 10437902 905102821 964945522 330197389 193566519 619896249 59740285 607174272 939355536 462569198 119003356 449100934 203968657 484793511 111095895 326250728 745593629 530688458 597385680 304262095 516452772 895336226 43964601 671048681 337019554 339241405 333289964 534370019 18378760 473312725 997748083 799672805 850261191 665812359 346938474 712416649 284413853 65201146 155117974 166053213 604761557 177346184 227814001 328453086 681025787 830231806 157393758 857362143 448689868 311914568 168702357 526715240 735671500 724747113 685899661 573339672 160885354 848451319 974880187 694089942 260737667 656712990 803599085 955396875 198742990 299699497 518003367 199999612 239443359 156655133 322638274 43176177 672240420 821614598 593589892 389096120 452629493 484393821 805853921 855751928 501975317 364841506 236574048 713356638 775560929 941013075 567823437 330499307 981576902 549677090 182774885 599576258 29954659 240415018 907838665 134678269 563724911 699616629 133842169 720654533 671849410 967180303 673050053 375063593 214600606 654688633 278189293 667175329 837827245 374270475 777681574 518750888 645354367 434982468 113822997 209675247 83391579 952479972 53346050 397751089 756995237 225600176 602752401 943846407 77343816 553253425 831331177 138899357 861834825 627682700 349778058 674417058 603265943 655008184 344961536 353006443 783831306 538458328 287988379 388302849 840580012 778066554 685514228 168651423 883692043 244670368 490882204 135661585 665569698 225035440 328902372 341956086 438842239 952781531 696043430 974806800 783381033 914942266 110730065 84432361 695479960 242526286 161492421 828612275 154759321 946218505 3985753 310804021 479483424 589611703 719152604 69846226 589777891 379316800 118179171 578502718 75131175 829966568 492526632 350008648 612810833 872654962 488717461 686204578 691734211 246773522 294910875 326522939 665553657 10468969 764505473 46561783 788308249 779712744 363791510 455980647 926783062 917466247 22846942 506137756 745771510 584777197 922019089 935873901 493474599 519891268 489061086 977644337 403005382 502897212 985963253 868644950 86448418 141630566 534736266 320519541 74376436 260262125 486280938 930480701 588370100 196208625 973014061 674189262 964601930 48701790 958629326 243957599 588283423 339297647 906807146 731916756 230160937 980649713 905625420 236769971 95343126 888600694 725882941 71582002 526251847 437292284 796778794 613199817 734257913 946297890 176824244 377100376 466176414 715998748 282872788 262550972 204392012 524433468 256497669 481907095 378584699 882803271 127327427 407705004 517141337 461217466 200675429 47690439 560601072 512445112 588083687 101049628 833573143 790090525 447374431 64233537 455133041 926971969 591024712 381811223 628650611 340205386 363615113 432579322 99554546 575557578 38109254 42462606 84266012 577079917 961860577 562826337 350795991 119411676 325064681 920725226 86610714 135103920 622073732 300226347 450625 822351103 354294423 468824309 419001647 129059269 108631114 778789026 765068800 48369432 30015844 717825654 752786151 495185743 419521071 961488207 457179218 717786147 713681964 614446591 162467963 98623688 533851488 275713978 418555962 393119618 865697617 680531224 645313724 788249284 368237598 164065673 629790279 943342369 31801193 113012246 421416760 919953788 358622888 465513165 668141200 612330845 767312522 469877084 614606849 336568872 244022796 578864448 35914089 430530518 254224180 595595636 546451993 998105668 462171998 133144129 157308794 39901958 499981747 578059414 177991354 29272501 959598020 554107959 326392251 977159974 963277007 160310785 626608153 227408956 719478633 59609229 817636713 972513438 309935732 586833447 240286519 486606839 461472145 489358667 225827676 299928576 388282356 401074394 843038136 547669354 944416105 696222278 417589396 473479827 564653036 420880789 927859772 836394045 265162177 528289431 613014922 177444691 362411271 533392008 393360926 868068604 314018280 528786673 875200513 884150808 299407611 23099481 901614188 763609080 758124210 38458341 454611076 570482782 799866759 580490113 32613645 64074681 484986182 435816592 527069303 631374480 277495147 298658612 475475111 73218840 581800469 397849927 540411429 433701181 282905401 4247619 851818148 911405670 335826757 317201413 869495421 450309062 653371870 940234751 322236717 362264079 612221767 854325135 811812285 878856707 374009721 532413138 273292564 820872272 407615268 477535012 120373897 544621044 375632834 14217004 515358210 963106050 3624910 544976476 553995616 233268222 391272432 123901977 87185583 871699979 409300997 966292723 759107730 448209094 634619901 914099256 43231943 924942086 818901124 988003616 405452274 657398988 786890256 656967114 466773019 459112665 911616773 35296013 201672711 714103636 107193617 843757121 113798794 554537493 455435828 935470013 594522497 766659068 374992426 199533044 554055907 179516008 360943450 545379496 284570687 384738773 834572391 747411888 933621835 634574698 331984226 801047877 536261960 168053590 241861410 307445242 721002108 458003867 981969001 528763255 33934594 348263155 880425324 260157603 592532406 372664671 155309232 497930377 248385480 529625606 255207409 838614323 52453958 391740477 861622338 66161592 468833424 366162811 737867434 516401289 379720292 955847613 172949214 273463734 45212742 446298462 855859858 326770182 586554752 633937220 464764988 519838773 473960245 422582959 244358191 678214690 319934057 486004419 578363803 97403576 354541003 985051955 264778531 324963903 387089594 656904203 25181290 953361484 351909547 846757947 801045671 104114789 129677484 650067378 84200406 875462298 64790810 348529127 763269090 367234160 527946399 180475260 226818007 28609941 411763577 334875982 499387812 785662564 301715335 239346473 294589397 131033178 391594263 237990260 391806794 992549444 915404465 522419924 361629229 813401440 896762046 26186919 799113625 759680753 308820422 863213906 818050247 615447603 499895731 309776882 712229075 24243114 941264900 763610759 490780310 553517671 360477991 621009057 966621695 53477786 221873363 472692250 688094974 826017316 272689882 442784550 195939678 242695042 28089834 702883480 129665335 549798545 196399669 688048359 442055924 56423538 514107984 102797311 282068603 627159862 25339180 550208949 378677927 974831677 161333152 432714316 506731710 779765566 685197066 266952630 925223963 517635232 265679932 209847406 388002511 955435530 479667231 558610026 615091279 710532238 128279246 668326822 658190563 261815569 876177864 917377753 747574255 273373324 583326067 888736774 850078513 560840503 40294634 152847693 192488059 248086657 688117424 910110972 113311859 709204398 131616770 40470717 888408472 341814691 333328206 563067019 945521174 181467543 609137551 648021190 846239756 798793627 799551444 218007349 851344348 998726160 530337279 13300010 826132533 317476706 770713729 164024924 828295145 393120472 763650862 665739241 592474670 204018343 559995424 172069140 331422632 816719466 716493591 651063294 104769354 90140878 828773222 371409404 617890295 615274663 229792021 970656239 138411488 633292659 37849470 805138249 149780130 119297832 125664138 372242186 491800867 982029375 725792553 184768251 178042923 134202396 230745041 988259902 759396970 297423175 514320148 68417903 562116170 30359751 813455100 583668562 989402392 51098408 537489310 133040371 111557562 473233158 442576498 775620423 782448872 873060688 898075595 982446596 408266314 287509719 674165001 590417740 880886952 283345801 7433819 1607290 435407011 719436151 823872899 575328601 957190080 535309988 730324078 812370314 537555822 268680312 283749976 891628585 460101232 857372293 519103174 265624294 269210234 989626805 7000389 747342787 119955652 971515534 872855032 586492358 859301066 915986852 826255659 620186554 490839083 992701 960655241 410187720 425476045 820087935 349727885 481146656 897047190 197365734 627025797 645860514 781943851 299018112 501053293 255718152 849171565 399969629 25583597 544122327 149319711 817272441 645941801 360187751 777017647 533852584 478383572 901354351 232530366 427892840 508576587 694699270 640603253 944942687 701059430 341579873 34294099 710194608 139834973 50816956 806084538 434791675 418734175 137710186 67364756 915468697 2861770 962201903 704959581 525731982 324850454 295114416 363969803 496453321 835306788 277500334 588681087 705756589 715626678 648044408 395118068 160581028 398171186 88538965 471489585 880194484 963832768 972782220 270743769 640050548 173339368 495751931 158826283 425121683 274722073 749198128 89340856 995505206 866523174 598757606 823617457 703033203 629253722 26381981 998787970 667197225 308341737 562427580 125604057 727281152 782190626 27487653 334407590 101777925 620169600 657657339 551293535 251883587 206320622 33502425 143434907 802865711 648752268 956028694 390580594 922699858 469610448 692202357 146893985 118412526 252080235 201835933 282049660 124762435 337085585 105541787 897411660 817689133 956196141 462743404 688957989 537045967 743800273 684205861 258289252 38910433 103361614 893900081 341970319 227530803 956140446 427570000 971299714 464675652 325759203 972411712 617835782 87175781 135108142 485196540 861093570 588105788 451207118 393007494 505745728 966257183 231711095 207339257 205188295 751248177 141623500 672232530 496431343 893648921 827712446 361469711 596689354 518951760 825550565 374958316 471344401 92361254 903882533 559895007 340443717 334676417 389370132 340168083 136196006 604605988 940205903 21740579 516038751 332875549 177248591 253713998 785086674 121879071 149751256 291726823 940233246 39391880 219327283 444693910 580067519 828016977 649300058 873495169 804579993 986074345 186067316 440710739 693382512 54394781 390500898 238609647 821894162 216273347 886944860 304789755 836395907 904954558 764321963 472139981 483407820 654846747 784026293 78819187 598728104 505646168 320104876 49957284 127250446 393770682 133012977 689538909 88331430 899748112 442437060 291546168 834129919 106789811 52551067 251987898 631081235 836118717 40464890 260844042 632494880 532204126 120959509 348338716 75852093 482487670 232337791 492963534 440685795 351190526 398765530 716018004 697116695 890706654 892612319 43900496 56505012 497279779 616177440 894618060 724426259 320708408 943935191 987056812 475677425 938929886 996074262 517424519 277523648 641533395 305182589 169489311 612439208 336580476 455111139 253144496 713365990 756122792 122407007 846637219 422171118 682274286 272970889 577381643 786785106 835232344 931456192 254592651 832095378 288359058 316565367 366422251 765444652 548602699 814996474 96559886 302677383 226299887 787361404 249915138 812916375 530502742 702178160 798934128 829606082 76354504 470166241 212174014 262833787 952395811 628488300 7547113 91785716 345190248 655441934 315427523 18974936 82455243 11725809 565950620 371382911 135091492 305235552 846081573 102932291 981016448 133023144 743150439 557782043 152665795 501520579 450409047 752860629 793109132 718203419 987638725 959234206 525895059 225441702 80398150 129841566 90457652 528046694 74791419 965480481 719424083 68774416 147954854 102606727 891474895 234859086 956332858 490593881 376573223 285420176 263928222 573330950 49426945 898564618 769980408 85123746 10519877 988883802 692875210 430688308 900757646 537660375 297357277 529654485 377136421 740133766 599740672 249236354 963357812 671205686 980625695 386601375 976418986 150551143 435160896 664204288 353600205 486679083 197325180 793920225 629642688 121917077 236910451 86010560 400147409 34329838 942505882 712070984 646690850 632564614 276439959 98010471 118074453 101758320 750851532 643980838 612044011 755649354 872936068 864686966 276843249 441184834 402319735 420873274 529860223 961282618 674797011 122056596 561796398 476565483 625476032 504419078 237426827 630986994 45590205 473131472 440911840 660362352 237023696 901579423 8788951 402183913 292276235 683540590 995037978 872583318 235295481 818302290 123742373 123099462 488371182 42263157 17430864 751606569 423035308 175569424 272366724 321676248 92609238 793485730 899483108 823399613 270073566 972189051 610863452 323811248 38954442 128298091 139322028 952251064 632711786 341804612 846844189 537411407 961256517 844400597 463139136 487261121 544231208 992473691 987258119 190492344 508679143 127657271 213158494 866757511 462303041 355906943 8602053 687238980 42446668 710801240 948598037 391688533 471166075 168091790 566582246 226687716 963868889 801078891 862696234 723635144 838390614 496622310 605142568 955823180 794011221 700261045 743579786 925161889 960930981 829211128 211542210 148597623 626261158 273080009 858678280 96364408 805031967 62755248 359331586 175495812 882344401 576244874 996871668 236755219 479990624 337767861 645248086 33735939 457073122 904273788 474763322 273897826 754879622 474726020 719307025 904446199 210293897 763527075 22681834 123974609 663390764 266861099 281008841 945099284 73614589 357470907 891386710 626885785 453312667 245676787 821383942 871787707 314446684 194827276 443745916 840628248 934130606 732259598 582460365 128325128 620124418 518147760 5520930 367306365 986573881 431798576 449182470 949826319 455792407 699029787 372829156 679068232 477323854 27090951 301631115 435150622 732860617 869099256 34550421 627908696 678731597 669772437 459990743 77870592 703361041 217774692 166053691 998608508 998996515 540406558 429963570 894442614 722361832 568024720 145968184 145196148 511730181 387712167 234827584 505613520 586209645 55378760 150588918 667082985 737913473 868909051 897141747 872526328 962742135 776133818 890010910 176204890 315691502 576314632 466615563 76620756 114590200 893385854 315408165 459056442 639846770 942618743 643286271 128176398 308334801 470457584 853461476 177420824 555817634 30969784 634555190 916513454 471866432 520442595 52292883 178376379 972310785 867004945 547941181 37719477 312756324 306823292 470517737 263705972 845640065 46527361 287906062 627228449 427934837 373532297 278141560 970582873 306705427 362121280 358136595 366063278 730555920 404255469 617957063 60866562 569239337 764666663 442940728 636792296 155110150 210808683 148623768 204578115 514720145 231874641 137923983 841892887 737307309 172585190 488787700 171386294 542922242 743002697 453768769 967302343 284530438 204145157 437834574 670967725 142414758 436273444 83606131 71861816 616445009 753957556 619955587 857667509 756834265 510768596 548109898 404945280 612388957 726282404 66254740 614507898 267848354 228776100 152216013 221968131 982281600 472101539 509431144 555912512 585446904 680487414 162857287 345710672 619502926 232202821 656295345 812489728 262250174 44256098 626508235 826502577 780121266 865773514 345765431 170097520 269268734 253098227 862335852 310313431 335528041 383652175 203915126 118215824 18844096 200471232 987712635 251784575 109651362 11710123 742915909 543893171 406699901 201329103 187841057 964205886 866159192 538859978 397069317 323013186 20038173 463465795 14550870 425017048 577577246 53476208 929332517 713768450 937143650 44063469 419272794 671382812 241062375 34309538 813681199 440387155 843060265 535268251 13450502 294299711 453197039 461034325 585466584 687113944 25161104 753102633 586006381 442102877 820853174 950683624 408285992 777123571 126284162 47074252 25871247 217955401 900716825 269828856 164996397 736917553 219856435 929546875 142238141 774741534 876946316 362999083 988744137 559319113 515945978 730348237 951818692 536877590 311888833 933042136 157793334 56177584 595545146 927304409 353637630 504625832 942545161 594370261 925964200 814042777 576407704 930478175 27766793 24031372 859296333 197190934 649989875 845919997 986966469 939922139 790872360 421094088 175494837 656780364 583495184 358379592 405731447 235899501 435446673 824895307 294977354 523783078 437877660 185566017 242229054 28393483 32129818 83625360 904318484 846801841 531338875 448754665 178238381 566716684 537778910 220083721 674060350 111448705 401063747 36908010 437206707 430703558 872633027 193271854 432095050 354728192 938581167 706655726 74162169 783567961 485948894 617759833 885273165 476243413 362567215 98108129 580877762 500495277 569015032 924432740 644355740 398948382 476619818 893240377 310766869 193571903 525042220 613259210 575000433 755209327 161337799 612954795 689077037 438791461 253129242 59917445 11579175 98226309 747892967 645844534 344428226 618359648 311000958 962512815 198752857 461441317 78384722 254922580 755884075 444604194 707215200 190422919 246939173 829857821 418514103 78262157 418882946 691541259 20626681 20972175 621342314 876209746 40840199 196539320 235305393 319745412 680306436 344196420 829566257 74208059 680010622 212199291 782839610 813667503 806021234 69135658 721733344 158412338 395934355 931378810 512599838 924024919 212451777 989944928 927569739 33740724 265749278 178590925 690483543 859727438 914254006 626781201 598397730 154198472 573957541 222488595 315169104 633410599 667069413 547211700 636277701 729921602 727670822 933615953 762304342 866288770 446229039 621288055 691061747 395686081 532162869 372902560 275689899 95098984 929044018 918193319 286796212 556644508 33680433 811428265 277143035 556575633 949644676 667835368 122013394 848303992 654703163 133935114 361101166 337969300 659807537 650676500 390351396 16298602 409143966 624371086 514134763 315873679 548719634 720477800 616992807 950510098 836468461 518306031 935556409 391973134 670995917 993023928 181119123 600368209 115530166 86367054 269811935 587973808 679918395 974605517 382516877 883202598 852573801 943919296 390546448 706323581 694136185 501960874 396430646 498351820 491578212 842265044 567875915 636412191 861459010 700699423 529229027 92425745 141011466 249418002 990966138 111003079 619252416 743537876 504353290 198509140 503660563 953164719 878283683 520570337 696652167 368748280 546183026 45719395 734969954 456375695 400974564 449225938 655283673 667321289 350801642 448273027 105688254 745453623 188903658 966673012 775145254 425092990 190657558 239096596 410685101 994030960 777064835 554334265 272538214 283807015 928781317 189018015 873533677 356678465 449401575 863083606 40645064 992393655 39307551 923623203 958973272 278638389 942711899 428370391 898522959 89684537 967120209 52574048 393283231 215671360 187435991 471222563 280545007 400419138 935264162 878934427 149297623 554865913 680068708 584979088 675823460 719849843 714358951 675937338 784289599 386032217 263063138 594801864 486855409 504115859 228553754 793776756 301745253 246590861 683263656 462905477 208714895 838818700 389257123 302793906 218994004 931862869 773830981 69095580 464322398 14519188 264414736 722280307 683938442 92767605 560571722 841744650 259994930 984420225 946183547 515992188 834878144 985113419 287630069 408882869 145137756 236313349 813714619 198726493 518223186 601324982 993104368 139534137 452809320 941607824 308283910 293476664 575000806 886395561 382546877 433225937 118819428 933371938 19892709 476934695 305837330 723931760 963525953 900783336 91195322 357403713 610890592 272668344 534410159 230087609 143029213 368970307 918912714 894449395 115982976 51552862 559332187 275686315 406193997 578099443 560360430 746992049 604550511 176197293 989036118 544134032 254673428 72128336 469017354 899363046 703700337 293972413 456950460 117384325 206268846 916143554 135478294 939547531 67236736 516873618 165160956 589267200 661146625 303285836 991643341 10115338 334830267 391966942 952880994 134569678 817494493 70942967 139047485 495716660 916644927 204761117 393561859 140550025 616973716 677373113 314479637 395474739 351603300 749998381 896947614 269117941 222018892 797054917 312523706 988265432 689112727 973823496 483466683 643392678 59062751 226033978 1975509 113245875 943795424 616775240 373623407 107902184 129292202 268654339 871895223 261794427 889002403 8035342 508451500 904489311 567275746 381710990 382156409 356219600 836402642 782802795 613310238 374480050 588137891 643629527 87117700 221246896 154126454 542677350 714690550 512791241 827066629 599914415 758602803 206178319 575056764 159631371 828473677 461088358 126618061 593479507 74400457 385309611 186745169 556431229 748272936 395397008 425013867 69910478 948157345 673636161 739460931 797351074 991703140 372093277 537849269 243289748 49148082 55018481 78923388 987364043 286145755 848530877 637490673 103265032 673716677 319581929 913004378 608512098 937246297 935457579 445901013 827886637 63578036 367964537 360022975 288644041 20133300 373077411 492905081 501203619 253793526 519176935 60047748 712238180 20857450 736233856 985652727 622400931 540245161 66295705 822918974 444278558 591178367 819294184 125435917 711056905 921512074 295949207 29605007 524967601 453198707 514246486 8615259 520528701 729475608 421041345 675060813 5762795 63002333 29900477 552342790 7083154 636761792 898203311 442908821 627575562 242308694 322535278 584583053 618356465 946519176 665223763 191078283 164500440 576559476 288051486 438115720 226278593 674837050 417158544 401914457 439663676 888642322 600779645 171838186 873207332 184033011 131161764 937310978 943855408 741413513 393079293 323070274 526625294 751544132 775279483 546249440 234582285 379826065 345527355 315147420 464804206 961730141 795436718 538159257 165006946 718584352 726490626 627709639 882342808 207040620 258155580 571590718 143175414 705014296 110146710 126040008 32931732 7085772 571591581 195229574 77668831 650131023 871679080 33737662 833224888 554282803 447188093 357745285 655043479 431425626 429229612 601562143 49564300 665104608 384933068 911726669 988588783 885558827 238984392 78018643 809896270 543872631 748325691 487076099 681318742 79535777 198264465 894978644 319309109 995528194 769208687 118215679 237342094 735930943 475574647 166111826 251238027 433584538 640511142 395900808 21583055 288174810 339737571 896792622 669611775 963591257 569481351 865889580 525219204 191010050 54043935 657390733 880967998 555186222 577652851 860333473 839398062 967678545 4990483 987171514 724673588 166587061 19793021 414248373 746557823 573098689 315837999 315592847 670503324 882065797 951301348 935348438 209364050 212872243 30266972 91976513 298213433 283275367 249243462 989624006 123426912 111944300 435430554 548487078 984113915 402786004 484759946 247058288 834282231 365594239 492825815 415819554 707647116 857017303 634171701 469692830 71040225 107420389 668938705 963934322 304160384 280230968 577930144 256964070 407607484 199776378 743330707 220075428 632198666 626377221 544379911 162865599 654130454 851337986 126261041 426867430 281468059 589501650 680360172 683474576 564158280 963434820 202891336 70816856 706932119 47049721 650795364 880865654 392400138 455718549 322821407 192096353 985554758 356544228 806582232 690021720 398245565 284168107 571621429 230760759 41582971 843464633 458556967 238430514 670667381 305463438 585493257 564114446 506261129 325751655 624669839 385466257 406171394 477544522 616801083 155221835 800088125 469815603 691204456 137990232 260976429 596488271 302446484 424444670 55241703 717799821 517896672 514686419 85728789 507774879 901578756 449870299 91979350 799484845 350124260 780589003 617288780 680603616 368558505 281555768 530041984 538289310 810936149 605719956 372242303 35812795 954940508 314967718 226090836 10442511 929993108 466958601 806228916 426982188 512730744 427950215 696488852 602690155 532254173 879096125 407190107 335846929 94098017 833203706 574317732 512719616 854984646 624294705 287974727 71957344 842334826 119305843 68052809 25422640 216282871 857593129 527207425 865058189 627843024 884816006 737099839 905062180 508408836 770010249 436104275 750241548 160575110 915900735 831553027 540872380 804243885 743998647 99430729 22541770 423809979 246921924 745025640 642576816 759926934 522217550 453455998 43505665 407176295 144140623 533812102 305051832 140429804 418897297 230262569 877554502 706664923 834026316 662175529 400188693 204360826 296150277 784100564 360248512 770516406 244553994 606762418 994895828 106204719 458370736 105687038 319950019 524741369 926075505 311351405 789110153 774959162 545038487 51426181 822475657 459898344 378311079 369943578 186617256 839307311 220842604 918125962 278382811 276079188 372036014 310061897 533021516 653031861 432038273 86372533 233149855 152113049 571326244 318638990 852915916 732950945 582853502 907035017 286542929 561341911 212384881 169000790 421754292 372142202 989081073 952827821 449794916 394679072 597098017 237955083 985344633 816666008 861618802 43639375 929221259 743381850 839421196 836261894 864366629 892629185 60949857 776163902 955313322 644989923 874791177 253877690 888971137 473348163 82732595 407740525 49393565 622908757 832784748 650893762 532734244 415713511 314656626 687715258 753117042 294569680 1633859 30829088 225541697 262811532 373113706 533957440 979512385 260021088 821270978 818694343 524503971 928180433 184719122 501784017 583239220 678468753 659082005 858140803 405647259 135242959 429157216 394297185 294497945 162969162 878057647 282833629 964051664 774781628 739980150 932668378 550668178 47205470 307384252 687318077 538567972 246819527 41501651 608326108 838952002 371546470 952838533 247656483 136716300 384719605 83818756 915809752 59722113 685482746 904782641 921460221 237595767 750765404 719995937 353909572 753917612 910062113 163372137 907223203 636475670 123640741 118086426 286922342 180537696 845755260 41532611 321822060 34578231 971778094 577496270 385207786 132473730 1727619 62859799 609117732 568515976 441001692 224945118 784043258 525978955 967672293 859600804 415270484 720742745 299639534 927309192 903458343 754498761 395699280 513025639 535542976 3639967 882773858 530011928 489007043 957803756 206317889 168895905 799875860 223148873 287415862 569011887 384131493 18152821 287024595 606292750 29340473 363443272 109896214 453046588 389195521 917895917 276780812 937015320 263916980 831812886 514059858 692645846 531298552 992366818 407696358 661770177 717423665 530364206 851530359 187420658 106043022 968617178 798816911 418630351 845525638 252189551 956738569 649136203 672566318 211055496 793932581 212662741 543302074 562679928 349719730 780276423 730771606 844114559 81555372 169510025 871402773 139624600 155010620 751570361 492824103 931956577 228061065 873256470 210575762 821073793 754869859 609012944 346071630 950913708 450739098 971580885 767866481 116225549 562024734 827482023 215790209 58052839 358293079 60494946 277574955 978726350 84206313 484317540 63883713 356588838 48991912 560604863 156815484 944934048 425992277 596737463 189523545 123920029 329125098 229233600 704144484 627253691 665008341 175035937 365417744 360053591 544807013 448375231 62151090 961952895 363262798 274701691 175383952 724661951 359794151 403013572 358006662 890139863 942892799 339144905 714552114 108128750 943653479 440350489 903632263 257165209 16228203 83092911 271014926 245267627 988863080 517619697 964968614 184578761 308217010 458017987 701860382 644602906 711700423 813963627 108300682 605245874 902253156 114847101 140258488 797686856 773022763 491859046 77246614 333837809 72570605 526289389 302610218 853088775 556671802 385287078 882031319 835049229 246406058 414765924 915142330 598310629 437704316 709597884 856873205 970151971 406198405 34157866 377432474 507240997 826965712 572379895 879761509 80667877 905037954 55510974 7852354 537974305 914316712 503678252 883761901 22408920 603102962 509344866 47995701 607526354 559470133 111334267 386089668 471237995 926097115 124046952 887784129 236143385 911499927 298969152 828939010 962020866 234246259 470426974 824173394 950747094 376840554 131360435 259168384 639971441 707443166 747943324 609601363 662560393 833882039 963596522 602317383 43453386 92698517 176783287 770557516 205597536 216078364 920128764 177096750 534496396 342444105 170604326 85248517 198636025 894745108 97827804 230029043 84722710 446570474 424360133 66552019 245090981 431160194 734818268 97229216 830473517 693142760 557541915 585211778 55503457 860545712 392408781 955256105 400723683 288010823 135832316 243047121 522144583 866511929 431686283 463614511 614085659 197412406 451711042 717039249 679794166 81297182 732116393 626018883 791256396 606445152 496836802 782475799 839797842 290920157 392548000 507560649 399715671 118196632 840632961 762952553 986218770 574184961 773962577 117049971 525381442 799223251 185932889 805810416 234262145 538200619 669591365 981523746 700809904 549872137 296272336 827522114 541586342 966565922 155841272 336493326 70252354 50781187 105910580 208365740 645208104 38207287 482785258 591886173 575794351 238958272 893500475 388728225 379829695 553352895 194064384 521614438 21793909 458773825 59299928 326414776 416763686 497896535 800341211 83933974 637143921 891720871 6235973 652634788 280272228 469594710 90855607 863357110 603885007 545601631 865807979 943884568 506821817 879218880 362445452 148695571 79543738 733706204 976900671 644736771 228290863 170198613 928400486 838925931 16001529 716738826 500254069 292774741 575104638 485039597 513227645 837050339 150702072 463542903 690782619 733809900 601385574 452779947 549248751 351671352 957367381 22898681 896431665 38301092 982575704 745682451 594610514 79107905 77552211 837865699 251677868 507454681 47696834 301983298 591868645 378614474 997532265 937756518 521048520 931078884 780469992 454889243 771537340 183303658 393521936 695116006 903963762 313161378 897462402 139181617 602887993 564439136 626535778 89816951 617623712 771462725 896939895 716313026 142409302 94840618 740154097 837237127 227596056 491252419 805117496 285719669 832735423 287367911 430237486 317876415 576239952 971704870 313588692 751549024 664705117 716538657 262821223 288188814 585336020 507715397 6348147 165171435 660117106 101715736 80953683 981002226 289882049 489988319 680394520 119052572 150530037 813293429 874692912 14299479 226625771 328486330 892393465 436495918 248491213 475195416 799303531 914399775 253740401 649013833 956581857 70017301 22589602 374815475 158166390 403837331 103115118 717048601 95682350 805851508 192283146 588902506 335189389 300913963 53263662 409077399 70367540 377829430 173861953 169966848 158647283 357685105 154541081 447404344 826396235 950921153 496028555 423849473 379831424 305711788 181445405 929983243 272635993 698260429 656864758 514945537 519974913 954073714 447253172 897797538 239617067 600665806 253690840 906980176 566122740 852763651 817633663 318386976 652478528 225849377 440825079 749569087 675153912 808389978 162828399 527235866 455376119 852568103 304991777 468702336 874521747 322967575 313138659 931930413 443929322 488945997 239947029 347780079 639752514 77967205 665681773 479404723 878424399 941595257 648878607 991877978 104089602 971492374 790661192 822825331 423969351 710332469 671538269 257222216 206471596 729640554 961260147 150171494 353791945 593037378 450072582 698503781 345226962 468107549 54198973 903614502 818141297 84136478 613381134 60325279 462056800 586956534 22796014 564665171 114015525 938776107 486662366 407341621 224622989 537288420 703027827 749218792 615814426 690910528 752811515 935801721 689408787 432855332 642859060 965900787 798764249 452494776 75426275 753703864 555039990 661463555 808285434 933767623 100672392 125069780 799292867 622015624 917856623 669968404 971771650 215509680 165426099 658996849 516220033 397930122 381652548 619082658 459815232 501009131 611365319 718589388 794541719 391145085 931690975 33602012 963973713 165093682 373597622 348418007 399138364 894591770 173153855 557013895 964809189 329854450 109056683 496364412 360994401 748758489 892404938 520560705 893234929 347640801 359829167 963985297 870977960 68846877 377012774 405537969 380676648 713033538 827709762 707510069 923422086 142002245 417607805 53474465 347873768 833106897 412420261 245306451 94090618 643298652 29801160 90977879 70749919 42662547 691872180 871344392 547308744 857119704 485936823 811182287 758483322 312360198 578080602 7546156 781787573 146127933 886191687 236455017 903124600 147303971 838161790 778504293 411504186 51161597 864200979 609609924 450139158 365088857 984250805 671540070 709337237 553436652 926182094 397094364 118173434 787452129 856966933 596133571 471254413 952400132 310146186 183622493 397966310 450582769 218614279 421167257 805813190 99029814 25002091 434429975 655214843 558663475 563805576 568757933 426364565 767451639 986515346 775909674 742616342 92260507 988526521 34388074 543585285 636836866 94098246 454265211 144560590 316557917 817274906 226936718 557076248 353891051 448277592 366144589 547821350 225591912 875752854 577720759 302647530 450088524 771538476 325285738 612191073 556185452 721711475 129662311 416406456 49308640 206352696 212546944 584573612 244728372 476995414 430793039 742134121 941906056 853531407 140426446 548235329 868586356 501920955 214391823 876894501 775527702 475106988 475665103 300235985 285868790 32935849 545811006 630146747 304109051 735046307 601154237 28781287 953079361 477729805 644111077 491380615 723648317 647780447 415050698 216845305 381017236 169192453 211923414 524906681 780804707 637791451 156964822 374171766 564340042 103537707 294797325 737181725 521873486 889544146 80190537 586248989 435438778 61937584 588145640 158532768 652403462 155909508 297561764 549032996 644898416 82056004 469052152 26541144 616346983 715449862 679239556 117524115 434328684 790983905 325426809 468228166 230102509 359358260 690723848 48222362 615519237 966907742 994262729 875247840 704309212 875812733 883798963 898451857 529459762 191962996 690572973 340436289 713951952 61392920 321538094 968975254 515786490 834548418 323562533 588001641 50202630 857463061 203814976 199008888 821911472 167921117 986586773 137661931 879678932 862301990 277740803 552898315 684551802 152769618 834786644 797447375 48088715 180630967 280954566 457174690 186975913 637923252 349368625 583276435 775464285 551296175 584509369 424801199 887692966 86136196 789837990 291684672 466500964 849416075 337884700 680719130 990976013 457696948 774232659 755447250 141979289 702714441 829803267 302278214 452330117 640327355 395266643 724268190 762422721 605905825 972669233 379313214 168982961 816684247 823995634 770632922 79396700 616260247 459370753 424535733 231904556 618952247 12847247 28353241 354528808 749121873 112394736 951787444 599993225 277660302 388228637 449563999 434897665 590699771 395741200 393327383 466963393 325702081 23012644 739263182 936353906 416634425 200568784 482944925 741739633 545508683 265680847 904228122 891013090 466407920 876787531 768459117 734296623 954632583 827539563 60472899 414447997 541525546 574355545 879895180 641616016 958587991 236832794 965312196 168743826 787838252 367088045 570282451 135720199 891877501 480294545 679547560 584601951 560238193 292127651 67322709 309103601 934984139 904198553 16970252 615284921 258392038 587665923 84882882 468439163 965441238 729983357 177041969 792231541 221512702 62684950 84431752 725648106 324333288 871316128 30499099 970900859 117650163 408584066 146239879 925034394 186034491 993470865 832298730 710873946 423806069 516386105 562360758 267938326 791725827 213963714 444182957 416033302 738445571 5225027 380787789 294760175 811326316 669720431 25518756 141116093 897627331 738174889 340510791 817906054 779990117 437673853 51100154 477416635 193864276 704647776 219085974 35939214 460756763 868832502 360887906 994240136 328866521 651585806 647255463 224222858 85467056 315494600 315050326 500824765 973668097 692714775 101091688 403427277 765465878 477269728 621577171 110927525 528450965 553698518 464086798 487611084 959688510 279870249 112343904 580091564 275235338 401031306 859580757 785323204 881792284 751363882 233690198 295066632 679175959 279407119 96760781 648570502 989751430 558491328 764235892 424002648 436671628 135601050 33861514 919477227 503668031 604761755 238811950 168342508 818208433 724213235 710612179 407300825 711590150 502810275 343675035 998231173 213420046 470429067 723811651 177547377 427300998 928330191 418306797 597554893 360080076 253747962 329329516 6216640 862768379 146728651 519780579 994314368 431652014 657534994 605425448 527563024 281017572 442530762 366059124 198243192 932859611 532695041 982728636 703618401 277279257 940093022 378654450 261422666 909143618 587907624 965052243 241048828 14410688 994802807 626558828 73689283 471912778 435093935 266950111 268172058 300834587 149277996 820153253 385443752 954214152 217679538 440912490 605829624 911772941 397138866 259923204 96733160 838191516 151324131 415637688 8111008 177779911 246079536 822207882 865312527 733597189 787003237 832931260 820695507 431850512 396235639 673328951 379987941 542402406 889019109 85606638 447685829 315826155 117335754 850921715 170115887 994624477 129044083 143152092 686342531 331568481 748886711 282117089 466688097 481850326 290714538 133393373 965469970 82358241 533355976 983414201 326294791 504599315 720786478 854036187 138435621 762598183 857127350 651602503 404899649 450752405 517516127 12514965 642450222 209068175 381568382 979283686 664822110 816494732 774828581 704854823 510637473 486688693 659384380 921897931 564188078 209251362 463876509 792016580 980942791 401431021 836170957 442420318 495320524 204497974 932021488 832835837 367145912 171571121 532997339 433129965 822053642 465775334 262074031 703915933 759168905 223327609 683115991 49593037 614059171 862618096 969118617 836749692 41012413 438554294 316215002 816977185 543136996 867790697 86701576 82545462 793554710 389665699 461873431 840618361 496457884 31775860 931200885 395242798 684071408 783168732 754967588 972303982 231174710 782194367 737471058 688039348 302142176 967218126 623181802 652842915 244188706 807117600 492310287 35284621 488922570 690702082 900784409 255389979 41575037 99060353 470271430 564085819 410155430 628315289 997508713 475349255 843166770 877874691 247594441 417736328 329537914 670130282 684376655 504235372 100252022 465938030 22741600 879495831 627285609 996345866 827652902 153059543 782060558 487759696 617403688 722314554 31632212 650895933 937781032 807916178 243979003 177528658 20948923 726888634 111175413 931386981 390168263 183015152 780382470 113419294 633189717 654243134 128993331 706386610 455821296 208070195 490778021 416066333 631279366 871745093 559571443 777157181 216759703 145200289 120642980 284035809 46594059 380759359 54761491 389360382 85601458 724752713 129540439 216546713 51809933 134417417 260711694 440477380 532859618 101257264 523927031 398691498 796343287 239266504 281318176 191604158 300782347 988553257 892541061 633106017 494768398 206362952 397155439 149124871 12513057 745801364 107477548 145667141 25381262 772004723 745171858 607108180 759391820 415809782 767843770 560485546 997321032 25344071 314189192 360340467 47076654 543790764 340761412 825390039 950083006 705634160 456299188 820458824 859687544 518861349 148836847 292771731 320007192 439425309 442930206 670801339 112647987 417980609 386312703 509605481 728810410 247168225 912154023 235703546 453218549 742008865 236548969 864052720 911590075 669778597 375736407 284216750 374587322 548331861 416623732 102391264 830180720 758409334 787804354 461556487 663055146 989661406 809381397 21202900 826130651 400996113 593435775 403400924 383971836 728203654 881035065 781969928 69132680 224002414 532275852 272399760 229712731 817984794 888008967 598835767 156805683 593555698 604347659 658653784 355067061 210152182 482871723 477652593 209159897 304223224 7159983 266379930 530251206 876279841 812670260 342366050 73410611 872163885 468689388 231039421 110569022 3703556 472069126 303967599 915436355 140956694 941394772 920863482 562956323 782693152 324240286 832250452 530203337 69516627 952336724 588994931 182081653 875950362 534837731 436992401 908159619 466631135 747900862 303834592 383617898 351733627 94703586 769748611 727114009 475284788 923593849 936487616 726366877 169913900 515510397 849080373 394387311 371020078 389078778 302896193 41608537 216065140 788788379 988826984 455857501 714205089 513422708 251406134 751217844 487760133 349605275 676137976 863544154 279992074 7392167 954295248 533997780 126202706 797976808 963601843 668127346 517294444 425568458 868341062 368324401 204883978 147785869 152121654 461940178 801072245 558678356 189561519 901741954 527206911 278663933 168098003 179019419 554134859 64755253 13315811 665710311 506843858 986888625 312279142 794849289 774487430 172604560 344629111 523514548 3410146 228552214 120673366 575158177 704463497 884667832 546673809 213470492 658605479 946608502 661506878 475622887 837131483 718849266 533313341 309701867 493960607 407131491 164936250 172520726 39970832 525079576 384065084 98107431 958187010 858941207 411485354 338682999 882325039 498452928 654621817 614151055 8887176 973356207 198212521 663545929 779529981 364703738 987684060 835594563 385906083 828083291 179894206 175509112 163865594 140616848 695467616 163739939 458349952 314983112 768731595 533428264 332707820 197597643 739731803 261106796 137872311 233364416 478956247 31453513 73510609 658067795 456861288 308457012 804456669 52069478 425658139 178567286 902697654 823878116 774901758 338298872 876702546 463699807 335466610 734331207 269283495 583504124 210919364 793655610 404570682 464207171 234638736 242318597 886417208 733199674 486328189 58377230 588621234 320906750 356148867 916421146 528367089 822373127 527473478 181778338 418371861 478244820 796433699 424366740 663086616 328540162 667851539 30239577 558364118 507005468 937114438 617408377 269994392 851018520 282509111 305683731 689835735 744521915 200653606 427481078 175798126 729752581 533353793 241308200 578220812 520018524 260054871 544299271 47574701 872333485 910356623 342544750 136593327 877897865 11708825 741440281 360522452 712828564 888756349 398896045 498361610 307850495 457865572 126079416 734704419 244666190 875926104 228452080 519266143 286972471 502456198 945151445 506226507 889903160 321089757 111073492 378733737 627983819 491709779 858497301 189216192 832123882 687156527 758620884 624262817 653385341 205045004 873197375 782681557 452532841 288061730 350058932 280569378 388201188 667926211 263835905 926967514 66580401 477252866 306320486 649044318 226302995 811608176 542234135 737581024 550246451 491103596 501617012 531397062 989030569 976385229 803475667 333927695 253961951 336799741 403951322 389819362 219979301 264509696 610377736 974139033 58091832 910334503 181566062 707101116 637359914 993353601 931242453 821932735 520601089 775777915 533583219 777378997 918432464 847239670 799368487 803563599 598910309 522642278 875170289 578297144 878499978 538925147 549564916 992640676 291952793 302602449 240890764 348801848 303516841 640046722 143530830 254006351 791759205 876115950 894267148 721981409 325619445 209617120 810431976 358068126 568204792 36749889 106917545 307113275 503087516 983011508 245843670 95779945 220718130 94960415 573085004 797510869 255855652 483195558 255082432 691626786 317118221 459231692 572954843 416499827 443791541 692621933 779367449 700800473 975362443 758599968 164569477 600172213 521557463 677501997 702793775 484917432 658477994 610739763 531404822 758406546 614590495 17931198 182367676 763334057 268996927 962993843 391649353 947996505 29866727 78075449 976784594 488045868 600028553 58189364 355338634 574362066 712054805 499240906 679728424 196395738 151317474 290256862 983345659 518038374 815043523 48660898 680109640 618540258 249369643 924697343 688710488 302111968 651317315 235139030 55136853 186465417 145765870 775799050 25708737 352732733 999854581 739814894 879276324 755343832 544145559 869097282 747681441 139524328 148781749 531297678 935331550 733836949 715167009 585392952 23608995 495008720 3530728 584636588 63781877 739524301 504198024 107865157 506427251 590385804 535339559 227994966 868732723 762929121 37810903 963263659 29393979 593060362 676522643 248570331 908784678 185507237 117214027 472586215 178588854 629761464 514532203 427386904 75872504 99544505 781015601 759404445 443371639 572925173 473122121 400624734 852553593 435018217 141948937 260037554 350355573 605928681 839292484 369768237 821281244 311443457 115435005 149029919 999922290 862391467 920934397 127225034 83960378 724637185 287665541 628130496 403340193 237525617 426399265 127573559 855768977 833135157 856711905 58881964 882463148 418536965 335068149 386106807 630352808 852689842 889556507 508977437 456211462 716155551 230665022 956233926 975820704 307361913 351917461 232981392 7002290 589563163 883055230 526909277 206137103 330551059 351104870 208858892 543193801 384884502 778106934 445036959 588101593 428844143 797994639 636986990 593064791 466714646 306419303 500287568 338539279 644461253 661444115 125125646 525555252 278027616 246539490 929510547 458340270 406779493 876901653 215850696 933156220 614054089 570723967 497905789 66771334 591077235 308590667 766945515 422673691 392410357 825291127 70773817 915640710 231184105 155612607 865142581 251770620 597531985 572887935 668666137 310442957 674305173 420431290 348398277 931134453 247360791 165405659 388291341 589818504 922252130 850923929 339984099 400375781 146817721 120289693 3142246 985619605 212480359 969357160 650823435 87424765 878005329 114339698 235527617 397549375 846160268 855016295 987752129 781431515 974621931 760201850 275911719 155090532 557656517 961850026 81895868 55984474 569585694 626258651 66535355 438798523 465685981 892168989 725130693 415853815 62285255 623736753 490221607 829621709 849626648 227787149 117919100 738257630 698157486 523657241 602235223 866741087 239622626 588537455 476656793 475980984 7240119 796722424 576326004 858638078 246855404 448860890 873386252 452146309 83077638 17063993 438943930 957286249 138465437 690328308 929556504 157746214 373618735 316492745 353811204 497409666 335453292 522980311 403586662 29572820 389495022 729345807 963931196 674948102 33914078 619654139 521366539 960196136 360693446 834512911 109033826 167586348 505611390 600339735 5924696 856600167 859429933 368105363 227531351 991370919 999632418 23684243 955671538 932567658 946726653 82595828 942272383 216951723 456706623 913131750 569987145 66531704 982450431 532077907 184645900 359421405 129142484 400082505 632270249 782308804 593087687 452951928 489726219 315418066 793420311 858595335 509900540 724351973 100608792 73914998 982687420 83535587 636979791 694857536 91468142 894744754 187986793 333305048 670080057 71897912 959231968 389288471 479210904 136561356 6237056 370466892 738676960 191995807 63220343 188355589 274410586 301747505 542757878 563147548 875391718 74093632 678336950 672037968 50807076 371197204 649136824 815474393 522976355 840150944 49027038 590949938 605149154 902044260 317935520 570678699 85413062 649598680 974738225 321503243 103610625 735431423 118753557 277744282 404891096 470231246 735772249 585673499 295948753 547582928 220452902 65610329 794646075 73326547 702343791 688110670 206166563 33636626 313874996 787016529 740573010 560064977 745302546 680605010 411886390 342603318 244636334 43729413 345874831 221271157 105992355 316732359 568815462 78824171 314525572 686727273 413860379 752243299 483868299 680101791 333929580 865993740 792612260 140540776 144852401 76586342 566106649 548126233 8924987 653451463 669144791 706490930 974830997 417284536 605360355 620991838 253715634 554600428 349754370 259255798 399966736 605556803 798536289 732264358 550452190 378532173 105216778 962445163 56918837 508361273 617010491 83939902 793908470 640836936 266840546 537706455 531382861 419973935 793799225 171937824 34516582 831952935 746985141 824772579 706852326 347251531 437965538 281409972 12907179 17151885 815336285 568797630 52964561 569782873 427375881 62363891 829070763 566375735 524542198 98277986 433821379 635938115 94135517 359477941 48775718 297077088 617383346 113965869 773378350 871840857 77154486 828310218 996148002 133406567 205266782 620042200 600019891 366446936 856381876 181989741 933216705 985595559 168339936 102665106 764297603 39925130 769490485 640269808 557618031 845693955 190014866 681683252 304045656 147919481 169208141 66639567 956195965 610460703 746952706 912721565 483003683 581082199 689691786 123172428 324368370 322550043 438507172 349806919 800866383 459467554 750541483 84251073 148999161 554449414 808842648 393591071 212026041 702381157 13407395 727128279 164000388 77209582 508212650 635982085 50104681 802232657 916223837 590806209 213746921 231803395 298138522 490714337 829599562 782825483 676895689 740917064 189421161 183050577 292226082 394321637 532459554 902810492 95241112 391706454 759715178 837125003 764790256 12307415 261776012 506951476 682517800 799147431 166722450 113854695 164595143 523394495 908068189 13996878 875489973 11772883 137955365 36900571 397763100 499958782 112505582 122455165 137927753 587904522 46141656 862931087 15002540 905544826 395955196 59675618 404768294 501689665 833776446 778310162 792570403 969819608 565412237 409036750 63308319 583743736 233621915 244515466 731357966 239597926 626138914 205749931 843772533 626751388 335495952 709688990 49840023 980669468 610201546 161081388 989929554 325574081 634979744 63759891 625386758 786796974 208592146 725280468 162170126 809771232 127382650 874953042 679912490 707554679 554642978 120528651 973337411 725884129 794982974 556200848 712280493 665116611 434755159 296765600 527377778 76378351 373229429 786653571 691740348 560648838 107489229 402134186 251837795 996247024 147719858 544313665 221089047 873694463 143809201 507637004 771759455 273691883 57800933 732712667 184075203 209830934 583242309 99819890 28059953 727558349 333427583 493311937 895549233 563473564 707184690 80818802 377212780 502727785 781368779 874916736 74826593 367370372 850268885 121745497 180882192 585890179 664094936 560447243 945940868 487254439 44962681 268648096 772924266 553331833 333809693 998782395 548547676 409036839 749682416 351680680 152193674 592836475 341808170 146577749 682050147 379886335 428092819 300210371 847427523 255141339 840021538 115191697 31815810 411083066 626562976 62949526 223496116 119061994 17980766 502108397 210152793 690289029 931257341 688916129 906334184 766368463 173438579 19652062 263581497 139919643 277426500 675821251 899422277 916960234 558648298 149941537 242633000 755931224 918546619 612730222 423823524 462862354 142848169 928811143 386866882 983960686 378690189 80385570 271069039 123637779 348761593 482552783 297722640 742144192 818895993 742792285 526194324 927144432 229856825 412922417 515430368 586657647 714749661 915383188 510085569 871203518 150726405 18747033 593017389 37309494 870574318 280346912 765969139 565968548 949172866 405905134 684694314 794492831 764485427 864180580 606199119 160270836 527408808 461932678 562876481 784134084 199936263 931512612 148926093 626077057 454032645 934278511 650036662 738160139 442801282 538310904 808215537 370250828 284662739 407687474 356462644 984612166 771984910 928222673 713150033 918853323 147519015 126349430 778448807 531423298 332316110 546743872 939097961 75998501 417007537 843757496 999171639 106889300 375093989 121728674 741724422 393280218 655230538 822770356 687556569 992617576 549264048 402419662 827710679 489085821 211512461 989317633 524781521 670550411 542663943 622518261 379247415 464525503 898677827 95145029 539183726 324465131 376282035 798130281 993924071 863361475 34678007 521702966 394810768 152247223 439320643 619372812 949264619 753964929 127397677 693138767 490441794 830385092 466133837 498111888 787907512 663821206 877409470 730852141 974267256 508661118 724594660 719547719 24068165 426169061 121736910 534778704 330820656 511646757 271833374 373298176 450037860 79402240 747695346 901942675 190086797 443957233 128939355 518523371 817853553 760225421 757541872 207609200 933948358 750573115 210474046 2697903 882084843 19682396 474075312 793664734 141702335 834219571 750597306 405758764 875134721 954905725 429251634 150283824 200990434 2114813 580321851 382975502 3197106 981749595 179472598 833204056 929566678 786658759 129256445 390316194 987311364 887338827 252397873 37228458 157325253 143112628 188171928 786222122 944669930 129974317 173434077 327732891 319065935 163347914 51189106 385972791 35195138 37172439 948546482 145228440 935536161 532319509 703935961 927678129 209265250 18209314 621768052 561491059 884721713 693255502 134130650 12214946 550168280 750683271 946321945 274696827 900660218 238003119 734959 494492200 193026077 288588648 167973331 843003510 101909599 142220112 980273903 88603835 168003799 268922012 946564674 849913893 182377219 860775724 580283096 458953369 772990789 869106933 457268693 542616931 958311126 926098232 905631383 713868350 383608624 961267169 956477009 435338713 135878916 549822522 584439202 38452964 764639790 654802396 976299596 260426792 588317632 247421215 981136778 692171265 702527623 438538673 581051262 338276146 902348165 882481887 21291018 568968730 934344469 665570175 956239733 797472968 93488162 637020551 567296224 982990544 787664773 630035088 828891942 7078918 311948709 807686961 869669125 887417386 16168012 763090451 735060840 797001446 837012799 387571534 160594915 903265600 44115082 391205507 371272518 785543412 33646228 362303584 275784803 262087275 161607600 606662298 441433310 21869758 913558482 897033210 790452949 323578534 362579551 505861521 25336961 185363225 782376904 821922368 694480325 218480417 616731849 792997404 163020366 711844803 568638774 200255788 705330641 860874744 963410440 684058302 522033077 545185582 165017134 175737755 194637324 335361862 302058191 264709434 301247178 150628459 256478020 888785414 168557021 472554367 868542618 260378868 49282759 774247342 99685039 98716459 866785160 912366109 738888618 69349945 611497291 169738456 520225206 6461864 265185811 522335745 514182677 84519087 14375279 89854634 900682523 815484275 818772807 271358241 995634867 576418918 164266584 296141633 515237831 784068673 102151518 191215229 438125443 979941574 620030036 957498994 695485178 721768326 144517113 520680005 939295764 526817882 624977980 927656498 210772149 366554167 338598420 112231801 222493269 405508832 280192274 792896050 930612943 345151764 350474867 886495719 683478334 110455446 186362885 715966418 225361489 556058168 654801638 985295334 199026011 440878801 584290927 773064192 134188542 338161247 683153645 96115996 373760370 750550894 916466803 253616496 443677372 26650741 262442629 620235632 938079646 485043765 983081141 501541496 553936788 420133785 519107045 344859760 968300322 202793498 868245622 336454379 448812613 25541101 571326274 368832060 614802714 186216037 243606086 893651896 642957845 656106741 896335787 949765679 852791378 849866323 850213631 186561600 535310797 365502080 643608828 732439503 267665917 468928000 772496593 247927833 460438674 47870783 508239851 171671057 637684661 9412139 829971895 526086903 486121414 71320722 231479498 134477536 637117003 920280362 80992339 143118082 722034438 498149404 231806119 915301559 274591474 49196238 330118133 209091644 864524126 946532656 931084337 562647920 833679946 355085754 194543569 186007926 754483658 600199965 661336805 183127371 38066512 69275155 190505174 18916953 678185527 773637911 893035897 680644097 220526992 164977722 859007781 626560695 769681686 532613613 951163923 841307300 440509995 359355205 451046013 382772922 876236942 181540429 798490370 495262541 480459304 995417962 148287562 738892781 810537961 437068169 406283598 465532870 618717739 501371696 576451880 943199277 546774468 513104717 299236083 545624281 600708580 170754331 442979736 647316131 388688397 738029452 335138334 953634188 680949968 803880965 608475967 561215671 429818176 295983247 124353316 601102742 43096475 632897000 591431076 574395039 556667330 618163655 778284948 347714598 545047560 813961372 483805356 342865924 666899733 686439596 800093663 826566560 400341103 260082206 468968850 493013797 399935090 395783485 141628036 960223942 871747324 169155026 920605872 568651372 191187911 102501341 419173358 112503480 880274244 182878066 677240810 360804814 616662244 741558698 873835242 806375647 451272216 195842128 46749392 426993267 155008038 828554472 910571443 690784123 410641668 693270449 484216332 832708287 533330897 838345474 779195660 314625849 111369478 766642971 171937610 423190276 477926521 416288434 696942116 965006095 670201892 259322192 913141911 722319211 171101710 418217 98942120 336648323 750066155 245331787 720306378 519696789 80419241 99515910 705736332 770890493 817140281 301824320 319066578 320025499 254448670 422807275 855931774 326362482 822489374 290447141 95270414 443943435 862068704 589547288 579044449 604459207 241497222 296048241 212818488 844686400 637372656 988430167 305143215 25496098 216601036 906569106 665923702 781126410 690537387 639442255 276781440 993494945 692282422 435545906 44998108 898357641 198779191 169472731 180342418 870213177 158054960 84491528 995512676 265005012 990388307 127174825 224527176 977270544 272036973 646814371 5734618 495528867 451258443 274414586 986010130 988859005 423636813 347265620 528457280 971662554 420887926 796077169 326385540 792814923 703719995 637740043 712416805 762489775 636543777 392033862 271195358 591921475 104448937 683303041 445863271 653973799 252742591 252718444 721383327 260587691 752413648 554424376 95145377 4493387 562016709 91843902 727271996 777737057 898498791 617524694 82275073 28355659 683506282 575809864 216423035 278250231 914112048 523073916 342988672 483961665 875238269 474926803 810042776 625461021 750442236 360930022 78504901 647977141 25618546 335480707 164197502 766361659 268543549 651685923 207986226 833182394 840412053 383524416 670963138 439175774 934967153 161370484 662064421 981143598 364773005 270720139 377514428 387903872 49700847 64646321 630573526 906651787 11212987 648393388 910342365 715962224 809322460 375894399 539845264 808673522 177917719 233618121 513381886 177358784 837599494 988835917 609222759 402044095 576214687 848282486 482715688 915886384 171994025 307495519 454108290 481665927 63155168 376595048 906264901 46386272 159404460 170633054 721394230 425166157 639923353 362783549 162654480 772982483 792594467 993361459 226869497 71751141 678637452 157861600 280581644 807982134 893933387 269923857 873340140 686290130 17274953 889048489 798689590 89893973 856051053 924966867 108305801 137859146 585838941 151497952 124956495 804067875 521519270 871651824 448669563 446548274 703588702 38070639 630782550 952381659 56493342 176950336 42157488 625021850 990930230 218694338 58926742 940556020 660292695 192590819 888380039 905249895 168429480 314991954 986795598 44745099 462236345 227519491 153758960 591287696 856489267 78085617 974941841 111321006 450795970 215052922 341295566 855702451 904134345 170884154 252861252 846680875 755541182 957523820 145258387 698249338 211239027 633614314 921397471 293479374 116721884 468137640 446326186 42923002 280849388 40207177 319087183 594668296 412486588 879521932 320034463 844356695 519293582 261445304 7429692 46606927 84769612 59328002 196893505 985772672 907585890 329449207 259452883 804148285 869138547 638387490 709798461 83567042 881711830 676488116 691180555 144158696 245844605 158919188 734051468 598060398 73323504 469856209 670067886 86327925 577544989 608884643 49216955 109399399 23083975 946950987 772398778 691759394 584187961 63300937 940206188 635545716 600371965 393777046 651968315 951078733 164087181 688595314 140683472 796604002 902096943 868418680 943217120 786273548 459394791 953132213 580777648 802526931 343940307 103190395 498861816 561764328 924981769 624058196 979773982 991202566 601654848 57631016 288664761 898151121 185117720 662930861 797104991 315509401 445889183 388820964 644842782 50580547 954310073 454326348 422823393 255661644 358625106 768222257 402828574 279320624 867330534 545430534 111487071 347501360 961145167 916085417 696580489 993113761 765560118 231554385 786533126 596135348 692348039 181841413 874733913 839355366 386043218 545862495 449619734 327882667 150583855 613922050 203032085 753425788 427023634 311771443 590355761 167078429 559487344 722599117 439029337 336288876 646876187 91250472 685733093 379614552 627508597 545517406 630701273 835113956 796710331 105236432 556723552 515153700 889370518 778928632 957414827 318027162 789858153 153040646 558623263 989442515 474249315 360668669 32866217 931994557 334930911 608577939 648010658 955636977 780538984 3750188 80409893 192801787 409341749 708320676 500125133 636035535 932524761 824691076 313286255 282400077 615489088 963862862 985948968 342523392 648677696 89792366 547913215 577052514 192785675 999365688 816056349 494661572 977373932 724781447 400485595 537030981 188740323 89912773 253577515 436444672 54154379 300153588 785721079 702393362 186191373 76915599 896526900 720715960 101282674 905499796 797262133 202999276 65110305 397624252 612384210 842067896 62704264 841346299 469109830 301590675 888955834 545781086 137549662 531009745 177523621 953512272 206643175 398772460 162126407 872905507 255674498 723306854 808099844 787195062 115859320 868412807 348820575 830942528 722122636 283419549 626590528 333192325 33657491 970206754 437616400 14369250 805988066 140540076 348775784 287178546 261290205 439202848 910475795 150104433 511842913 235917745 311564860 226525344 408859791 110734290 813278292 343168299 367301891 154951188 167452640 288356820 519704181 833905140 785567849 40994442 922480275 940752900 367936505 129179673 772107473 814939139 504741242 218508435 5257507 282297281 421856270 146987209 370365380 430944160 590970052 256233827 956975505 445082048 128889203 915979174 205706235 464876611 879022302 857944034 726411603 675303198 17936083 415846027 867028026 468510380 165693957 215436527 209362674 740746817 355868308 865370334 14639082 151965050 743207602 13465299 941219531 709438948 679416828 919680810 199328327 212329881 752554906 204484232 398465194 441496138 956982185 355109523 845636591 252685454 990961032 392404904 634913686 184715962 963556899 908863761 428116127 972995032 905270049 383780623 946979225 579065220 189229207 984746320 702641351 488948448 259573339 233865258 971098622 172473047 544953817 575310346 679170400 319869630 696009330 323346864 749869343 738036156 403190690 301370160 421009188 293145861 315371802 536577131 339365468 11730233 949410643 370487973 176587760 234350696 521436956 612708614 26599999 832977895 255241720 665917629 792958369 475466190 387360595 802763644 471469063 591586949 289900253 475609031 869449013 556053726 345034432 337672907 642542508 526072617 522699122 664386727 647106037 636046960 916393632 161086909 295526552 406921587 739007374 611437749 528076632 514380545 424666746 357589429 987066504 256793197 567570730 128841635 553431851 84028771 754217911 846368344 529448073 557020341 166814378 299645054 758621880 738652015 206099510 546703774 18381811 738172427 592521599 731862316 509729423 146615469 868860389 340632396 670648488 633398680 588320971 510105616 850883651 717758486 320613045 537140120 521355246 113138114 399704217 477187608 738590916 18189083 350573150 537722344 788570300 845527494 9709140 665293394 7203885 189152113 200330591 804049500 302143009 882469849 867633840 164768415 417500137 676285081 518318509 537339090 225491299 52752317 328803705 462920640 655546317 926596511 749187413 592230639 714414688 276037577 699760374 393788010 600749485 165356639 381045642 554294770 74160852 751848156 222996755 869926543 331445542 84228045 562093470 190746732 991314675 254393049 673337785 608495873 56579755 576545471 838374300 796788119 929001235 813273860 192323941 604509971 308579248 562856984 364079817 310673644 411298868 874721778 7574978 157316188 514688428 307297004 274280689 288159770 973440783 56168713 684103219 993048142 496590735 32677910 456446033 947563143 583468657 994475959 542959110 624193564 920723728 394104143 153337258 533440641 653208489 913393842 345540812 911741380 240098946 441105506 526248821 199589480 565253198 647929875 932200293 676891351 335750903 570881534 53570568 932787544 718471373 113314835 727344133 455517677 707890643 396546140 275269415 442513261 250922487 703780771 975939890 64716226 151330186 327662845 557090068 375189809 808920947 72885097 206267484 131250087 893254998 669453788 973191982 686087085 464659557 369466589 135317417 397562716 145603276 628975713 80628668 805081000 807224173 792205337 857701900 200596762 688327506 507364819 906657089 330895970 805474986 703956735 310731008 454903757 881509946 320695395 804085799 551692124 64060495 70100704 920684953 278194139 665907887 614799693 859062695 585873635 144962931 28512565 697789820 799174782 497503066 291346491 960040482 331574764 361492180 578130779 127661735 358119986 604570603 738133334 741169871 345750540 349461407 301232114 4428924 791120497 875324996 692588831 891887888 521820041 196558161 397222941 365883237 190692230 556623303 410217239 977953023 473782049 712348574 140644067 484541956 82191277 54765580 291070404 124018709 653873576 714646074 870022018 861364545 904020977 862757630 259731508 507307045 234879206 432290785 106714524 187193599 771249548 482784197 830472941 714886715 229634783 297195306 691346287 595202239 921044811 675432997 28646450 498542325 900930800 983084678 123389280 873138344 899839124 319675561 77389899 6246997 618790348 248491322 5029128 15272259 344375541 125410645 559668531 907451594 633255196 770675392 830998956 76011573 183850709 959632301 788274461 393277511 568709159 710870439 587091077 355886497 574295099 876609617 823915970 45033551 678635782 670530864 196800229 153763561 513726676 588465397 321048079 167725562 318332327 533851827 713688364 609087557 714415396 224226370 78465037 876608788 633853173 507045713 22485621 997086913 419989356 104606156 132241385 538623285 371341088 990115900 206204830 68662244 161826067 276707236 678531472 939561380 769640107 559673924 764716754 500018999 975654008 193887839 763367940 278280162 821474830 932186131 176853469 506953933 343913404 319946182 761947225 126090694 958883977 555143952 238752651 456591254 380775050 625920326 179172049 753862476 179128042 930513146 778601118 76719036 214239553 414523004 169881561 719345523 639801203 331641579 589598564 576417977 91057014 327276954 288033263 546771452 942210900 995298691 894207535 505845569 430377151 311403305 566042962 510496978 89229665 403594103 322687451 656006937 411333602 384383961 501795931 119053740 480468801 649849222 197998277 576243513 263249493 583266687 390705038 76079104 780068404 992655848 222478622 393317770 849876110 466890472 825118740 702023207 250543818 111237407 434543144 72963028 979169644 389692062 496397565 757491645 737887024 606295900 929440247 531449138 302334528 928568932 750975336 750877215 83094326 891575943 550727217 942571758 559639047 550882164 975822293 561236859 846038004 246911970 921122016 912700271 57341623 228037737 693507210 66241320 100537006 565244950 9512726 677758847 507789153 745068750 202555565 330994546 808321922 633357973 875212225 397474015 319463443 702109822 454216122 747175530 970990667 741608467 59164432 322124820 623410927 454245733 364228951 849763143 825041993 693024732 355513035 212193876 247210144 411342394 219686489 759838929 857736649 38480750 449071091 762144215 820584864 256182732 817724407 72589796 810237602 312314331 898125024 619919311 692772818 706551690 819479321 532318892 579118728 791031963 189630252 791419139 824104168 980830872 166988169 702664916 130563464 938431011 488356083 265731988 308474578 443041768 304698537 819752584 365746912 22630294 279191794 923273648 286466929 999619791 383014722 299134407 236832621 237367547 291260354 428980565 732766271 202900137 31729297 200390237 621301763 418724245 257064447 221264576 655037342 809075109 889071145 641004755 275044504 334331789 744270384 344292026 182959393 630182968 416261266 779821808 721788093 395773243 517688343 538944921 244098975 908590112 310952416 914060219 429872008 325813332 236379256 928142866 611608498 331843847 293119560 488143432 950495817 616105497 781985738 720596058 888368258 735557424 968438435 444716028 307431554 575425633 624136124 592996841 911189123 41780925 499878507 329830316 713381391 357504615 750248869 831829879 762385074 234617586 970175488 363158057 705728271 461783528 553334994 57952105 274018790 442819224 364631789 55616140 785745627 472319972 493906597 480117765 324979686 655913085 656958949 186135585 907809910 90251312 533539973 646468866 491222240 136105374 121475177 648967123 442052188 544276301 629971061 431672469 153178759 815664407 614648147 893785451 418444700 833774643 29998301 648547285 667598589 365521238 117626940 285918228 775152919 458992903 200088607 347826984 640430363 649009583 830280507 509648330 430997772 114271961 981659104 620399501 289805534 593426130 244375709 627481342 63390067 400396050 186580627 751627834 227362353 771128812 524783722 28823717 839044539 684907562 777363504 16078846 830762298 223757520 417417449 512501100 868755854 410249228 955362772 525548128 344826747 523421418 938445004 587644016 532499084 142933070 586560881 378880006 864534597 597454397 19921733 494693497 182118667 49545808 449614775 251003191 600715103 501370850 841320937 885869640 8972423 579215438 433512879 3477711 11155499 696696086 472249798 489518613 261524048 38380693 248850798 883076507 622649363 492577176 723447668 766793914 336359297 219022681 327376503 927852915 806994831 402964724 260616591 924656302 80678090 476851480 282991215 369202672 730765699 633907648 640175588 419640162 951462847 51270224 531835036 910491828 394945547 918264548 726526406 125960863 664586898 762236362 72725980 182564809 344475186 955623600 832898814 483308572 367200125 184351292 492987235 449261446 51146836 388591314 50476358 648570310 867548161 273887210 83192591 574076182 973608643 429046596 667748480 300341846 434158497 437817596 474959304 863835394 525068136 483346401 898000503 887740305 621690966 904561486 538755133 164554512 210122825 763569995 185289892 194795877 44120781 126534199 652645052 115367031 682489159 441385070 433346915 466793943 121237200 216342603 265055651 244085431 458231035 724699834 42456853 737367799 661291245 668639221 34299427 647433752 375443359 661037465 118035377 968434612 205795132 252347783 916330816 718621739 245574578 164803345 801345481 243426963 698737546 897774292 398410858 736553143 731943113 732201833 996145157 214230214 540469958 487340525 830816866 986615035 665005468 378650870 442634890 251648429 771369721 779022300 917334723 351379135 920426741 481090451 98064059 830732874 817277703 595458806 931930879 803173471 812836234 200804550 81885238 111546550 48712272 884767024 210063430 150401788 396395595 8185499 713528110 314647947 926104991 995843719 619287057 60287524 265140791 309174099 705610696 846060295 45169010 48161634 567825666 519934286 801251142 827410884 863969595 575983516 911902196 809147029 279535134 149649546 156657165 125264755 64187751 601979863 297739940 990271392 738040502 228145716 831160868 987325709 495190363 574421276 911447940 806355149 266177835 86312388 942570959 575428517 730400490 862998356 852092385 567105611 80919538 769166151 717777334 307045649 965828731 961369616 364086408 155769623 910547747 403087723 513821172 500154095 968654928 378313200 67509752 712444506 208542466 959634484 446288297 824776780 893233222 779225961 380651716 508572363 208009665 434124108 614759145 199291219 851147093 543159779 519300287 810782084 364114097 277068368 605182556 896940319 496563959 118173021 372027171 884102268 614196956 524779552 165809916 554672395 234241986 521328897 22233600 297409609 695931643 277735094 437741223 73794226 262664477 402295977 550164374 783500581 933586650 764095977 272565039 412899628 77845040 755179634 414825044 240488826 412331887 9303849 801368321 948047164 473282160 608030059 926235896 443909739 355315155 577743666 254848406 279616012 31416827 382194040 404487362 251226327 553755415 591115049 347108028 477169662 147125251 28503372 823355850 733154201 858803960 141182951 304031518 968048445 594661854 615600843 713364981 549301275 951121526 879971826 329303660 537814511 536551689 625553509 91212371 610015143 990499829 977383226 972360829 965315670 916767255 52545138 383958120 892877750 213831368 804419804 325651691 62670121 857570784 611520874 687181185 933515031 666910795 650267804 563942920 835593068 364410483 774570882 972008755 91015254 637684411 710756192 69984792 101710642 792278912 601774594 996476138 706279705 226050266 82941949 621959518 586396028 581198299 901627588 774454158 985220165 960569259 143719722 409559816 483076245 30646988 21790294 938526885 556709681 719058585 238077190 470159642 837876794 973465882 668434005 241147771 224541242 571007956 947424248 277884546 31912976 274542234 325958822 59608747 490699235 838361044 206127226 792798159 271274826 998950765 577286340 668711010 300759102 174634500 601729089 383180125 192992038 696610854 595872649 585534926 798859649 744651356 712999162 594911893 595953941 700858705 877354858 905420333 781313610 676764591 92451753 705114280 158319106 328569013 960438536 744024323 705609096 426573193 314283381 561152807 337652894 604587270 711176120 796592420 306197805 502062093 610024322 451747698 793269479 914413526 413607746 75602005 685952203 31686885 198738000 279383132 259853795 56716276 187478880 219331045 481992436 77823529 423258555 904894737 570591790 496784350 107362529 8158766 119876378 950303037 796334279 749359421 919209310 468376130 18575432 200834823 295529986 531031823 445859757 629661850 681312227 495090152 629752492 698173574 530688139 747788642 559805805 228689850 54680693 353956767 793651988 180918214 453405214 653278189 758069881 176582819 539269202 198334560 29233877 555920330 377552688 377758790 802696535 946834336 970329148 620000969 590848129 620724881 24691506 361335328 949444278 222268815 862649803 855708825 945582104 914339714 706441088 255399251 995802912 552039913 688575929 130739485 934594891 529631590 341330338 701850625 165605108 970098868 424714112 247689166 400935008 899853145 12405545 717840692 316913102 355834697 628413462 475861070 700304623 859857432 128628967 21005390 626122196 15891234 899432078 542393340 875195677 875759391 918247878 691499457 376613221 248259034 691017732 427218226 265808153 14141390 975367276 366146706 563113870 365030395 635802504 307377615 866432410 601496461 463381720 549800350 630706646 257857858 23770370 210273580 841355562 498100881 977201072 551177629 49570026 982992582 565224927 928858141 755556220 260383402 871884947 897903152 146167560 975637370 643131785 621800244 603953579 705605309 310017186 863633908 154689641 976076457 507480154 511110243 453134492 548970980 551348456 163743611 791534665 779661675 617007999 498904594 125697977 915789409 307195757 457345137 303497562 417088069 960834950 468966839 388341046 902458947 922665581 81134151 134132238 378572938 31929622 999373364 920223686 325778174 581772236 180251269 835519824 738060013 968865455 329374183 745258795 375994646 322165387 636354874 324214188 264210005 830154206 853103095 245951943 440186969 189707410 818876764 977474213 413575188 905343606 471426286 526825358 235076716 367188538 119645783 301827980 25659404 268870953 651093489 356648811 892948653 965043398 166207709 998046045 968045364 420053197 894610085 454834590 76690381 635697729 404887816 441395082 385623661 201277784 964149686 277728377 992084766 492712252 942544868 396097134 809209330 171175686 500333465 956230488 451978867 471784058 28614845 430631695 336275582 606772551 906281599 474986264 819422565 777638654 354379149 927864482 192683546 255354469 610107422 957578173 886286709 704702754 4925623 513225037 225775806 377216216 336029427 465052002 31137825 163449061 826623505 777862309 595988269 438961165 527760907 92761139 665628637 39390823 584734385 939633886 170627345 840316974 607800604 492056607 246016895 33337687 162367589 226186090 689054300 562356462 720893855 557863595 272708744 103130982 688487631 222463153 631140805 177585788 452916907 5777553 314169720 142704779 670053683 627226033 518258532 372781647 691137153 984218295 436576540 612353966 527499019 275943686 404393569 924445749 223960324 484905043 254185998 604272542 211048262 357053124 232170497 673821587 331955114 123077871 479721603 483989043 108086689 231893481 953621580 327993205 41148602 210727685 757175610 627934930 766155168 374128976 735431304 644658149 47649716 830664136 920944892 999226901 799145395 56221086 629147806 236931114 800215516 977234243 788530748 700012042 251502166 607361085 778316228 83194215 319631861 127714062 529243732 189164474 659153562 532097622 792555024 455063856 794638183 764612176 51173261 913451122 822272991 531151075 92078521 123969408 506038942 490749518 588485447 472237107 490020860 122981812 154888926 286604391 494146790 348178048 644064396 937303121 794799555 437198537 807587947 497567752 238762889 51680617 526994020 817861425 686570188 436092994 98728925 542243280 860251770 497005942 725897140 464586816 19895000 536901665 314230619 82404259 821435946 511632265 535485908 419050192 950543804 210043881 812629888 940075450 399337182 963334677 329145110 728710062 735124611 776365478 328600630 970695582 664976046 345232258 862375916 218847070 667906463 219059529 384710688 550452151 998920514 398389117 971097398 873331934 170836828 213951989 234558708 874965118 469905142 647199593 492900201 812296884 813041329 690559535 686511397 688382306 726752727 298527604 683077004 919252615 331551710 421951564 396456560 401015815 367248710 956839236 641411879 17923656 149714380 634461902 638936234 359132845 362999234 608815439 344152829 152209940 772729109 435062705 216716292 924813860 106445384 450887643 82660270 29048841 352471731 920500062 201947207 530852844 656484189 64061477 564990017 244933686 46251134 771864272 696041362 979365668 746246038 944918766 189184701 623569235 879586638 811668801 990144884 202154459 351692419 349365389 197576755 448197080 715249682 337726052 597057033 491255947 885876178 816412772 223138011 563650702 548832357 930173362 558418525 780475646 666547491 162793764 427137641 896459580 480443974 95816032 132421132 674004052 62781266 140961761 588561110 538096702 367755130 300019382 228309176 727853630 562642759 73874474 243539725 673232579 975694010 588003267 605639005 241614629 61659171 313326857 125452264 123343755 335840207 146780238 75080745 145410333 705329886 690800712 287466967 428229120 51938488 913143531 466044683 394965614 465006827 877718249 936417125 3191169 104034379 473241803 623284827 426635888 383395888 346142702 291374189 601969073 915264235 838747868 438567133 46058749 827823598 338683132 723355835 67808236 169443666 225522054 838829555 265054597 409763659 649892963 649467798 313717683 479414041 535548144 823362204 988696922 615385701 808284500 853543272 934499615 90476615 84256417 205747382 713530035 499883565 980684175 790991666 556746741 800046869 242520008 957840194 940458483 823254010 38769322 744943434 46179732 781435590 514272667 816839006 508101296 270660890 667874524 951383404 268468089 56405181 925980015 881864831 696036650 474874133 98036269 650942211 359526813 243827508 762599997 622817649 413869092 260352515 333788560 223113563 249662825 461419782 822760581 505097809 587765386 80850866 970984444 433522117 314463006 866529017 337969968 79423505 128182074 138432228 189476138 643924377 408231717 380392441 85293988 635518198 812476274 985814537 812934902 131492534 465710695 619639969 141120735 469771091 658478743 163781036 699077600 889316634 956353792 982256333 194623731 862328268 785951353 213328335 660488767 523293029 847295384 214761106 650758637 657093109 504237735 351059752 172704089 61588950 663849487 692356501 181799265 299071945 659049714 157117394 76642782 670170086 179096304 291884730 547341999 319901514 882389135 618631449 675657559 19074199 125227550 475011202 838587834 933938136 340533619 970376898 237891257 444067118 338516680 658380400 887110563 345733633 551276870 354670733 251242735 655609710 809961273 344656155 989596301 585114603 605175154 232311835 707571186 308396811 265481937 592588510 226355940 764423123 432266814 404625033 135187281 419259674 989133787 6181956 63882130 895807612 53651321 945523749 439960490 131045915 155866143 32087503 174476461 444394317 943764487 830848305 406341967 591763513 520842551 444936399 987313362 60726610 546593382 244521208 718532587 784236784 583000347 64571818 358026349 64344242 107410736 309074549 403721525 534707114 626791768 163196162 636725890 403544871 810879932 624615948 655702960 667251899 992730383 770711888 674108528 915132628 497440621 455050082 582814636 233978057 9325072 954679535 389034380 823588630 462991134 165941242 19930236 999498646 578984466 664057721 944586627 409914499 326335659 446030816 327198604 236215470 636082173 617876246 740515226 378546813 98024672 240057821 228738106 952100119 888285579 626828704 143424860 438421940 80675765 279148092 968403032 308568481 73409814 186196321 581446767 937306717 378001319 915374163 924096736 850310091 41103336 82991320 700609842 403562120 435395485 19270191 337620699 102925521 718567947 964884170 969995192 615001124 818011753 168508730 104641775 807055880 920899102 123983670 617040708 763669730 505085698 724827428 934320618 48466402 586008005 142479080 518392617 616278962 514314145 629490777 320304982 819514663 474940594 364892768 803394605 121633412 338659450 455704880 657292640 827279283 971230684 174784554 3780709 143749611 668955823 144377887 298082579 473714760 799471467 858698922 304504563 531469038 190511101 345226101 372182312 75745342 432459530 961987114 790972309 442443394 963669706 289619095 975662425 647180112 67152613 874190105 690844456 390791248 143282624 18061082 247309947 131195091 578417551 935545443 127304177 112477901 685781153 961413831 33090312 767743217 739180701 401536416 74310461 173379295 167021041 39547918 580435455 526749594 894551628 158273765 780331461 592668456 554543221 403912016 671960123 907672174 308148933 102635146 896386178 502934473 828328524 732367408 345959470 475275678 121703813 454126387 652410726 665503609 530153668 159506541 914590546 2613999 909473772 371439591 374757594 364097234 665551064 499110947 526713637 361514865 332452703 993905735 340459837 426250143 604254965 915850022 868176377 181735658 866168803 56408353 430813856 453673937 637658268 797505413 489539635 743143544 753247818 955478369 808039157 470028105 110462469 923159716 886369924 550381455 918647890 431332265 416215677 308200734 262795536 778651335 949647472 755762138 806960200 801176857 364743308 281712380 343205517 677145673 712767211 291005683 968459838 122356452 410368369 386966835 208439060 857062839 492441200 837557779 614234967 637065274 66779250 122018656 810899776 819729461 817478408 167425597 748620291 349474793 879880383 88170016 374078332 96875348 405423462 667326311 719542741 440906603 686179944 619696377 586204022 162848211 98869814 343415858 460968924 861376909 836185837 497398228 990734384 503154651 596848141 835412740 741646759 557490514 568251650 85859647 111677368 443066351 935866192 925319533 443429349 464362609 459661655 794369219 878610882 49327258 34201166 747874302 282762804 445245254 728270790 656969677 505070282 835826481 142882519 189969397 541231118 671357852 716474435 743077567 517391952 281882102 516558616 972880217 218552626 302524545 217348868 244850468 629788009 403033915 58139476 570745178 902160130 390775809 219412629 422041631 299266223 983912197 391727672 692104809 495343392 524556755 639099068 975496804 405009200 332081090 910110046 813928900 173978307 644950336 652307511 735715852 533489406 79574331 70174581 137741748 209913169 640123197 191106950 140055748 236259477 310455006 27517793 579467950 310470685 393268600 923103494 261726806 952883262 877449866 628167470 747856772 615715762 314560950 482127609 48820374 207959377 370788447 758620311 162580966 521362659 854881529 855589986 800305763 992616653 63506364 693076649 869345013 344967798 642281701 264348455 339231590 813533439 379002036 161500905 117271106 999693197 416149998 991288178 574455901 923668284 380024347 316560917 401994125 177735404 363851541 315200801 965196576 580774886 504618320 155284713 433548686 232779525 468732189 526997971 289984681 393169611 717446203 677851959 520296530 50598061 348614216 393251712 53137346 79724315 503003040 60070786 39830041 138812594 453660064 903019067 571414142 169350628 947321543 160651702 454153143 144283131 894971413 971965165 405331032 577454396 2351762 926408816 905041720 735556980 756966331 776841838 976261339 371576157 591709822 300528901 345402769 947435830 469531251 106504973 974156653 6858964 792856510 433629516 619066623 764818460 153244833 659805226 595716855 757354515 21806904 324918129 347339895 933658400 456300092 662718879 972152124 462253512 523444426 199248069 673667036 193786588 227760686 733579945 780657854 537906150 467766568 262240737 306088777 365453772 601005030 833278591 807491203 184246457 14104577 477499310 367339458 16244259 819779377 825637448 462252180 110996152 753661717 143879862 708521506 131124135 455698551 311657171 195658263 484651588 683132027 122886297 73201854 962627007 140633735 277553287 265575914 267676813 773922737 243322099 720443784 280825301 361495701 612757519 649415790 595016330 537607936 982721032 685088080 526460136 663548074 256017633 218072828 282315345 259632473 348637475 470201208 543556014 219996207 19416652 396248415 964807300 17944803 130888609 613331748 520872464 294040459 551459272 42563060 931620733 310213825 700376293 956879482 416359625 839667925 93219284 860087919 381052278 50656635 895373236 55346992 219989182 289202257 700104005 580508547 986085712 166591325 933229146 829498305 538293198 992921043 539670567 92594029 227500222 245431466 593860710 877868750 512152598 227688201 562623688 651458112 558031728 253378157 79168513 566680806 96875044 75088689 255968115 563216678 615494942 455932050 939774693 802511671 338904373 468082088 114289349 356954539 115474704 111540980 185131159 589480319 644056236 260583145 878646418 129000154 992216554 609203432 586851213 921125485 185919302 526958868 802117282 541880462 789573682 367465915 696562769 13005458 971214847 267987914 351416741 586768768 292888624 478188809 244475111 265425607 399171032 297052309 731251134 909298262 677490220 970472660 642501435 11542870 816043278 901255596 164936850 611539808 781972936 220494196 686631901 531453816 566177446 458348156 136059150 341108920 328315448 749053710 286380171 217078608 90960971 308822832 608911223 417300242 723262653 988147738 807100348 504636389 388247315 412093909 786514371 4187237 603807770 667558127 533163213 51627137 398248672 300662421 879114068 435836449 700798757 317661975 499947653 525524265 167809889 972062154 296210532 605112498 663502198 943987121 578271450 691456036 729412889 183397084 780862329 982851032 812149812 870156891 313927676 311084301 951756337 529388788 645693150 248039779 444668195 40367970 206589382 815273432 753137117 435097191 666938233 450748965 985461850 420379149 196043642 983881893 882476832 423708957 227243608 714561566 97562272 677595357 833870294 588308025 20640264 578560997 662136540 649900587 981483218 775420549 177459909 135195761 61573181 844801774 133682657 20890858 836308282 579469407 906749426 734752844 566215865 124600964 182635152 446069918 469884043 511172423 376021058 96810229 974220088 838652063 431205771 149440282 289022046 696173592 644742033 869833578 928777210 142900310 654664521 984086206 145943950 807866724 582955535 791212327 346570308 731124461 743333279 632455369 271174031 17001511 925349967 194791755 441891649 579629562 201396808 873552400 174988552 932094210 498251110 707725351 393416748 895781789 528808156 329535566 739210239 728614750 349131721 425720885 206398981 719686460 693017467 201486470 701722777 841549540 990774205 385956033 600200107 208534068 448624886 366257062 547149994 830187233 39068826 621304893 203227773 149132820 250275156 819630576 299639805 209757419 332539490 102381888 918430845 147770849 81524182 639282634 510919420 395319680 8070163 827893377 504654145 877742380 341762058 977960395 779749278 431242345 327991491 965281123 197581296 155856354 341983811 569645842 266700647 694309246 465134408 67584126 201383024 152939163 259586617 205055289 433854032 971128960 375351042 369733617 777880839 739926399 935574513 488842197 625603182 106454832 458885532 201491917 89845794 355142774 19009987 584133407 551959907 560113311 243951607 522530292 875879456 90257687 319601218 664377286 881631162 582553018 962531960 360254101 188335995 209767201 684328096 793156977 780766872 276225653 902928320 798427357 287313561 711272353 717832594 136616465 1684282 712453639 450301912 981015376 318772825 176186119 749121800 809133796 90796979 347744543 618843825 816277608 970928288 715296964 320798488 492940091 591577577 90198806 730260438 608557462 460012914 412629295 644737102 117838984 976516968 236902968 407230937 573550013 241622625 705816371 725174358 274221879 153878497 478784284 638295258 736826689 567142725 351234338 306974566 755391954 665324942 162549379 648510438 495809361 312359324 758347089 106467930 908126911 522888557 381415944 882749415 496790949 59891717 266342838 855059124 320746882 40849124 534516527 145836098 442744785 780815615 607988505 76882879 948920334 100251912 633024427 590387796 296992884 658568830 450598457 657779381 383953136 982300246 831433898 713383806 391167418 85334942 319585456 880529911 755302399 942133267 209912984 611059581 397945405 535813491 385613514 535524919 386294983 828326891 343535418 942622720 570443221 570409720 122562677 978736427 630555302 743376745 859789983 74517496 328456383 269600807 189971967 615120158 348460608 529003994 471279503 383274563 778504572 542826621 902633401 540004637 411064295 626942210 715471541 850198600 538363308 257348935 28132701 934554498 300567186 635283661 550260301 327877607 742437943 444133783 318724381 545847128 552324930 104631696 329980900 888227879 580359409 694714379 654963296 994167191 731621115 296226150 71252001 914133094 611502684 989889069 296127775 506475333 659522300 206751763 573481599 970957041 724723159 100587374 825958864 335748413 262943018 690882710 61033023 609191723 232251356 354924898 650446925 362241537 527725980 873984654 859676982 690930994 317662263 332429881 156985937 478463647 411853633 183345834 962664710 339846004 788417670 346905280 261296138 123286030 157428454 906366786 944209590 941217889 128651917 462463975 545120023 120586617 148681207 481226783 209039515 332831638 622035850 83708433 391853722 865533080 76014328 97842486 975434222 129181824 79780651 672511747 332877397 306421599 69919401 260491514 367119197 454931519 427043440 53257450 431343287 863842679 209432555 689729659 746928112 788488785 414270911 295020276 2216613 160881640 291668159 990277874 453866686 987332853 58674034 144405360 379741204 13832356 734754189 681459734 532611691 327741458 810013049 354167891 456249285 484887771 252527082 132703779 581887535 937529933 432043849 592367008 402788855 222993591 18917558 448804760 703045122 832063962 637996682 230005166 268339754 16464534 411005507 353766415 682887408 158410514 273800042 711066543 329279802 667049668 932837153 240813445 410231738 741230594 779489297 754508036 625475102 888128818 683844407 553045824 897908480 895180491 676617600 849590138 98908292 211394541 420309103 222289898 657422419 924652167 335315261 3188415 304057620 264160551 172846769 42724774 548012850 424172941 855511840 967969631 538453772 987005729 519281726 10417301 181939481 89395250 680908363 843782227 36335087 915664550 569250730 238453572 470586869 425658502 531250717 724899084 26834564 690648711 561471391 224951421 17547511 177827564 804604127 893256342 193427915 639944459 923052526 527405639 193133112 34158751 180452337 934715948 531383492 390354665 460772679 621014744 142154138 971086524 531435920 196478069 515310206 715123123 964127350 567063678 319548030 447658322 752198751 272347150 183201697 429272652 171996370 668384235 855832184 67327617 798494303 155184018 640525 690384869 916243675 540066832 276505972 372006404 129212709 47196940 671780716 555697452 545799275 136846328 272614338 735471888 703222082 883572614 772355626 943923383 803630166 12541982 9380479 916182741 386342317 906815208 704906495 800857802 851865534 748763599 671258218 379912722 621294742 630679246 639762292 114840665 760658515 228556616 699408118 471569129 28376899 421053770 573149871 717472086 915688818 937733395 486441802 401963837 432008280 300121432 296771289 914945277 48969362 78797055 878826230 433891995 396932289 820629531 300224710 620343743 33034267 967818075 631664518 807024794 741279616 107897657 792340957 749520514 618995428 467397369 886065951 445886877 600748426 410745216 758339234 323284860 140333550 844288924 391737190 752170431 637863110 856507055 422991080 397126303 309273903 146074445 826196116 725760905 145898570 815645835 6773667 467227140 357021441 522177113 697518629 346100365 310235371 237957172 974238550 854428642 239444026 770473676 478036478 899571597 696075156 939826335 10217749 161485401 419812492 846530460 100586780 249056621 480875069 920059742 233198342 67674197 573722735 807672368 899627125 183361841 905299088 713456448 419817358 780509622 721094981 376394030 715826502 782008642 532275103 71569550 587909411 541639909 793811858 439541563 285156890 388789419 690182659 769112583 142449507 774486731 184980822 301814495 150713836 441538759 427408653 443445984 894232718 769658985 304506362 424449850 814679395 483027455 287487953 899012994 304455446 958080878 516166838 285640248 243396282 17701985 768349269 688420582 336034296 773598550 335166242 812654850 582087026 916426140 560626905 317569140 432167420 415160741 563550942 426047939 906600051 303182210 79341610 952864758 212326320 412095121 147494187 787828034 351113390 949524724 81885594 380299221 971497541 768546419 850634717 152287591 731144268 607489732 540542157 829578802 533135280 301509906 552233550 992233948 75085301 79007490 53204777 392591415 821656063 857834696 966858690 817228863 752771312 271726836 138305898 861479900 133176276 580260561 314368940 640361305 849203681 429586035 775999103 982355798 953248252 674596335 214053387 94885779 827316529 562329733 806296525 460669033 124233174 381019530 93463492 358495750 805957545 423686507 490418402 498274988 480629483 409239631 695536175 192827076 349468876 727473508 189662118 57801083 776283013 436450362 637904988 844330475 430926074 883092833 344745590 524281637 502800484 566056917 246932862 801897888 13466169 891876452 917283065 287880736 692100679 380984948 128004234 430391127 876219936 118924311 106533996 373356003 269763565 856265948 155228304 396135206 287325067 702460791 164632124 57169576 305576360 319062655 296768306 761118339 159927562 487655671 994093451 820892020 19950434 133647480 136716214 526025993 846383228 62874680 262236368 290295882 384740069 487098430 473808197 543332753 128152660 31511501 887919080 605333229 537092636 981184789 587312574 272770984 676068776 380437796 999386275 380646742 182049609 751302096 5904311 489829019 716941019 570718758 225058320 458615657 831660130 731153738 612615963 460128086 853714936 98225925 411243083 120527403 23939817 633335128 120209842 844780904 770672982 759388398 792305650 436482003 133115427 371270814 249452497 141258305 219896171 937031986 367010375 526594166 262085792 201171149 299759742 770118883 104903668 405488126 636468783 660004328 837060154 783091407 872862410 755201423 932553144 572313966 814944704 9807725 497019524 810260835 325034959 862276073 707243053 734478849 675422417 860781954 565846419 24143154 889930 547644035 934090174 150241335 100289640 169279261 384988750 275466101 800650046 754926762 368295899 950869613 738182439 342319696 352664799 290374578 748615714 79794090 652041141 600931310 242632825 281643347 189654454 179772337 440288662 215356592 933236650 72186106 777574999 583857228 885896970 160689260 981796678 70677383 269909015 216621585 864776236 247737701 521906309 471873912 696701085 130498837 479575729 965380003 891752593 621618124 35937682 813499287 17102521 114204173 924582214 124443641 653454100 786301232 602391559 460072892 874201032 803736629 875796938 633237853 819198666 541114562 856507042 921003809 454108687 443021384 251710796 774001688 309733373 710827537 822450759 287418741 788463208 869453921 485778298 126579405 870654118 618566780 791479574 4264144 610532634 423814350 216973542 199050684 142736471 533617940 352575394 803993282 287160334 451122947 926245506 71418634 618454561 851106531 377225458 311534849 275246871 123605471 183377273 836731485 131850801 553460225 759000911 808352351 78900180 802820788 147940679 903958959 384803303 974515032 951693174 15549463 757887115 713992192 608118743 338327927 273697198 529456645 71797086 414732223 21095172 923811725 931994810 763424456 330917337 404162081 101812438 93434539 422792113 300785245 568044910 735292191 556685079 642799718 911880749 790023116 785268049 857321539 17749739 419614156 321286605 180515479 247117790 942503766 766281227 107055080 687626711 417126631 373220660 539670174 736232289 460166961 487491341 457690083 829912364 101294335 21667196 891544806 300930517 993382089 229482420 144120593 109303718 156604060 883327143 367818597 751377877 986197719 589929410 165080876 470043346 997670129 963621913 658689777 455510964 168976438 999235423 867191232 487481297 85635382 508218651 668141377 66262682 629502721 188697743 814992193 293740442 501079949 899282034 275560287 354980864 863113502 370093461 754183699 271059507 821174385 465995710 945342649 58051121 745001722 391869779 146996298 444936414 478431844 174169769 531420602 274331104 49741888 661113838 140940469 732082827 188682142 436078205 60837928 787797309 531899985 417879133 332896117 110704387 786397115 914675393 568738396 353579893 762160014 12061282 725232404 919143166 128768838 866463454 17810010 541452617 463512973 412222059 832008040 594458077 573136901 327630318 957387026 891532259 57127793 14364747 451524302 786402129 168744214 849839132 572947814 206559666 622259391 466243743 622457 508022088 474573870 260994147 963782390 350415711 799998013 291788463 781879137 131032953 568975795 647841679 756876710 163868239 898573674 341752036 447897080 463158081 701987323 30153393 222335166 278475178 722275890 264582031 878923750 937511328 974820225 474846219 974243697 330201643 8796337 188954617 498414357 524714446 127658008 535473557 56849675 386316708 355590235 420118292 42441076 727578313 283380056 22501785 781140794 716933601 238202022 534082465 54725261 434133856 134610731 118132708 738252526 326166998 492735660 356058132 926355610 83510288 627813613 606436400 523274502 23021972 875651878 722578129 750316060 657126519 288361594 710947994 74278120 635556445 659039247 736793369 551864974 916835472 551714465 569060869 249272351 929081954 309512041 124046225 480375131 773223185 834311775 986743960 10161317 917347037 369390308 332917138 354552522 666891310 467799280 703209043 148588986 273867984 497683865 452185254 898123651 383523369 28486970 57257678 603168385 176293997 308454321 457264591 194066874 637127552 494990792 257968859 560664592 586501101 712667808 362078013 137211109 844428145 911211031 172177730 976060992 284835810 96102909 300378228 277811272 190201801 211134051 74529996 710015266 973159230 902296109 489742340 655702141 109170058 185654111 956180975 373439004 799747879 111079146 230842308 77623789 445620782 245883121 833042176 941354426 845429302 554680312 99964398 738605048 54997159 889071838 48169241 554237831 70542902 269739062 476631946 434474737 893668651 625110993 23180592 619623560 254295846 982061616 395464812 819800899 156689275 377061927 685416729 425627530 58971526 616492385 610987039 187811064 524977032 644535247 779782328 254960981 866316881 140205360 953450115 116882280 131056796 863780111 104644718 556693952 233544629 99160426 46251027 630574802 214027509 828598099 348547849 337623394 967676442 492783565 170683364 124875961 987211227 101928347 265985041 56103763 518120169 971314534 519999463 472350044 771446811 26738281 543957538 355545099 156769507 218447625 841009083 543950617 292518479 621036939 465033330 314132655 911216239 446787618 989727186 971633985 291917929 802559532 273949803 959881343 217273266 120842674 870280991 488872003 6743447 307645381 64053394 805925550 536077412 265198573 586132249 401865389 874787610 534242978 454015931 225304120 710986390 639445071 65988635 227696494 432462282 239137867 203579477 527148047 914321315 624225171 588989949 920216973 815063038 185949396 491596682 347686023 462189083 361711270 612157934 451223447 304000255 688533688 31665490 419239984 355001752 544016572 496441459 979120148 832924327 920418987 981894424 864074135 715147255 644139387 100652341 835102883 463279102 703712569 607462258 338529054 59031505 489798432 64204338 108353676 852620738 327323866 850863485 802514010 854220006 46169800 428373232 221959012 407599735 721616647 469819207 606411830 110489190 544799215 766605873 342251544 879512193 880875139 419629127 918607145 235198812 877756686 457413576 651496577 509680345 206834488 923528173 486343350 408585935 894193827 763751198 656814870 951317358 836407586 784247383 423761318 963259282 815128946 964831505 780078062 248705587 872131265 140253839 718651816 917890456 175517071 956879891 143104923 721922806 586717392 875590283 375834719 3021430 655690806 496725400 770580631 304576524 652135015 626691224 636125777 928054120 972511658 26499724 214776120 480826518 808611484 273588083 699769804 994245406 480744338 621415021 327864706 935016954 916461422 400654811 494336343 413972603 15297010 106265338 666114160 887612011 103124074 837184092 868310727 810060748 731629409 105832822 694121801 949028791 263861088 56010963 710434184 778082085 357881187 691782402 128289750 776238416 37647674 293042023 163634884 922448520 529343592 277987805 299914432 19511170 196454611 954623843 912104819 27589308 761222405 919178760 799394288 75238279 57716693 354692276 722807633 221133238 73682200 334371615 750945442 296695841 620300397 464885995 494537261 229001477 529891295 587375429 644660630 10449650 921832019 72884406 30037272 642094255 863862790 842878362 540736551 869764717 868207727 847266533 576157882 538208458 876735967 953193839 774683304 253495492 399442058 465419163 523459207 165817262 734872953 427309372 608867200 418764943 188616376 342899847 842966995 322965059 789569098 510301297 47186687 941705488 114950243 172768285 933600360 221442410 24354117 425165285 793092636 259915792 810424344 671513335 107803575 639655198 419145915 201697581 727155161 496311532 734742249 687640234 306094324 406523024 621872478 525756822 764382919 824746555 17113186 903085349 428007924 834653891 113239361 708479404 201286789 426521097 378918585 903324239 394853359 681614288 286908051 8394461 450639641 219509776 964245353 924088196 20199268 886191437 640291690 133645197 604371074 906215998 981081693 993878435 252806101 833455171 93541424 80736674 457356165 955943179 545334960 939511471 240165448 617243385 505511156 564397555 968662800 997488948 257039405 790164977 657693895 298400806 807262680 853930790 420926151 782509800 266092609 42501560 539005939 724151068 452722405 701569213 349593286 951446700 660523003 181538150 754673904 766597086 190486357 331837914 219088894 786772436 944325032 974922982 295257360 1277062 1550979 807337137 979013584 786659982 823761579 765321258 725480928 948446153 81684942 21383899 450412559 502455203 345889928 558339639 50533874 86117743 681319305 414953358 623870313 549895756 171897758 733889378 245415926 982331134 349469890 290017074 97065395 508770345 126800084 522425109 208961600 476140354 31189343 862957096 90545351 955485583 2604631 672921733 557235193 660335308 489287492 480602709 499954766 199327924 821075771 482426074 122542153 402277598 471240762 984960366 230423301 167088803 681480869 603852829 267346570 200600591 537541700 68171980 280950320 967442275 805372433 457209603 487362471 520979125 560767965 640483152 50839968 642735029 779210229 392503048 853807867 53927743 461695290 549311164 875179579 90239368 513928895 849336273 25395548 863220881 743352719 100488592 39143190 516186128 218312334 625280588 364736252 669128742 214030847 541659865 285288335 397839641 696449120 751177572 870261002 313078717 564886844 107205196 656855740 840375480 781089075 107808273 669490847 183972937 827465397 461224050 998586537 134346261 32991815 311380084 391215750 500758541 632969561 490336762 372799000 560276729 795575878 203884198 433461655 253342948 31909592 164717711 512762719 512850009 538766596 720155508 340881942 770083239 524836583 22651830 196239157 997477430 611583470 855161236 742689734 261861895 931343636 928501254 910343083 998189441 534263855 244174006 585841445 757560320 890479320 813308633 447139721 818385005 486402109 741687199 828539995 617835209 972186267 651480392 727732577 36823236 924024679 840937630 577008426 918338522 325545070 821342905 432326056 849138663 224364133 146677596 88579752 803826075 193715742 126512253 940470650 491220045 853546425 62886718 345395935 834388660 392987384 517391093 582926656 951582530 142330952 899829904 440712363 394477357 840369326 153977781 315416321 78678339 93682191 857858391 387063981 928344489 248766677 129046397 770953481 399342168 173739268 166427828 718077997 117208601 30958789 298764012 211776688 579830445 341302225 141581468 409572850 878671934 653676526 378937603 915783489 986051950 614346277 222012887 445211728 925426117 561866851 902034366 70659436 883873096 117814378 439887567 270979245 385085077 546510608 232779528 741477924 478333019 999243579 997043977 721346776 857296196 978287983 237032469 229457076 349560186 84374100 556958737 909567532 386455966 676908133 451251517 940973345 90958691 414278134 213682917 654410053 180390691 446053012 576687755 435729621 111396414 663106097 777375576 463063630 849691310 861159198 795189508 59250702 920221256 236412032 339241514 143668263 76994445 251246323 282489696 608387134 218685762 951045469 786201990 911970786 586868657 580675781 291377303 607430910 387842841 14918177 819917994 726577642 113148504 296114494 471685758 71199462 16928469 685116230 583972010 329446520 70881713 885435746 280497675 642879739 650401242 31859899 754460053 301326433 391259655 276065935 429998538 119952807 206483129 707907219 501218018 94084362 57780277 796759932 612207910 545177887 840201589 43828809 412592011 71181305 574805114 958315531 729921935 24144446 991565627 406389344 542809068 914321490 86644173 948504740 950636783 628143248 596460689 909463956 452165576 955042580 52997457 594793385 851022530 934509378 771616359 373950005 820709775 708098925 896516938 288232960 386052493 765946557 413947324 270008723 824727765 993026868 473013806 971245367 265860178 878771872 646664745 408124537 442290643 608427364 532365683 156342003 572913185 974529067 72553974 903954475 88943753 322859651 247418191 514146284 660104215 480964822 85857978 167140286 533042538 593048546 491758289 999632594 964981005 783620484 551797102 479806255 693717422 603392816 623591833 517510698 116186261 719470856 825497240 814790804 886378417 808210491 222777987 659377576 792747122 115904507 643420669 981022367 319508324 573025586 755085409 975845443 761223629 85905180 611662912 297734524 988201114 327698737 664232388 317931787 487314257 735755933 363071687 15883897 959856787 658540905 673505492 624137372 390537368 253247351 386078700 425750423 238528237 840852289 983606408 869293323 63359741 696263735 742461471 847603314 202564109 15238297 126723706 179019759 610057226 672095761 19034261 277915962 722978343 979749963 788191419 856107259 503784482 771338546 289988254 80658498 319144262 142399901 479225061 184165411 32998031 34419020 555805477 896475149 775776178 182038399 216670841 575876213 310493991 506951877 513021039 513066143 14315387 616805785 843013581 576498701 813312604 159932871 387749677 776462217 794291215 863349658 843725070 653907180 633050249 994274061 577833356 320269512 21132441 155127208 934600489 253432654 97753118 750985560 382584090 641862554 852832636 92975292 172160776 642735932 248924643 858935776 886295564 986208223 107354613 314162479 131757609 377237723 677483311 974704805 780057179 315207217 66218738 199574515 521902398 232224585 936734258 4525434 158656287 529309942 781583684 187491861 90862448 507052615 477170022 238197002 165265931 890897303 478329904 229325756 897205056 854662272 489853308 830375656 202241141 182344563 364690804 347624652 615796227 294860844 292151283 201541076 578207229 128093678 64230039 483482335 646279798 758348606 74302995 864834854 374168607 916961248 947649256 876855218 292102680 727805759 741869763 964250019 498407926 439190881 130253825 287854095 391076211 168978542 47629898 703219875 407871747 701730973 205309343 494737224 469427249 843959090 188391032 880470778 48925953 612898149 977187629 68135365 631359514 61843574 251576002 507929989 738567246 522035779 600038339 989593177 764510924 947213232 865583537 632925202 75035381 854051586 739959016 188881132 301945393 397654964 331228379 926397425 404339939 795081253 464895474 858618733 924051187 223475444 448025121 263594112 242574936 125116781 194643807 953281213 649024172 337579216 492550245 622303277 653248756 413077564 832769695 952252394 854175092 414982150 609365002 525759263 23194597 828486797 130696489 663586789 35637069 482099292 298941079 736648687 894968366 17765225 630895652 641638748 975893492 556503705 33264246 707057041 50968121 402817710 800691150 100143490 574764856 347521585 656252272 727869398 56163140 358238889 75062828 473129528 685201969 26667252 331882987 40124692 991034781 390500757 825613017 375814769 119528607 218689999 582525797 606666628 904570030 865023664 354363958 281739299 858195587 669974297 135496357 948364719 214505335 263497133 799822428 585027448 757028115 737218419 617286119 708089441 343048951 106531600 259439850 426923607 980840721 429568866 875977872 536517401 977291476 294024041 98729024 200950041 610101362 365439305 276945121 767650321 135075432 858050661 885211721 818908872 821068208 592438197 558067279 374471359 816517612 485656704 895200703 950594850 188313355 41373044 681271189 939595202 726480950 868183092 558015669 946971787 964578017 913491155 512687676 877123628 1648934 458154035 313745312 796403874 559559238 633795981 719594218 998692501 760037451 100030822 930077709 825073100 294766186 306367924 85699586 519944695 56130192 621747049 499833628 477609306 248232597 480316469 404770955 140406889 381552906 269574484 74931897 719506552 174502558 92476441 747725410 783619396 312543131 95023348 536045480 410742246 906020367 515530506 590110019 907187396 55251457 495751801 86109217 647243433 791754316 977180785 441897449 393735697 464490963 734015402 625821115 823345652 207092291 309277370 928463020 567105977 455874357 611835944 233141782 231290182 24394454 401420684 115207782 578374880 168585811 376251024 296755235 159381821 239926870 505347138 50099842 889411078 113800379 824066830 856241387 35539906 463398172 629376113 708001225 446736067 36422431 505218321 478601042 882726726 12445281 858258533 366825675 623800332 219426504 356585037 894402116 296760982 25019738 160129150 659709491 427204959 789624113 696905049 888106906 253419854 370653138 107542869 617955091 413218112 287659750 453317867 529698441 486126418 974075682 166483777 561740852 766920883 103802201 358785240 439877011 233509372 389089642 154836568 227033106 632551810 154698083 556805214 773661828 498911976 114953812 442827412 429305369 160826454 221834914 718925181 238188045 412866473 208413146 822188020 374391141 803265643 995706653 688794709 31222771 92397530 993865093 728322493 214791514 793668480 233026129 683615318 224578376 111938891 193082978 867561895 223642832 807374071 93234284 172120304 435431050 162635136 396781666 55710612 495949147 344168884 785963832 420495161 746494176 75099326 949376603 264920937 452719633 8209839 216342846 156275449 147161548 620902407 989040976 872420274 896030251 855293497 583010112 528296559 686804207 388290057 714084539 639814389 628378706 821473593 830937595 762828506 903691128 772526014 719675311 115073714 635832804 202874937 540519653 787920972 333582301 844131747 541871350 60079641 587242199 752132513 935441634 471056213 599586328 534720190 206891111 893098947 249701605 843175715 698810890 648209309 772876619 746128250 410018 141407076 309889146 56323401 961026011 372807989 118737450 446308794 335557882 607554404 638969524 281784732 540737533 566384507 349359531 621537005 967065589 231077965 871435714 927776879 706897334 98306840 129810727 345090953 354837289 179589992 950557159 934524755 572179545 160968660 126045879