715 4938
128362994 315233211 693610432 999277181 474159123 824388475 563487525 419506174 744522453 534112074 316024188 875133268 158818370 540935775 161058041 243535039 220919241 311892406 161281532 270442795 624408925 7432089 916680871 22440906 311014573 521576003 525594263 629915849 667699164 885685368 103877467 544298418 771934577 274103834 400330061 119886275 191762708 166194735 27517516 319191546 38876579 761174480 172869668 823526231 171944641 349176366 991664842 783382036 748647990 451648509 627777409 95863110 888034529 6029240 641188486 58407915 536516996 144248824 523313821 920270250 714708583 946654504 599804751 23757161 409952258 998460437 502993286 525000377 924472699 998170478 203992129 284983719 436664600 888265212 484377328 596616166 900809737 855217028 568589246 473640029 801859238 68560418 373904826 937852692 424265019 190806487 733721335 246539468 184457108 202445277 216426319 432076928 347637239 746791868 872660721 68338558 198758900 126856126 542743404 773307434 886204165 36103454 194132771 672077712 337966796 142780141 137989265 918744755 561473526 426642254 719996971 111727661 223203971 67900832 966573224 599792584 590016223 709057191 337135456 287055118 624962214 586866493 152309645 386060769 196709972 148694077 862645043 483333941 691634132 889364893 444783447 646661387 286621765 285470693 666409290 144826230 359296472 103169065 580900943 855309747 115151126 13447737 205915441 642608679 745719674 335337695 419189473 634433565 726674916 352115225 766987746 925791895 440326926 890774654 696907163 844715130 773410452 610258423 679985183 243430879 640156708 689048554 145527469 644250913 968835949 727669985 58564887 733548630 832401657 984929257 748500193 641112019 27775598 430913479 490113253 666375739 203453651 870883646 651873802 719437984 44230178 211526454 148686364 943129058 24261552 814847970 841766359 390901130 708245492 790020548 68396792 773018991 536250346 725492681 905383393 851780193 858581261 547389447 46914644 443856748 371319439 253241014 11170985 644487870 191023225 266614654 667970177 119281487 485050951 143916861 839687468 996513603 412721810 482196878 836601929 879359544 513838108 981157498 804461999 958696482 536469632 665130775 26450733 270222074 810389793 359857998 501941460 916356321 623478513 939529803 603687605 364067377 661861580 778904357 472668398 466405638 819380157 565023592 843037198 418598608 261507246 823076573 540105573 121122844 296303219 884309139 214559956 214888491 842943527 214611285 379556691 527029856 938039174 733713113 486594016 933706816 588208558 725412392 179050409 365801037 469878039 518457670 63382883 380075687 437748360 597962036 106089178 114778386 414687130 414914205 787399289 852131410 323759457 158060442 848308844 366132629 298186711 203943839 248460502 572099754 430593336 972920235 215460432 850435410 700214336 424378742 182256505 369588134 722092240 675135962 324680681 550038914 527577089 939386899 535832284 975736898 537057038 79717871 554233242 814607930 934761614 562358487 104469308 488799767 269418994 622486853 545711276 507839905 759579659 934574479 723460964 675150265 967292598 319989441 891861265 516636666 292968375 295313727 59812327 146837388 204057585 485471930 464501737 749281721 687037558 64937735 711303706 445398334 702784365 712935559 21978931 320025807 256352530 111587580 24623118 281837595 174592 983193693 815453154 687476404 544179416 618228193 874923793 92673624 784200667 502092117 62627509 965130807 397646882 305836389 972854968 824860953 298074560 914960968 516003075 512690551 462389764 347495214 650534632 192275766 61837117 19763350 781233820 844800784 464528355 610581262 824645553 194068849 774152542 221146735 596997024 389481126 837820177 110869240 319350693 64271293 361867260 661014120 717584893 293765518 770270710 682288341 5611144 200352536 590932987 374454867 886012202 630493039 377403589 963442897 836890232 396450643 145064122 221333893 6150352 477083890 163017421 644253350 29970580 538475652 488918294 683531194 459043320 670915761 539644346 279867183 389677119 438241468 741128367 350378688 657056813 535331860 152052584 805137565 666291021 928026568 953527184 554066181 882361442 710799170 568571294 828383505 879405064 472519315 159445854 697044009 289521168 807122285 822651033 105723005 393809905 364037812 383534214 668220647 452091469 479943439 278189512 109005845 969962637 559097691 692695190 121926695 7760330 376076767 868953721 124128958 302821632 282127186 508563437 232760894 289501262 510099473 730653743 726571693 693078748 576493153 657133130 401418462 754212189 83549677 796021071 588257611 750951635 124962869 577801733 231159969 542895378 361738737 975874176 648067320 847021492 994591674 154141916 156196936 488785250 431864534 359356773 561607537 135921050 820562100 199229131 148599246 872575424 776193715 728289792 529791459 291277966 624196244 524287642 256623286 850834074 505105954 722744909 617958511 888810996 476570186 105962662 977109141 671406818 250248719 653803686 655359884 959294726 476168229 22175100 613366942 581315850 130801391 382061424 298311524 863194095 216677926 746077561 794320191 343627194 26323072 372197454 607518258 892429617 62401911 809123910 695823258 604895306 392246361 682306360 486286783 580883625 966018442 655115476 851593202 625982750 5104689 755129019 576820435 478801097 680476013 118762185 683873663 407230552 100748805 828715402 150924116 90544684 184224637 182439759 984051136 674016938 26747056 124515530 939101894 70042764 386698220 321969911 532451397 832476199 396957785 426960424 202276158 974940932 244167018 84794543 428990448 954623581 839754676 733421921 170467322 992271405 143016551 123714660 21251068 710084294 867874898 12399409 766392379 756001573 3206119 747727213 625993160 531374793 707453839 130797558 671705015 744343087 486467763 224559738 81086448 672097754 869801085 667653394 471387801 49168818 780910758 225298441 427275145 155014869 793566422 835901818 196155853 830445248 529569063 44557301 951544379 392366972 719083147 148301982 348871400 908130344 546232275 78381039 909256588 35025869 55660788 572560393 847780482 313366378 533347815 127172734 47979502 352341302 208383113 464441488 37374271 289700783 125100318 686880210 822802604 318795826 399083488 628000956 109636286 545965475 596696251 480701501 787160147 839008864 789884506 968495977 242810662 871109968 916436617 997705108 157101562 268536001 725050826 172461442 489069852 677638290 570165186 165269113 431918737 61788411 846921748 310101207 975693576 381189092 995102140 910665948 477895016 314402156 229040028 225512674 665900135 917733652 492934027 128141742 46849390 817513934 500218564 32384669 428683683 308621754 572650912 273205627 168491366 458366171 601364689 277934963 916104353 996314926 546641488 706198931 866431719 410356003 255750523 317715311 344760144 779643891 181984806 465200953 870640306 725915443 428219929 459289637 395243894 556773558 988465409 763109238 220419556 634004341 207502181 905447077 782181494 928871410 380898412 458555947 400957416 615409719 742250179 839131183 7059553 370564490 494994847 402303787 122189770 900027919