1208 765242
531356774 295631955 782868045 781436746 449640097 798060479 19109608 802036987 723628032 178819363 85291288 651646790 928647275 665357502 979288294 176354204 47362870 56640360 109398697 682790185 260516929 92125960 208584593 743767490 725399862 996686401 6099782 209100967 526536197 287512534 95781626 370757641 713473688 384029204 162735359 540160218 476796684 17353412 68599495 839278194 452489238 384134537 233499573 367378323 807563202 762280992 454837728 460776861 470073908 242188360 455404331 822299037 622698790 562945752 200157330 711644994 465563307 4640821 864144953 257085485 44473639 178810960 249144435 644840283 332473627 184180681 77709948 333451807 412727399 102756665 729556323 893654586 82625610 5722212 369748556 473223608 284062701 931404656 418894217 991753466 791405152 477948048 133518666 794444287 542896495 295920825 927739703 917320373 166892461 564201629 994114490 645121486 720116370 155874811 584059046 276861221 870435018 862071123 548742609 271745721 795382228 777556667 87461432 809005875 736528216 619981201 265270562 696965432 73072465 673647429 676188824 831458784 16989755 52521004 340964511 318055356 671793881 87213198 511071157 240191693 470323762 192699407 111319884 787583613 796447590 841146913 576770499 571826082 628916182 776041233 303768032 211109634 328729625 576419146 23247271 147589155 896527643 42599511 917134881 190072051 651122891 629726632 409607652 663090509 82575818 442069162 734725167 668226347 75816642 386805696 215871705 918258241 98030510 547033638 686110113 676509948 737194373 619441882 196677928 676187232 305546381 878539017 419108022 73367981 882969000 450951570 608847689 802612859 884251197 679718228 730353295 324476436 528078697 991375061 772119041 705453694 465429482 635258849 4986740 665305089 358415935 266445644 96299105 67608465 982556010 128788311 440485248 607662201 988833347 382489325 750118436 126801364 913915162 623727892 510388427 87787051 472304634 517597036 432736846 493948334 841773224 79215444 340519213 989249871 246809623 428011161 981446696 772495147 706396524 803194937 444879840 931523820 74980970 148487809 217493734 78864257 961905587 213633595 369429461 786374952 866470153 135552439 930610585 497379530 883060056 945427977 22129375 961480536 660496817 665494054 393855286 3407168 70106400 526722501 567024523 268574327 847597566 908363920 553250881 644633620 692365469 109286692 605780117 256082732 866145766 505186271 829195416 309883056 299496961 327978062 78919190 805775737 478979074 434500389 650266153 131589436 411787051 271950302 995733245 239878634 837718266 184046093 773922185 764311252 477047508 285962565 842633928 489585405 474242155 327368871 367557187 294619521 13692609 937865086 47949488 590356057 970870422 761189215 836236513 844150137 56049577 691192025 52693889 128533540 608088962 917073403 93584731 769143566 504518912 229601115 866063658 521761177 388968648 857309173 311459380 932038706 581537780 526318340 278511152 418988503 895560670 88814743 554457015 837333443 53706672 746364588 534751470 569118862 305977559 428132793 581103487 929798601 173521757 620978730 104332991 781480926 105030808 625386738 747186411 387058434 573330851 923794214 871123696 95402568 815661628 816239076 560437647 568500032 838347044 606209078 754638352 931894398 648316142 321723131 995300179 202361018 460023501 924321957 445360739 608062895 667857547 788283178 252224445 369792332 607169141 317939674 601697117 295491329 550635027 966024383 190616284 415139396 598151403 387762715 7077695 125807146 502133161 109994390 677255099 501227810 497999239 676945507 667689304 563563962 619463815 479562010 714458832 820874224 964870722 710306532 746092033 579237649 121339233 743782963 69170408 216112427 20479036 259428795 536000397 963413738 746812122 376961119 429764328 338821033 930601473 64443109 939434867 850655322 485642492 87684913 325818458 564360589 645339975 565289863 252567821 396874893 646933924 175157776 783051552 906210535 128505238 410669913 182427262 886516190 721398920 975342402 822424449 612257036 847814070 846182963 822450182 928587681 379478235 183152377 351205617 736490576 42257575 710536103 639587821 726999712 883932112 634480113 509672311 904357716 67742622 692236237 704613539 586430247 894093878 945647375 733387461 787072632 450065105 85319972 407490963 861812437 952929557 170131669 850780796 653794926 681975415 840112680 489281948 85870394 369581012 630336103 350247670 53861615 739385888 326460701 650842668 694766844 383910460 10887895 39889797 405401883 627524953 696756582 797330056 772299087 561564182 565136389 192733765 348792703 535167931 170636621 594639886 981993883 992084443 937637598 654872073 773466357 969679998 235393280 961530503 37412924 62788269 443060411 25260418 770745926 920878537 390638658 819008418 891463010 198089363 956952443 340959528 322193817 768366272 844848 874273139 520602120 163177881 815784344 737103952 991384814 963611705 639207331 924064815 223149722 47142730 511349940 762009288 128854406 778264932 354236281 538798524 331791246 669974033 127682499 776563125 519748525 504147274 846325618 261952067 991847549 705048718 839263286 416667161 59943385 708755137 551206520 11793847 622432201 866291386 358752056 379294315 49784157 317955654 623598221 700489334 148789139 373916347 733167909 420639037 43199974 918622198 820025823 766344908 726718699 673769342 568945817 71761306 720729244 605936587 683333497 46803572 255554651 366669321 955242337 852743678 348539124 923639676 327264236 136067524 218216656 951019668 96992240 655999568 326598722 915012330 510288895 473396627 548511363 22279347 83498281 482977456 333651505 462813511 531290078 827752128 333997538 585161246 830265628 442130976 852699422 406879498 518529882 272279005 996376461 655385338 303544704 522516760 424378469 891844996 763667098 776795164 495963014 136614817 130979921 341115328 740279725 358401138 651958166 353750302 188575876 863153637 753022907 581956565 822814756 455601197 628410794 674402868 178732601 160944549 166683119 950419430 294840313 886556343 531371694 785221176 515852176 931500401 537001974 780326367 579026496 784704277 678996362 116576981 93278895 362835051 928839822 580676471 52510955 111120105 426891714 591365647 927704686 333983169 959790493 288735032 372601913 850177385 484451881 12275289 145671264 301678276 131192833 223578811 683156832 327215485 45502429 288483566 66079995 417116743 724899905 370138362 815164618 477251917 691705400 141022856 935515134 738915686 60168217 77173093 14616545 121660284 468056916 670742008 512788199 999100889 497250788 692979424 650427094 248169936 118611611 480186624 444414558 446017754 311183628 676006420 101557848 557892688 658566001 21021418 269148105 934043608 513542748 782023184 353002540 559881125 861324946 735954685 215205566 884419024 642689006 129942118 289480687 774501249 908135897 691393890 867392026 913238495 878479048 831936698 49067355 377378736 498059528 176487368 767044702 30601145 163229056 476273130 289606375 769369971 172336863 415757262 509830090 363793222 977789222 553097903 351040259 955029361 541818774 606972222 627703874 716521897 739041886 775295247 613753794 122192456 480801689 392805749 814467033 762887914 697435642 296032865 500061827 137273528 857167625 192111917 158474755 140879381 575257900 208601761 219343990 33678775 145067965 847683517 899652124 170003870 516370625 174166484 373667310 364174816 842941885 547710261 82945293 331949449 668618375 692701924 701294215 58778579 534401957 281720462 104228812 322086662 535820566 858238904 845558317 402654366 749712460 505029873 683033980 317788253 200373817 234814199 160886628 327756706 588129772 323345208 386232745 92896636 353808150 774872007 116838146 141968872 380848290 469129522 897877184 647990818 413429386 480697372 353685976 637019675 980207096 431556848 379456522 652628963 847938932 571856846 773587402 602633330 273069252 290962525 879840391 617019687 504388342 940310678 855609045 947881622 4158254 193276254 683246681 67969783 214475743 676021483 971974979 114765785 297607824 867301753 317720429 452461938 871054710 934643886 976116041 545606652 350115492 301159183 67538586 679457716 243524848 681221538 580046694 781361402 620208283 126363828 619597415 772403413 609683015 13278551 155819301 287379124 304198877 83023602 342517018 11815585 121552386 963269645 130981482 211613855 399118487 699723735 471406540 998012851 257670425 468546898 380417064 99287196 455867768 999977279 359701259 436552004 767199974 194338652 354390606 332463489 764921947 757894574 292321550 892222410 366100312 332460851 96553837 145880083 121384525 123100599 607091673 550195826 771701041 657192871 221369377 375254657 172732954 433208041 511559801 361877163 108248960 556902201 869669568 630462394 964886085 357448880 644689678 53374336 113295323 345264240 792342805 642329371 232382549 666086701 255188468 168912028 494226745 974239894 558845420 98185406 249756622 301568681 799922877 689403969 297578534 863442628 111832773 384498697 665233204 667511480 977468151 760949123 143274475 210327926 551084685 463225553 461140726 608870703 647689413 848438644 832300552 67514203 695312006 727029257 477328950 950022809 836209857 628144638 478874107 643561145 598098837 727043413 341976007 415690149 888606301 220146493 874667529 861849787 197757262 58664725 361109370 871179454 155824238 733977947 484671833 887808677 413930396 496754290 111286050 138907171 591145055 68906957 59529894 172862276 443747506 46505002 300737976 384683357 696274055 706802901 919466124 729470984 180308082 694917698 471920001 9847530 393989172 86297327 235094427 303756875 560873755 112791562 267360250 461745128 415155971 434617851 170675367 9894327 8955578 350403424 997730911 169680511 649889279 86681255 14096611 39360818 221201014 437356504 74716109 632563976 605005952 767086959 829935644 763398219 427462554 584614056 595776303 328982461 929390315 613789115 614967491 303101761 921379515 29984301 729427213 921688757 269564363 211693003 583595987 344154870 420240111 385205694 843256373 745588626 768805907 354066763 190714677 625475856 900296045 942815044 626857048 476460967 312372002 930788522 99381716 19351343 268407993 675852641 622656211 390578773 114760182 306285024 686359869 248227671 876297767 875968265 412429620 254895613 687355715 872301733 563999380 126077205 530119895 920185967 115243514 461713758 531743153 151677124 976927634 236246322 670830691 134610326 10958033 653207816 399744551 518076798 157016129 205144783 629514779 1567271 59247564 694184762 550235124 890574011 345390956 997520825 420329437 160395311 295021051 581178568 63726876 502624361 140573110 568619309 622873383 134635355 920568857 960962842 299643862 625062285 593051880 922551587 335884174 657391075 52435175 333147242 167561860 354340652 967197144 18025558 748038608 381905802 51569140 267876984 160410437 304828162 686196976 639826546 934977557 297244245 889074664 594339171 347502832 963831290 914655409 517203657 649810704 806913929 717136995 317599052 92706951 980855982 864282356 867203427 714835196 155940110 806553894 531680649 95749576 223173838 140806409 170843390 76681674 902101865 59508530 559737109 445494827 97971883 627915958 564247414 331605396 656413429 137973665 493328233 401419487 153602750 44995877 302120181 872864156 158137078 364004622 691042380 708154738 693069072 656523137 88173208 130776585 633815221 246456888 23310707 700541285 382305301 273470169 83813430 51123281 532593532 250859756 7410207 436033352 942036020 882112376 695114924 454085359 776037622 835770550 395214326 175874377 114236289 364331686 85543830 509449427 377671776 557070670 421807520 647971463 434629738 924080372 416080987 546108184 126896403 843847715 274522033 182663513 438847052 298902181 419081080 377051062 461693545 102966615 419731727 238163211 566434335 333470999 567696610 251181222 670308796 485842666 305090241 607981211 705847284 935114454 243067681 953592723 28268291 549751244 228377905 939113402 990945941 980023512 541347021 801313534